0 1 0.8927825689315796
0 2 0.9239417910575867
0 3 0.9165783524513245
0 4 0.8002777099609375
0 5 0.8016110062599182
0 7 0.0503934845328331
0 8 0.2409508377313614
0 9 0.9199615716934204
0 10 0.9170382618904114
0 11 0.10743927210569382
0 12 0.1682736724615097
0 13 0.9291250109672546
0 14 0.9188620448112488
0 15 0.8169979453086853
0 16 0.9223793745040894
0 17 0.7674417495727539
0 18 0.8488050699234009
0 20 0.8947809934616089
0 21 0.8053206205368042
0 22 0.9165544509887695
0 23 0.8030851483345032
0 24 0.9486350417137146
0 25 0.6305583119392395
0 26 0.9346624612808228
0 27 0.34260982275009155
0 28 0.8911724090576172
0 29 0.9338446259498596
0 30 0.9162000417709351
0 31 0.30455121397972107
0 32 0.9152351021766663
0 33 0.9342259764671326
0 34 0.9200875759124756
0 35 0.8507185578346252
0 36 0.9322695136070251
0 37 0.9205666184425354
0 38 0.8600969314575195
0 39 0.9122833013534546
0 40 0.9413536787033081
0 41 0.7527897953987122
0 42 0.9124491810798645
0 43 0.4939800798892975
0 44 0.9135379791259766
0 45 0.9215500354766846
0 46 0.88774573802948
0 47 0.9263689517974854
0 48 0.9105844497680664
0 49 0.9284456968307495
0 50 0.6249179244041443
0 51 0.9269696474075317
0 52 0.5119096040725708
0 54 0.7994961738586426
0 55 0.9185259938240051
0 56 0.9342628717422485
0 57 0.9020289778709412
0 58 0.7990724444389343
0 59 0.7906836867332458
0 60 0.09876699000597
0 61 0.8474549055099487
0 62 0.9110691547393799
0 63 0.7656825184822083
0 64 0.9249155521392822
0 65 0.49379962682724
0 66 0.9197367429733276
0 67 0.9176643490791321
0 68 0.9246635437011719
0 69 0.8729490041732788
0 70 0.8032086491584778
0 71 0.9104880094528198
0 72 0.1545400321483612
0 73 0.928169846534729
0 74 0.6505067944526672
0 75 0.18705269694328308
0 76 0.8694190979003906
0 77 0.9268444180488586
0 78 0.7312124371528625
0 79 0.9158223867416382
0 80 0.9295379519462585
0 81 0.2539592981338501
0 82 0.9220326542854309
0 83 0.9172864556312561
0 84 0.8910831809043884
0 85 0.8781938552856445
0 86 0.9207990765571594
0 87 0.49955761432647705
0 88 0.9183980226516724
0 89 0.9209223389625549
0 90 0.9304313063621521
0 91 0.8975700736045837
0 92 0.2376028597354889
0 93 0.9075815081596375
0 94 0.9141468405723572
0 95 0.7787480354309082
0 96 0.8975034356117249
0 97 0.37203583121299744
0 98 0.9252663254737854
0 99 0.9177918434143066
0 100 0.9094323515892029
0 101 0.9157156348228455
0 102 0.9171618819236755
0 104 0.9197367429733276
0 105 0.8621521592140198
0 106 0.9203415513038635
0 107 0.09530525654554367
0 109 0.9380229711532593
0 110 0.8916452527046204
0 111 0.07618778944015503
0 112 0.9062013626098633
0 113 0.7635866403579712
0 114 0.2810957729816437
0 115 0.6418800950050354
0 116 0.7626116871833801
0 117 0.15790283679962158
0 118 0.4423961341381073
0 119 0.267934650182724
0 120 0.4547477662563324
0 121 0.9229733347892761
0 122 0.21580640971660614
0 123 0.21736277639865875
0 124 0.08888575434684753
0 125 0.37420982122421265
0 126 0.9322016835212708
0 127 0.9169307351112366
0 128 0.9197367429733276
0 129 0.8843509554862976
0 130 0.146026611328125
0 131 0.9058095812797546
0 132 0.9482887387275696
0 133 0.16560989618301392
0 134 0.5216706991195679
0 135 0.906781017780304
0 136 0.07391045242547989
0 137 0.44169941544532776
0 138 0.910007655620575
0 139 0.9257678389549255
0 140 0.6247648596763611
0 141 0.9362854957580566
0 142 0.5941514372825623
0 143 0.9150938391685486
0 144 0.9031276702880859
0 145 0.2871435284614563
0 146 0.6798357367515564
0 147 0.9006209969520569
0 148 0.820412278175354
0 149 0.9290097951889038
0 150 0.6982423663139343
0 151 0.9204463362693787
0 152 0.8032051920890808
0 153 0.9082639813423157
0 154 0.8961954116821289
0 155 0.3309463858604431
0 156 0.779576301574707
0 157 0.8633643984794617
0 158 0.9220101237297058
0 159 0.4880051016807556
0 160 0.09116524457931519
0 161 0.9187367558479309
0 162 0.45260411500930786
0 163 0.2399209886789322
0 164 0.07512217015028
0 165 0.751842737197876
0 166 0.9202141165733337
0 167 0.9305515885353088
0 168 0.2253665030002594
0 169 0.1007869765162468
0 170 0.11142418533563614
0 171 0.9136675596237183
0 172 0.8986737132072449
0 173 0.7132419943809509
0 174 0.9160999059677124
0 175 0.9206922650337219
0 176 0.6893234848976135
0 177 0.8787367939949036
0 178 0.889834463596344
0 179 0.2346659004688263
0 180 0.9227351546287537
0 181 0.9279232621192932
0 182 0.9163234233856201
0 183 0.25360286235809326
0 185 0.9278076887130737
0 186 0.9103319048881531
0 187 0.9147294759750366
0 188 0.8285855054855347
0 189 0.9135045409202576
0 190 0.8630139231681824
0 191 0.5641670227050781
0 192 0.9051902890205383
0 193 0.9458031058311462
0 194 0.7860755920410156
0 195 0.6585914492607117
0 196 0.9268444180488586
0 197 0.6856652498245239
0 198 0.9155890941619873
0 199 0.7291383743286133
0 200 0.8908693790435791
0 201 0.7764433026313782
0 202 0.15889334678649902
0 203 0.4240112006664276
0 204 0.9374956488609314
0 205 0.9222487807273865
0 206 0.09876699000597
0 207 0.9246073365211487
0 208 0.3507489562034607
0 209 0.9190038442611694
0 210 0.9341380596160889
0 212 0.9284456968307495
0 213 0.8858665823936462
0 214 0.9179201126098633
0 215 0.7484196424484253
0 216 0.9061610102653503
0 217 0.9263689517974854
0 218 0.8615802526473999
0 219 0.5060346126556396
0 220 0.18171848356723785
0 221 0.5734221935272217
0 222 0.9075799584388733
0 223 0.9163234233856201
0 224 0.4655333459377289
0 225 0.8732406497001648
0 226 0.934998095035553
0 227 0.4393202066421509
0 228 0.9250295758247375
0 229 0.06518514454364777
0 230 0.9118393063545227
0 231 0.23658157885074615
0 232 0.17066611349582672
0 233 0.6695801615715027
0 234 0.31873562932014465
0 235 0.925147533416748
0 236 0.1126832589507103
0 238 0.8709731698036194
0 239 0.9150903224945068
0 240 0.9223793745040894
0 241 0.9298321604728699
0 242 0.9110729098320007
0 243 0.8957956433296204
0 244 0.09941565990447998
0 245 0.17816787958145142
0 246 0.9102055430412292
0 247 0.8919004201889038
0 248 0.8875206708908081
0 249 0.9272061586380005
0 250 0.34431320428848267
0 251 0.8601418137550354
0 252 0.9119066596031189
0 253 0.7029939889907837
0 254 0.9114509224891663
0 255 0.8977887630462646
1 2 0.9297096729278564
1 3 0.9332103133201599
1 4 0.8244860768318176
1 5 0.8390435576438904
1 6 0.05431254580616951
1 8 0.3124536871910095
1 9 0.9494208097457886
1 10 0.9197512269020081
1 11 0.11345520615577698
1 12 0.3361547291278839
1 13 0.9337976574897766
1 14 0.9291841387748718
1 15 0.893648087978363
1 16 0.9356574416160583
1 17 0.7783583998680115
1 18 0.8986988663673401
1 20 0.9288507699966431
1 21 0.7630001902580261
1 22 0.9268274307250977
1 23 0.7975656390190125
1 24 0.9106177687644958
1 25 0.7175946831703186
1 26 0.9381917119026184
1 27 0.25764766335487366
1 28 0.9187397956848145
1 29 0.9245007634162903
1 30 0.9081539511680603
1 31 0.31202152371406555
1 32 0.931934654712677
1 33 0.9238004088401794
1 34 0.9312661290168762
1 35 0.9173221588134766
1 36 0.9250927567481995
1 37 0.9478527307510376
1 38 0.8641141057014465
1 39 0.9238547086715698
1 40 0.9276251196861267
1 41 0.8017942905426025
1 42 0.9238004088401794
1 43 0.5219138860702515
1 44 0.9378137588500977
1 45 0.9326507449150085
1 46 0.9174098372459412
1 47 0.9384030103683472
1 48 0.9426959156990051
1 49 0.920237123966217
1 50 0.5455663800239563
1 51 0.9443097710609436
1 52 0.4956493675708771
1 53 0.05431254580616951
1 54 0.7976897954940796
1 55 0.9382883310317993
1 56 0.9462507963180542
1 57 0.9321607351303101
1 58 0.8769859075546265
1 59 0.7815258502960205
1 60 0.12444566935300827
1 61 0.8800681829452515
1 62 0.9280024170875549
1 63 0.7211445569992065
1 64 0.9413037896156311
1 65 0.43528521060943604
1 66 0.9415993690490723
1 67 0.9267596006393433
1 68 0.9530606865882874
1 69 0.8891655802726746
1 70 0.8498473167419434
1 71 0.9219127893447876
1 72 0.15299372375011444
1 73 0.9390896558761597
1 74 0.637684166431427
1 75 0.12544526159763336
1 76 0.9289953112602234
1 77 0.9367532134056091
1 78 0.7489059567451477
1 79 0.9250516295433044
1 80 0.9234812259674072
1 81 0.23465700447559357
1 82 0.9345147609710693
1 83 0.9221289157867432
1 84 0.913004457950592
1 85 0.8828685879707336
1 86 0.9277295470237732
1 87 0.45954611897468567
1 88 0.928530752658844
1 89 0.927834689617157
1 90 0.9403338432312012
1 91 0.8941918611526489
1 92 0.152204692363739
1 93 0.8950839638710022
1 94 0.9308571815490723
1 95 0.8095039129257202
1 96 0.9271546006202698
1 97 0.4035024642944336
1 98 0.9547129273414612
1 99 0.9290146827697754
1 100 0.9180514812469482
1 101 0.9291901588439941
1 102 0.9306576251983643
1 104 0.9319584369659424
1 105 0.8776819705963135
1 106 0.9368287324905396
1 107 0.25765255093574524
1 109 0.9447222948074341
1 110 0.9194111227989197
1 111 0.05028364434838295
1 112 0.9188302159309387
1 113 0.8345029354095459
1 114 0.37947705388069153
1 115 0.7002371549606323
1 116 0.827479362487793
1 117 0.1679023653268814
1 118 0.3754025101661682
1 119 0.32318276166915894
1 120 0.526787281036377
1 121 0.9255769848823547
1 122 0.19075633585453033
1 123 0.29767656326293945
1 124 0.06285455822944641
1 125 0.1896083652973175
1 126 0.9239689707756042
1 127 0.9271388053894043
1 128 0.9330296516418457
1 129 0.8949071764945984
1 130 0.17599275708198547
1 131 0.91633540391922
1 132 0.93448406457901
1 133 0.14573585987091064
1 134 0.5003118515014648
1 135 0.9129602313041687
1 136 0.15299372375011444
1 137 0.5505750775337219
1 138 0.9289878606796265
1 139 0.9356874823570251
1 140 0.6706773042678833
1 141 0.9386098980903625
1 142 0.6796069741249084
1 143 0.934248149394989
1 144 0.9180206060409546
1 145 0.20088441669940948
1 146 0.720607578754425
1 147 0.9211838245391846
1 148 0.8582000732421875
1 149 0.9272441864013672
1 150 0.7462879419326782
1 151 0.9166606068611145
1 152 0.8357626795768738
1 153 0.9458723664283752
1 154 0.9200884699821472
1 155 0.3177066445350647
1 156 0.8393219709396362
1 157 0.8820405602455139
1 158 0.9387098550796509
1 159 0.35490018129348755
1 161 0.9300681352615356
1 162 0.4058484137058258
1 163 0.20026227831840515
1 165 0.7747520804405212
1 166 0.9313703179359436
1 167 0.9436320066452026
1 168 0.19336333870887756
1 169 0.07760550826787949
1 170 0.11030930280685425
1 171 0.9260619282722473
1 172 0.9257499575614929
1 173 0.760520875453949
1 174 0.9359468817710876
1 175 0.9329266548156738
1 176 0.6930418014526367
1 177 0.9067968130111694
1 178 0.8996741771697998
1 179 0.23231787979602814
1 180 0.928530752658844
1 181 0.9250927567481995
1 182 0.9254702925682068
1 183 0.41337019205093384
1 185 0.9389837384223938
1 186 0.9240527749061584
1 187 0.9185600280761719
1 188 0.7826089859008789
1 189 0.9119822382926941
1 190 0.9084106087684631
1 191 0.46543505787849426
1 192 0.9138127565383911
1 193 0.9309583306312561
1 194 0.8371850252151489
1 195 0.5921561121940613
1 196 0.9452788233757019
1 197 0.7320709824562073
1 198 0.9258513450622559
1 199 0.703149676322937
1 200 0.9182001948356628
1 201 0.7470394372940063
1 202 0.30477553606033325
1 203 0.4826325476169586
1 204 0.9483844041824341
1 205 0.9335019588470459
1 206 0.11555669456720352
1 207 0.9218785762786865
1 208 0.19114096462726593
1 209 0.9312661290168762
1 210 0.9386098980903625
1 212 0.9223998785018921
1 213 0.9277476072311401
1 214 0.9355577230453491
1 215 0.6927997469902039
1 216 0.9268138408660889
1 217 0.9533151984214783
1 218 0.8336563110351562
1 219 0.46771177649497986
1 220 0.19114400446414948
1 221 0.5202255249023438
1 222 0.8567622303962708
1 223 0.931934654712677
1 224 0.4669930934906006
1 225 0.8968523144721985
1 226 0.9309931993484497
1 227 0.5074118375778198
1 228 0.9308571815490723
1 229 0.0887327641248703
1 230 0.9232074618339539
1 231 0.14904551208019257
1 232 0.18585431575775146
1 233 0.6921867728233337
1 234 0.24272800981998444
1 235 0.9288057684898376
1 236 0.1041187196969986
1 238 0.8813946843147278
1 239 0.9406110644340515
1 240 0.9378010034561157
1 241 0.9333431720733643
1 242 0.9041488170623779
1 243 0.9165034890174866
1 244 0.12029223889112473
1 245 0.17638514935970306
1 246 0.9273437857627869
1 247 0.9062708020210266
1 248 0.9067658185958862
1 249 0.9351667165756226
1 250 0.32493963837623596
1 251 0.8843302726745605
1 252 0.8971539735794067
1 253 0.6571357846260071
1 254 0.9250516295433044
1 255 0.9063406586647034
2 3 0.9630048274993896
2 4 0.8617042303085327
2 5 0.8538461327552795
2 6 0.07897471636533737
2 7 0.06448258459568024
2 8 0.31265878677368164
2 9 0.9588767886161804
2 10 0.9534081220626831
2 11 0.15122507512569427
2 12 0.3489336371421814
2 13 0.9604187607765198
2 14 0.9511876702308655
2 15 0.8547083735466003
2 16 0.9641559720039368
2 17 0.7596799731254578
2 18 0.9055895209312439
2 20 0.9335654377937317
2 21 0.7690228819847107
2 22 0.9612823724746704
2 23 0.8158305883407593
2 24 0.9433618783950806
2 25 0.6970400214195251
2 26 0.962539553642273
2 27 0.3224749267101288
2 28 0.9302676320075989
2 29 0.9629693627357483
2 30 0.9151309132575989
2 31 0.28547659516334534
2 32 0.9556241035461426
2 33 0.957170844078064
2 34 0.9641186594963074
2 35 0.9113045930862427
2 36 0.9582945704460144
2 37 0.9594177603721619
2 38 0.8943939805030823
2 39 0.9494327306747437
2 40 0.9587572813034058
2 41 0.80215984582901
2 42 0.957170844078064
2 43 0.5079277753829956
2 44 0.9550809264183044
2 45 0.9631965160369873
2 46 0.9362991452217102
2 47 0.9685298204421997
2 48 0.9527450799942017
2 49 0.9549602270126343
2 50 0.5720722079277039
2 51 0.968033492565155
2 52 0.5326619148254395
2 53 0.07897471636533737
2 54 0.8357070684432983
2 55 0.9625779390335083
2 56 0.9669209122657776
2 57 0.9457994699478149
2 58 0.8570776581764221
2 59 0.8240562081336975
2 60 0.12063587456941605
2 61 0.897386372089386
2 62 0.9490436911582947
2 63 0.7480549812316895
2 64 0.9663450121879578
2 65 0.47822055220603943
2 66 0.9657326340675354
2 67 0.9577937722206116
2 68 0.9572518467903137
2 69 0.9092194437980652
2 70 0.8722228407859802
2 71 0.9628374576568604
2 72 0.1612064689397812
2 73 0.9742599129676819
2 74 0.6502941846847534
2 75 0.1679305136203766
2 76 0.9179149866104126
2 77 0.9669607281684875
2 78 0.7381008863449097
2 79 0.9512701034545898
2 80 0.9518154263496399
2 81 0.23153521120548248
2 82 0.9479914903640747
2 83 0.9587194323539734
2 84 0.9427047967910767
2 85 0.9265260696411133
2 86 0.9608827829360962
2 87 0.487903892993927
2 88 0.9667018055915833
2 89 0.9577937722206116
2 90 0.9663839340209961
2 91 0.9167838096618652
2 92 0.2324952632188797
2 93 0.8996955156326294
2 94 0.9556241035461426
2 95 0.7996686697006226
2 96 0.9340793490409851
2 97 0.4502768814563751
2 98 0.9577937722206116
2 99 0.9609590172767639
2 100 0.9382543563842773
2 101 0.9582157731056213
2 102 0.9649621248245239
2 104 0.9667710661888123
2 105 0.8943009972572327
2 106 0.9621184468269348
2 107 0.2814250588417053
2 109 0.9625779390335083
2 110 0.9289839267730713
2 111 0.0853024423122406
2 112 0.9516935348510742
2 113 0.7864843606948853
2 114 0.3406108021736145
2 115 0.6563726663589478
2 116 0.8178988695144653
2 117 0.1852121204137802
2 118 0.44253239035606384
2 119 0.31919988989830017
2 120 0.563174843788147
2 121 0.9587961435317993
2 122 0.28107309341430664
2 123 0.2955167889595032
2 124 0.07311637699604034
2 125 0.3619517982006073
2 126 0.939193069934845
2 127 0.9676493406295776
2 128 0.9615789651870728
2 129 0.897386372089386
2 130 0.1462327539920807
2 131 0.9494706392288208
2 132 0.9539936780929565
2 133 0.17070640623569489
2 134 0.5962486267089844
2 135 0.9441522359848022
2 136 0.14830996096134186
2 137 0.5105982422828674
2 138 0.9539523124694824
2 139 0.9752253890037537
2 140 0.7050462365150452
2 141 0.9706709384918213
2 142 0.7031025886535645
2 143 0.946812629699707
2 144 0.9457994699478149
2 145 0.2645450234413147
2 146 0.7378823757171631
2 147 0.9386404752731323
2 148 0.8448341488838196
2 149 0.9582945704460144
2 150 0.7754870057106018
2 151 0.9495903253555298
2 152 0.8749905824661255
2 153 0.9527075886726379
2 154 0.94501131772995
2 155 0.30156409740448
2 156 0.8245398998260498
2 157 0.9135111570358276
2 158 0.9529051184654236
2 159 0.45279476046562195
2 160 0.10693227499723434
2 161 0.9623295068740845
2 162 0.4502768814563751
2 163 0.23024889826774597
2 164 0.07209372520446777
2 165 0.8038888573646545
2 166 0.9620780944824219
2 167 0.9664239287376404
2 168 0.21628117561340332
2 169 0.08597678691148758
2 170 0.08749004453420639
2 171 0.9561669826507568
2 172 0.9408490657806396
2 173 0.7862199544906616
2 174 0.9583353996276855
2 175 0.9625779390335083
2 176 0.6732950210571289
2 177 0.9223383069038391
2 178 0.935189962387085
2 179 0.21292170882225037
2 180 0.9604583382606506
2 181 0.9593372941017151
2 182 0.9577129483222961
2 183 0.41792383790016174
2 185 0.963473916053772
2 186 0.9558326005935669
2 187 0.9512701034545898
2 188 0.8292788863182068
2 189 0.9505255818367004
2 190 0.9220660328865051
2 191 0.5203040838241577
2 192 0.9329675436019897
2 193 0.9577528834342957
2 194 0.7904275059700012
2 195 0.6702079176902771
2 196 0.9679937958717346
2 197 0.7467310428619385
2 198 0.9602699279785156
2 199 0.7178650498390198
2 200 0.936937153339386
2 201 0.8265647888183594
2 202 0.31450608372688293
2 203 0.5228991508483887
2 204 0.9658867120742798
2 205 0.9550809264183044
2 206 0.11201902478933334
2 207 0.9474018216133118
2 208 0.3304326832294464
2 209 0.96099853515625
2 210 0.9706709384918213
2 212 0.9528636932373047
2 213 0.9367735981941223
2 214 0.9599584937095642
2 215 0.7055232524871826
2 216 0.936853289604187
2 217 0.9674972891807556
2 218 0.8502371311187744
2 219 0.5138456225395203
2 220 0.16894297301769257
2 221 0.5467665195465088
2 222 0.8867262601852417
2 223 0.9566685557365417
2 224 0.5179322361946106
2 225 0.9202188849449158
2 226 0.9636949896812439
2 227 0.5529003739356995
2 228 0.9556241035461426
2 229 0.13293425738811493
2 230 0.9618558883666992
2 231 0.25181254744529724
2 232 0.2497735619544983
2 233 0.7467537522315979
2 234 0.30924761295318604
2 235 0.9598394632339478
2 236 0.14418745040893555
2 238 0.9155188798904419
2 239 0.9496322274208069
2 240 0.961039125919342
2 241 0.9648115634918213
2 242 0.9380874633789062
2 243 0.9363831281661987
2 244 0.19081571698188782
2 245 0.17098528146743774
2 246 0.9498381018638611
2 247 0.927990198135376
2 248 0.9269912838935852
2 249 0.9556241035461426
2 250 0.3304326832294464
2 251 0.9076841473579407
2 252 0.926430881023407
2 253 0.7262285351753235
2 254 0.9533677101135254
2 255 0.9412746429443359
3 4 0.8569943904876709
3 5 0.8536858558654785
3 6 0.06598396599292755
3 7 0.06465081870555878
3 8 0.31347447633743286
3 9 0.9603345394134521
3 10 0.9495929479598999
3 11 0.14472781121730804
3 12 0.361409068107605
3 13 0.9577024579048157
3 14 0.949454128742218
3 15 0.872033417224884
3 16 0.9614630341529846
3 17 0.7719895839691162
3 18 0.9112902283668518
3 20 0.9338567852973938
3 21 0.7735908031463623
3 22 0.9553912281990051
3 23 0.8314082622528076
3 24 0.9340935945510864
3 25 0.722957193851471
3 26 0.9577476978302002
3 27 0.29161858558654785
3 28 0.9326946139335632
3 29 0.9539754390716553
3 30 0.9186081290245056
3 31 0.2794065773487091
3 32 0.9549759030342102
3 33 0.9523343443870544
3 34 0.9582920074462891
3 35 0.9125760197639465
3 36 0.954521894454956
3 37 0.9577476978302002
3 38 0.891150712966919
3 39 0.9434388875961304
3 40 0.9539288282394409
3 41 0.8154922127723694
3 42 0.9523343443870544
3 43 0.5192383527755737
3 44 0.9586203694343567
3 45 0.9605118632316589
3 46 0.9344602823257446
3 47 0.9679509997367859
3 48 0.9467960596084595
3 49 0.9490437507629395
3 50 0.5545036196708679
3 51 0.9674549102783203
3 52 0.5214219689369202
3 53 0.0791807547211647
3 54 0.8246449828147888
3 55 0.9619625806808472
3 56 0.9632225036621094
3 57 0.9514385461807251
3 58 0.8651120662689209
3 59 0.8286290168762207
3 60 0.1209506094455719
3 61 0.9008370637893677
3 62 0.9462451338768005
3 63 0.7460243701934814
3 64 0.9699046015739441
3 65 0.4556032717227936
3 66 0.9682521820068359
3 67 0.9550679326057434
3 68 0.9566128253936768
3 69 0.9137962460517883
3 70 0.8814297318458557
3 71 0.9579964280128479
3 72 0.16162705421447754
3 73 0.9768017530441284
3 74 0.6489226222038269
3 75 0.15675701200962067
3 76 0.9257490038871765
3 77 0.9653403759002686
3 78 0.7305735945701599
3 79 0.9516488313674927
3 80 0.9511456489562988
3 81 0.22399404644966125
3 82 0.948354959487915
3 83 0.9538831114768982
3 84 0.9419531226158142
3 85 0.9289432764053345
3 86 0.9581595659255981
3 87 0.4764156937599182
3 88 0.9567043781280518
3 89 0.9550679326057434
3 90 0.9626809358596802
3 91 0.9126412868499756
3 92 0.19275729358196259
3 93 0.8987223505973816
3 94 0.9560230374336243
3 95 0.8142433166503906
3 96 0.9375890493392944
3 97 0.4537316858768463
3 98 0.9550679326057434
3 99 0.956159234046936
3 100 0.9363970756530762
3 101 0.9575726985931396
3 102 0.9527891278266907
3 104 0.9672110080718994
3 105 0.8876901865005493
3 106 0.9594255685806274
3 107 0.2962672710418701
3 109 0.9598782062530518
3 110 0.9270855784416199
3 111 0.08552499115467072
3 112 0.9562851190567017
3 113 0.7910395264625549
3 114 0.3688194453716278
3 115 0.6955615282058716
3 116 0.8261069655418396
3 117 0.1856953352689743
3 118 0.40314701199531555
3 119 0.3437387943267822
3 120 0.5664596557617188
3 121 0.95711350440979
3 122 0.2818063795566559
3 123 0.2893162965774536
3 124 0.08552499115467072
3 125 0.33737999200820923
3 126 0.9373874068260193
3 127 0.961801290512085
3 128 0.9599231481552124
3 129 0.8941806554794312
3 130 0.17104998230934143
3 131 0.9466591477394104
3 132 0.952287495136261
3 133 0.1770535707473755
3 134 0.5751468539237976
3 135 0.9434388875961304
3 136 0.16162705421447754
3 137 0.5177258253097534
3 138 0.9574909806251526
3 139 0.9653403759002686
3 140 0.7010915279388428
3 141 0.9670045971870422
3 142 0.7121009230613708
3 143 0.9471663236618042
3 144 0.9440385103225708
3 145 0.23208078742027283
3 146 0.7384475469589233
3 147 0.9410893321037292
3 148 0.8517440557479858
3 149 0.9555673599243164
3 150 0.7788147926330566
3 151 0.9489047527313232
3 152 0.8726317286491394
3 153 0.9562486410140991
3 154 0.9410893321037292
3 155 0.2766188681125641
3 156 0.8376325964927673
3 157 0.9037268161773682
3 158 0.9522415995597839
3 159 0.4116939902305603
3 160 0.10721126198768616
3 161 0.9511916637420654
3 162 0.44233137369155884
3 163 0.21274375915527344
3 164 0.07228181511163712
3 165 0.8059861660003662
3 166 0.9593797326087952
3 167 0.9637637734413147
3 168 0.19275149703025818
3 169 0.08620109409093857
3 170 0.08771830052137375
3 171 0.9576149582862854
3 172 0.9411790370941162
3 173 0.7958264946937561
3 174 0.956658124923706
3 175 0.9588359594345093
3 176 0.6721038222312927
3 177 0.9214885234832764
3 178 0.9333435297012329
3 179 0.2052665501832962
3 180 0.9598342776298523
3 181 0.954521894454956
3 182 0.9528816342353821
3 183 0.42394378781318665
3 185 0.9534287452697754
3 186 0.9467037916183472
3 187 0.9495457410812378
3 188 0.8167913556098938
3 189 0.9424282312393188
3 190 0.9386943578720093
3 191 0.4947121739387512
3 192 0.9311058521270752
3 193 0.9560675024986267
3 194 0.813672661781311
3 195 0.6535886526107788
3 196 0.9674118757247925
3 197 0.7579713463783264
3 198 0.9585801362991333
3 199 0.7127501964569092
3 200 0.9415165185928345
3 201 0.7953250408172607
3 202 0.32488197088241577
3 203 0.5282052159309387
3 204 0.9632225036621094
3 205 0.9533820152282715
3 206 0.1209506094455719
3 207 0.9445906281471252
3 208 0.3034288287162781
3 209 0.9572492837905884
3 210 0.9670045971870422
3 212 0.9490437507629395
3 213 0.945650577545166
3 214 0.9624630212783813
3 215 0.6931883096694946
3 216 0.9371578693389893
3 217 0.9658804535865784
3 218 0.8524553775787354
3 219 0.5131658911705017
3 220 0.1857757270336151
3 221 0.5606115460395813
3 222 0.8811520934104919
3 223 0.9560230374336243
3 224 0.5093734860420227
3 225 0.926956295967102
3 226 0.9599689245223999
3 227 0.5469268560409546
3 228 0.9539288282394409
3 229 0.13328108191490173
3 230 0.954931378364563
3 231 0.2276364415884018
3 232 0.23810920119285583
3 233 0.7432765960693359
3 234 0.3100544214248657
3 235 0.9560675024986267
3 236 0.12287908792495728
3 238 0.9146252870559692
3 239 0.946843683719635
3 240 0.9593797326087952
3 241 0.9621391892433167
3 242 0.9362742900848389
3 243 0.934553861618042
3 244 0.19662779569625854
3 245 0.17714574933052063
3 246 0.949127733707428
3 247 0.9304113388061523
3 248 0.921755850315094
3 249 0.9528816342353821
3 250 0.33748719096183777
3 251 0.9034575819969177
3 252 0.9135312438011169
3 253 0.7183403372764587
3 254 0.9495457410812378
3 255 0.9352090954780579
4 5 0.6969847083091736
4 6 0.08787495642900467
4 7 0.07174959778785706
4 8 0.31165558099746704
4 9 0.8607341051101685
4 10 0.8638388514518738
4 11 0.16061919927597046
4 12 0.3690050542354584
4 13 0.8553879261016846
4 14 0.8467072248458862
4 15 0.7242274284362793
4 16 0.855476438999176
4 17 0.6189270615577698
4 18 0.7977205514907837
4 20 0.818645715713501
4 21 0.6183139681816101
4 22 0.8447405099868774
4 23 0.7368019223213196
4 24 0.8236467838287354
4 25 0.6151267290115356
4 26 0.856812059879303
4 27 0.3095676004886627
4 28 0.8323780298233032
4 29 0.8544086813926697
4 30 0.7945358753204346
4 31 0.22689217329025269
4 32 0.8634393811225891
4 33 0.8487775921821594
4 34 0.8818257451057434
4 35 0.8004019856452942
4 36 0.8609232902526855
4 37 0.856812059879303
4 38 0.8218979835510254
4 39 0.8355090022087097
4 40 0.8518184423446655
4 41 0.6832805275917053
4 42 0.8836588859558105
4 43 0.3058566451072693
4 44 0.8487775921821594
4 45 0.8733174800872803
4 46 0.8660033941268921
4 47 0.8835142254829407
4 48 0.8611987233161926
4 49 0.8456330299377441
4 50 0.41731077432632446
4 51 0.8761714696884155
4 52 0.596696138381958
4 53 0.07322913408279419
4 54 0.7268097996711731
4 55 0.8640175461769104
4 56 0.8641642332077026
4 57 0.852939248085022
4 58 0.7902188301086426
4 59 0.8160902857780457
4 61 0.8520042300224304
4 62 0.8639986515045166
4 63 0.6084322333335876
4 64 0.8608910441398621
4 65 0.32263970375061035
4 66 0.8573436141014099
4 67 0.8639524579048157
4 68 0.8504807949066162
4 69 0.8330813646316528
4 70 0.8307753801345825
4 71 0.855678379535675
4 72 0.12197432667016983
4 73 0.8683922290802002
4 74 0.5363009572029114
4 75 0.19974243640899658
4 76 0.8112943768501282
4 77 0.8782201409339905
4 78 0.6654189825057983
4 79 0.857750415802002
4 80 0.8479658365249634
4 81 0.2395494133234024
4 82 0.8394132852554321
4 83 0.8829600214958191
4 84 0.8279895186424255
4 85 0.8143481612205505
4 86 0.8532477617263794
4 87 0.28324663639068604
4 88 0.8764955997467041
4 89 0.8720700740814209
4 90 0.8738193511962891
4 91 0.8484742045402527
4 92 0.25869685411453247
4 93 0.7750760912895203
4 94 0.8518184423446655
4 95 0.640315592288971
4 96 0.8226680159568787
4 97 0.39474448561668396
4 98 0.8546750545501709
4 99 0.8676847815513611
4 100 0.8110656142234802
4 101 0.8569165468215942
4 102 0.850118100643158
4 104 0.8642762899398804
4 105 0.8151766657829285
4 106 0.8799961805343628
4 107 0.32879799604415894
4 108 0.05073463171720505
4 109 0.8547642827033997
4 110 0.8130320906639099
4 111 0.06779700517654419
4 112 0.8459873199462891
4 113 0.7028734087944031
4 114 0.38506072759628296
4 115 0.4841232895851135
4 116 0.7159247994422913
4 117 0.1498800367116928
4 118 0.502402663230896
4 119 0.3058432936668396
4 120 0.5460459589958191
4 121 0.8648566007614136
4 122 0.26336780190467834
4 123 0.33268922567367554
4 125 0.3618392050266266
4 126 0.8265834450721741
4 127 0.8513718843460083
4 128 0.8781417012214661
4 129 0.8027554154396057
4 130 0.18983159959316254
4 131 0.842831015586853
4 132 0.8461787700653076
4 133 0.09824718534946442
4 134 0.6170224547386169
4 135 0.8613616228103638
4 136 0.1721990406513214
4 137 0.5038233995437622
4 138 0.8657134175300598
4 139 0.8724726438522339
4 140 0.6864401698112488
4 141 0.8782677054405212
4 142 0.7553082704544067
4 143 0.8338866233825684
4 144 0.8810967803001404
4 145 0.2657403349876404
4 146 0.6082335114479065
4 147 0.8341203331947327
4 148 0.7559526562690735
4 149 0.8609232902526855
4 150 0.7441635727882385
4 151 0.8413069248199463
4 152 0.7881521582603455
4 153 0.85040283203125
4 154 0.8341203331947327
4 155 0.2534469962120056
4 156 0.7191293835639954
4 157 0.8323199152946472
4 158 0.8505663275718689
4 159 0.43961068987846375
4 160 0.11898325383663177
4 161 0.8528966903686523
4 162 0.3163016736507416
4 163 0.14065735042095184
4 165 0.8315701484680176
4 166 0.8820655345916748
4 167 0.8683205246925354
4 168 0.1604369878768921
4 170 0.11898325383663177
4 171 0.8629868030548096
4 172 0.8617898225784302
4 173 0.8622475266456604
4 174 0.8866825699806213
4 175 0.8709573745727539
4 176 0.5250757932662964
4 177 0.8455996513366699
4 178 0.8788469433784485
4 179 0.2688101828098297
4 180 0.8533385396003723
4 181 0.8713657259941101
4 182 0.8576288819313049
4 183 0.429462194442749
4 184 0.05073463171720505
4 185 0.8513718843460083
4 186 0.8477931022644043
4 187 0.8752555847167969
4 188 0.6991658210754395
4 189 0.8451787233352661
4 190 0.8013575673103333
4 191 0.35890066623687744
4 192 0.8223837614059448
4 193 0.8497651219367981
4 194 0.6720757484436035
4 195 0.5758664608001709
4 196 0.8713230490684509
4 197 0.7159759402275085
4 198 0.8496704697608948
4 199 0.5738710761070251
4 200 0.8565310835838318
4 201 0.80715411901474
4 202 0.3534848988056183
4 203 0.5008974671363831
4 204 0.86186283826828
4 205 0.8580792546272278
4 206 0.12464326620101929
4 207 0.840757429599762
4 208 0.2886393368244171
4 209 0.8783540725708008
4 210 0.8690952062606812
4 212 0.8479658365249634
4 213 0.8412536382675171
4 214 0.8633097410202026
4 215 0.530173122882843
4 216 0.820412278175354
4 217 0.8685783743858337
4 218 0.7313395142555237
4 219 0.3632323443889618
4 220 0.20617423951625824
4 221 0.45875027775764465
4 222 0.772819459438324
4 223 0.8599531054496765
4 224 0.5455070734024048
4 225 0.8843535780906677
4 226 0.8610725998878479
4 227 0.555541455745697
4 228 0.8564668297767639
4 229 0.1392146646976471
4 230 0.871326744556427
4 231 0.27559784054756165
4 232 0.2824784815311432
4 233 0.7345733642578125
4 234 0.19075053930282593
4 235 0.8532477617263794
4 236 0.15241514146327972
4 238 0.8693515062332153
4 239 0.849764347076416
4 240 0.87744140625
4 241 0.8719659447669983
4 242 0.8274803757667542
4 243 0.8546277284622192
4 244 0.2182178795337677
4 245 0.17122937738895416
4 246 0.8280484080314636
4 247 0.8172037601470947
4 248 0.7960450053215027
4 249 0.8518184423446655
4 250 0.21304331719875336
4 251 0.8587249517440796
4 252 0.7916440963745117
4 253 0.6235031485557556
4 254 0.8612514734268188
4 255 0.881857693195343
5 8 0.2574447691440582
5 9 0.8396753072738647
5 10 0.8197731971740723
5 11 0.13387072086334229
5 12 0.3567933440208435
5 13 0.8604002594947815
5 14 0.8500763177871704
5 15 0.822600245475769
5 16 0.8617343902587891
5 17 0.7109863758087158
5 18 0.7946150302886963
5 20 0.871035099029541
5 21 0.7083104252815247
5 22 0.8517304062843323
5 23 0.6817564368247986
5 24 0.8199838995933533
5 25 0.6559962630271912
5 26 0.8547350764274597
5 27 0.24990816414356232
5 28 0.8029739856719971
5 29 0.8474080562591553
5 30 0.8491629958152771
5 31 0.307576984167099
5 32 0.820777952671051
5 33 0.822405993938446
5 34 0.8340352177619934
5 35 0.8518810868263245
5 36 0.8266565799713135
5 37 0.8535430431365967
5 38 0.7468029260635376
5 39 0.8638498783111572
5 40 0.8363320827484131
5 41 0.7662754058837891
5 42 0.8248001933097839
5 43 0.5750397443771362
5 44 0.8595160841941833
5 45 0.8409457802772522
5 46 0.7949941754341125
5 47 0.8374886512756348
5 48 0.831252932548523
5 49 0.8382196426391602
5 50 0.5642911791801453
5 51 0.8382418751716614
5 52 0.29274120926856995
5 53 0.06031597778201103
5 54 0.7606861591339111
5 55 0.8467009663581848
5 56 0.8529967665672302
5 57 0.8395122289657593
5 58 0.7605878114700317
5 59 0.6561246514320374
5 60 0.12832973897457123
5 61 0.7555103302001953
5 62 0.8389275670051575
5 63 0.7128834128379822
5 64 0.8424506187438965
5 65 0.48835739493370056
5 66 0.8600977063179016
5 67 0.8262246251106262
5 68 0.8624943494796753
5 69 0.8023026585578918
5 70 0.7180687189102173
5 71 0.8461787700653076
5 72 0.18467921018600464
5 73 0.8444707989692688
5 74 0.5363866686820984
5 75 0.07960648089647293
5 76 0.804214596748352
5 77 0.8367350101470947
5 78 0.6650403141975403
5 79 0.815834105014801
5 80 0.8442240953445435
5 81 0.13029739260673523
5 82 0.8473650217056274
5 83 0.8264315128326416
5 84 0.8549244999885559
5 85 0.7960758209228516
5 86 0.8450175523757935
5 87 0.5224930047988892
5 88 0.840429961681366
5 89 0.8250306844711304
5 90 0.8427678942680359
5 91 0.7702836990356445
5 93 0.8207637667655945
5 94 0.8255638480186462
5 95 0.7605676651000977
5 96 0.8617085218429565
5 97 0.43507733941078186
5 98 0.8405522108078003
5 99 0.8349044322967529
5 100 0.8780979514122009
5 101 0.8499392867088318
5 102 0.8632715344429016
5 104 0.8363052010536194
5 105 0.761361837387085
5 106 0.837060809135437
5 107 0.21762165427207947
5 109 0.8609912991523743
5 110 0.8765866756439209
5 111 0.09772304445505142
5 112 0.8384811878204346
5 113 0.7064998149871826
5 114 0.29655662178993225
5 115 0.6594505310058594
5 116 0.7343229055404663
5 117 0.18003174662590027
5 118 0.20587536692619324
5 119 0.2674863636493683
5 120 0.5269289612770081
5 121 0.8378462791442871
5 122 0.27115723490715027
5 123 0.18321314454078674
5 124 0.08376260846853256
5 125 0.26239848136901855
5 126 0.8413046002388
5 127 0.8645938038825989
5 128 0.8291674852371216
5 129 0.7757925391197205
5 130 0.06282196193933487
5 131 0.8351271748542786
5 132 0.8352547883987427
5 133 0.17533181607723236
5 134 0.45205849409103394
5 135 0.8081957101821899
5 136 0.0812588557600975
5 137 0.4635411500930786
5 138 0.8289376497268677
5 139 0.8580380082130432
5 140 0.6107447147369385
5 141 0.8452197909355164
5 142 0.573003351688385
5 143 0.8488761186599731
5 144 0.8068980574607849
5 145 0.20625226199626923
5 146 0.7567505836486816
5 147 0.8466264009475708
5 148 0.7514262199401855
5 149 0.8266565799713135
5 150 0.6677929759025574
5 151 0.831252932548523
5 152 0.799529492855072
5 153 0.8369625806808472
5 154 0.8648726344108582
5 155 0.33444809913635254
5 156 0.730674684047699
5 157 0.830394446849823
5 158 0.8325364589691162
5 159 0.355987548828125
5 161 0.8685250878334045
5 162 0.4220510721206665
5 163 0.26377466320991516
5 164 0.06607284396886826
5 165 0.6294501423835754
5 166 0.8295978903770447
5 167 0.8383489847183228
5 168 0.2092306762933731
5 169 0.08618362993001938
5 170 0.1002291813492775
5 171 0.8275226950645447
5 172 0.8047409057617188
5 173 0.6043027639389038
5 174 0.8269866704940796
5 175 0.8347923755645752
5 176 0.6163914203643799
5 177 0.8172814249992371
5 178 0.7983161211013794
5 179 0.16887083649635315
5 180 0.8380457162857056
5 181 0.8302404284477234
5 182 0.8303496837615967
5 183 0.4337150752544403
5 185 0.8586146235466003
5 186 0.8511364459991455
5 187 0.8182371854782104
5 188 0.7714613080024719
5 189 0.8290843367576599
5 190 0.8300590515136719
5 191 0.5190814137458801
5 192 0.8516151309013367
5 193 0.836651086807251
5 194 0.7617180943489075
5 195 0.5789067149162292
5 196 0.8438360691070557
5 197 0.6173266768455505
5 198 0.8664121031761169
5 199 0.6371533870697021
5 200 0.7940435409545898
5 201 0.6642560362815857
5 202 0.25475776195526123
5 203 0.520216166973114
5 204 0.8447037935256958
5 205 0.8379682898521423
5 206 0.07897215336561203
5 207 0.8318198323249817
5 208 0.2865627408027649
5 209 0.8340352177619934
5 210 0.848761260509491
5 212 0.8394206166267395
5 213 0.8171314001083374
5 214 0.836418092250824
5 215 0.6997292637825012
5 216 0.8776817917823792
5 217 0.8410373330116272
5 218 0.7248337864875793
5 219 0.5725055932998657
5 220 0.07491955906152725
5 221 0.38920658826828003
5 222 0.74417644739151
5 223 0.8423144221305847
5 224 0.36461377143859863
5 225 0.789108157157898
5 226 0.8354390859603882
5 227 0.44698575139045715
5 228 0.8351355791091919
5 229 0.08958257734775543
5 230 0.8372110724449158
5 231 0.06620810180902481
5 232 0.09381713718175888
5 233 0.6307659149169922
5 234 0.3504253327846527
5 235 0.8545793294906616
5 236 0.05781373754143715
5 238 0.770054817199707
5 239 0.8183356523513794
5 240 0.8355491161346436
5 241 0.8349007368087769
5 242 0.8215271830558777
5 243 0.8066807985305786
5 244 0.06679437309503555
5 245 0.13058793544769287
5 246 0.8464667797088623
5 247 0.8007215261459351
5 248 0.8508234024047852
5 249 0.8303496837615967
5 250 0.36793243885040283
5 251 0.7560255527496338
5 252 0.8288089632987976
5 253 0.5748752355575562
5 254 0.8302524089813232
5 255 0.8008369207382202
6 7 0.20412413775920868
6 8 0.1649572253227234
6 10 0.07959771901369095
6 11 0.26111647486686707
6 13 0.07913941890001297
6 14 0.07985108345746994
6 15 0.058658845722675323
6 16 0.06577809154987335
6 18 0.07026243209838867
6 22 0.07955572009086609
6 23 0.07720684260129929
6 24 0.06733434647321701
6 26 0.05270463228225708
6 28 0.0814237892627716
6 29 0.06605302542448044
6 30 0.08257228136062622
6 32 0.07934675365686417
6 33 0.07938841730356216
6 34 0.07901579141616821
6 35 0.06984984874725342
6 36 0.0660184696316719
6 37 0.07905694842338562
6 38 0.08451542258262634
6 39 0.06686308979988098
6 40 0.05289783701300621
6 42 0.07938841730356216
6 44 0.0661570206284523
6 45 0.07877027988433838
6 46 0.08111070841550827
6 47 0.07844645529985428
6 48 0.0665779560804367
6 49 0.07963977754116058
6 51 0.07840625196695328
6 55 0.06581226736307144
6 57 0.08010687679052353
6 58 0.07322913408279419
6 59 0.09179850667715073
6 61 0.08406627178192139
6 62 0.06661339849233627
6 64 0.06557412445545197
6 66 0.07889275252819061
6 67 0.0791807547211647
6 68 0.052814774215221405
6 69 0.08352690935134888
6 70 0.08753762394189835
6 71 0.07959771901369095
6 73 0.0783260390162468
6 75 0.0733235627412796
6 76 0.054954592138528824
6 77 0.07848671078681946
6 79 0.07968190312385559
6 81 0.05143445357680321
6 82 0.07993607223033905
6 83 0.07943014800548553
6 84 0.06759226322174072
6 85 0.06884936988353729
6 88 0.07905694842338562
6 89 0.0527871735394001
6 90 0.07860786467790604
6 91 0.08252540975809097
6 92 0.05661385506391525
6 94 0.06612230092287064
6 96 0.05419278144836426
6 98 0.0791807547211647
6 99 0.07909814268350601
6 100 0.08155908435583115
6 102 0.0795137956738472
6 104 0.07889275252819061
6 105 0.0705978199839592
6 106 0.0788518637418747
6 108 0.2886751592159271
6 112 0.07989354431629181
6 114 0.06900656223297119
6 118 0.14222003519535065
6 120 0.06878852844238281
6 121 0.05284241959452629
6 123 0.17609018087387085
6 125 0.07161148637533188
6 126 0.06718828529119492
6 127 0.05287010967731476
6 128 0.07889275252819061
6 131 0.06679145991802216
6 133 0.07453560084104538
6 134 0.13206763565540314
6 135 0.08023570477962494
6 137 0.07319250702857971
6 138 0.07955572009086609
6 139 0.07848671078681946
6 140 0.10976425558328629
6 141 0.052190691232681274
6 142 0.10857172310352325
6 143 0.06682724505662918
6 144 0.08010687679052353
6 147 0.06722471117973328
6 148 0.05943070352077484
6 149 0.07922215759754181
6 150 0.09885335713624954
6 151 0.0665779560804367
6 152 0.0879315584897995
6 153 0.05331911891698837
6 154 0.06722471117973328
6 156 0.07676879316568375
6 157 0.08381981402635574
6 158 0.06629643589258194
6 159 0.05620994046330452
6 160 0.12309149652719498
6 165 0.09338591992855072
6 166 0.0789337083697319
6 167 0.06543920189142227
6 171 0.07930515706539154
6 172 0.08049523085355759
6 173 0.09541856497526169
6 174 0.07913941890001297
6 175 0.07897471636533737
6 177 0.05483054742217064
6 178 0.08119979500770569
6 181 0.07922215759754181
6 182 0.07934675365686417
6 185 0.05287010967731476
6 186 0.0800640732049942
6 187 0.07968190312385559
6 188 0.09251595288515091
6 189 0.06679145991802216
6 190 0.08290266245603561
6 192 0.05425256863236427
6 195 0.05799334868788719
6 196 0.06540559232234955
6 197 0.050294242799282074
6 200 0.0808892771601677
6 201 0.09372712671756744
6 204 0.06547285616397858
6 207 0.06672006100416183
6 208 0.11730927973985672
6 209 0.07901579141616821
6 210 0.06523836404085159
6 213 0.08124444633722305
6 214 0.07901579141616821
6 217 0.07844645529985428
6 218 0.08885233104228973
6 220 0.06900656223297119
6 222 0.08538384735584259
6 223 0.07934675365686417
6 224 0.15018784999847412
6 225 0.08215324580669403
6 226 0.06567586958408356
6 227 0.09365858137607574
6 229 0.0990147590637207
6 230 0.07943014800548553
6 231 0.052270837128162384
6 232 0.1555427610874176
6 233 0.10277830809354782
6 235 0.07926362752914429
6 236 0.3651483654975891
6 238 0.08290266245603561
6 239 0.07980868965387344
6 240 0.0789337083697319
6 241 0.07864838093519211
6 242 0.06726119667291641
6 243 0.08093342185020447
6 244 0.13423120975494385
6 245 0.07216878980398178
6 246 0.08053871989250183
6 247 0.08169505000114441
6 249 0.07934675365686417
6 251 0.0832851454615593
6 252 0.08290266245603561
6 253 0.10590067505836487
6 255 0.0807134285569191
7 8 0.10101525485515594
7 10 0.06499126553535461
7 11 0.21320070326328278
7 13 0.06461706012487411
7 14 0.0651981383562088
7 15 0.05388158932328224
7 17 0.059904228895902634
7 23 0.05673520639538765
7 24 0.0659739151597023
7 25 0.06577935069799423
7 28 0.06648225337266922
7 30 0.06741998344659805
7 32 0.06478635221719742
7 33 0.06482037156820297
7 34 0.06451612710952759
7 35 0.05132894217967987
7 37 0.06454972177743912
7 38 0.0690065547823906
7 39 0.06551217287778854
7 42 0.06482037156820297
7 45 0.06431566923856735
7 46 0.06622661650180817
7 47 0.06405126303434372
7 51 0.06401844322681427
7 52 0.055814553052186966
7 55 0.06448258459568024
7 57 0.06540699303150177
7 58 0.05381219834089279
7 59 0.05621487647294998
7 61 0.06863982230424881
7 66 0.06441566348075867
7 67 0.06465081870555878
7 69 0.05114957317709923
7 70 0.07147417217493057
7 71 0.06499126553535461
7 73 0.06395295262336731
7 74 0.09491579979658127
7 75 0.08980264514684677
7 76 0.050479017198085785
7 77 0.06408413499593735
7 79 0.06506000459194183
7 81 0.18898223340511322
7 88 0.06454972177743912
7 89 0.06465081870555878
7 90 0.0641830563545227
7 91 0.06738170981407166
7 92 0.1386750489473343
7 93 0.051359016448259354
7 94 0.06478635221719742
7 98 0.06465081870555878
7 99 0.06458336859941483
7 102 0.0649227499961853
7 104 0.06441566348075867
7 105 0.06917145103216171
7 106 0.06438227742910385
7 107 0.054554469883441925
7 108 0.3535533845424652
7 113 0.05808022990822792
7 114 0.12677313387393951
7 115 0.06956083327531815
7 116 0.05637345090508461
7 121 0.06471847742795944
7 123 0.2156655639410019
7 128 0.06441566348075867
7 129 0.05147986486554146
7 130 0.28347334265708923
7 135 0.06551217287778854
7 136 0.10000000894069672
7 138 0.06495697796344757
7 139 0.06408413499593735
7 140 0.06721660494804382
7 141 0.0639202743768692
7 142 0.06648632884025574
7 144 0.06540699303150177
7 148 0.05459058657288551
7 149 0.06468462198972702
7 150 0.060535069555044174
7 156 0.07521774619817734
7 158 0.06495697796344757
7 160 0.15075567364692688
7 165 0.07624928653240204
7 166 0.06444909423589706
7 167 0.06411705911159515
7 171 0.06475239247083664
7 172 0.06572407484054565
7 173 0.0779089406132698
7 174 0.06461706012487411
7 175 0.06448258459568024
7 176 0.06839410960674286
7 178 0.06629935652017593
7 181 0.06468462198972702
7 182 0.06478635221719742
7 186 0.0653720498085022
7 187 0.06506000459194183
7 190 0.06768974661827087
7 194 0.057820748537778854
7 195 0.07102706283330917
7 196 0.06408413499593735
7 197 0.08213015645742416
7 200 0.06604582071304321
7 204 0.06415002793073654
7 209 0.06451612710952759
7 212 0.06502561271190643
7 213 0.06633581221103668
7 214 0.06451612710952759
7 217 0.06405126303434372
7 218 0.07254762947559357
7 220 0.16903086006641388
7 221 0.10976426303386688
7 222 0.05228671059012413
7 223 0.06478635221719742
7 225 0.06707784533500671
7 226 0.06434894353151321
7 227 0.05735393241047859
7 228 0.06478635221719742
7 229 0.24253563582897186
7 230 0.0648544430732727
7 231 0.06401844322681427
7 232 0.0635000616312027
7 236 0.11180339008569717
7 238 0.06768974661827087
7 239 0.0651635229587555
7 240 0.06444909423589706
7 242 0.0659022405743599
7 243 0.06608185917139053
7 244 0.08219949901103973
7 245 0.0883883461356163
7 246 0.06575959175825119
7 247 0.06670373678207397
7 248 0.05073825642466545
7 249 0.06478635221719742
7 251 0.06800203770399094
7 253 0.06485065072774887
7 255 0.0659022405743599
8 9 0.30662354826927185
8 10 0.26588693261146545
8 11 0.12921912968158722
8 12 0.37043821811676025
8 13 0.30025625228881836
8 14 0.3062492907047272
8 15 0.3048003315925598
8 16 0.30924126505851746
8 17 0.23398131132125854
8 18 0.3372775614261627
8 20 0.2981913387775421
8 21 0.20812323689460754
8 22 0.31495898962020874
8 23 0.27509385347366333
8 24 0.24658173322677612
8 25 0.23478002846240997
8 26 0.26082026958465576
8 28 0.3257124722003937
8 29 0.290921151638031
8 30 0.24858133494853973
8 31 0.10647942870855331
8 32 0.3174038827419281
8 33 0.27173563838005066
8 34 0.30630433559417725
8 35 0.32147037982940674
8 36 0.2744336426258087
8 37 0.3032035529613495
8 38 0.32065290212631226
8 39 0.3143421411514282
8 40 0.26832079887390137
8 41 0.28878939151763916
8 42 0.32084450125694275
8 43 0.18722228705883026
8 44 0.3142966330051422
8 45 0.3053525686264038
8 46 0.3278050124645233
8 47 0.31703755259513855
8 48 0.31629639863967896
8 49 0.30215463042259216
8 50 0.14078962802886963
8 51 0.3168751001358032
8 52 0.12967680394649506
8 53 0.0824786126613617
8 54 0.19186224043369293
8 55 0.3094019293785095
8 56 0.3045662045478821
8 57 0.2907125949859619
8 58 0.3297750949859619
8 59 0.24228523671627045
8 60 0.08099238574504852
8 61 0.3120150864124298
8 62 0.3197613060474396
8 63 0.23229916393756866
8 64 0.31152743101119995
8 65 0.16949249804019928
8 66 0.3123342990875244
8 67 0.27755552530288696
8 68 0.29730308055877686
8 69 0.23767681419849396
8 70 0.3285091519355774
8 71 0.3151252567768097
8 72 0.10101525485515594
8 73 0.31655097007751465
8 74 0.20134681463241577
8 76 0.31954678893089294
8 77 0.31720027327537537
8 78 0.19833871722221375
8 79 0.2760262191295624
8 80 0.27259600162506104
8 81 0.05090690404176712
8 82 0.2802031934261322
8 83 0.3079105317592621
8 84 0.321115106344223
8 85 0.29642292857170105
8 86 0.2876523733139038
8 88 0.31298431754112244
8 89 0.3004130721092224
8 90 0.31444817781448364
8 91 0.31990930438041687
8 92 0.1260746568441391
8 93 0.24210874736309052
8 94 0.31085947155952454
8 95 0.2458612471818924
8 96 0.30841243267059326
8 97 0.21375200152397156
8 98 0.30694377422332764
8 99 0.3131474256515503
8 100 0.3127999007701874
8 101 0.29792702198028564
8 102 0.3147929906845093
8 104 0.31884127855300903
8 105 0.2480516880750656
8 106 0.31217241287231445
8 107 0.17634667456150055
8 108 0.0714285746216774
8 109 0.29963135719299316
8 110 0.2701254189014435
8 112 0.3195911645889282
8 113 0.20338895916938782
8 114 0.23904570937156677
8 115 0.17332538962364197
8 116 0.2771361768245697
8 118 0.1689135730266571
8 119 0.11112064123153687
8 120 0.24396401643753052
8 121 0.3007274866104126
8 122 0.12745968997478485
8 123 0.1633913218975067
8 126 0.2959212362766266
8 127 0.30415552854537964
8 128 0.31884127855300903
8 129 0.2981477677822113
8 130 0.05727026239037514
8 131 0.3040894567966461
8 132 0.29168570041656494
8 134 0.21785509586334229
8 135 0.2977977991104126
8 137 0.24147266149520874
8 138 0.29199323058128357
8 139 0.3107267916202545
8 140 0.21727687120437622
8 141 0.28733307123184204
8 142 0.2999873161315918
8 143 0.2943311035633087
8 144 0.31714099645614624
8 146 0.27623334527015686
8 147 0.2761211097240448
8 148 0.29410573840141296
8 149 0.29730308055877686
8 150 0.2364453375339508
8 151 0.2998226583003998
8 152 0.3336137533187866
8 153 0.3166334331035614
8 154 0.3093886971473694
8 155 0.050256967544555664
8 156 0.3001265227794647
8 157 0.2972736954689026
8 158 0.3116782009601593
8 161 0.2854315936565399
8 162 0.13537627458572388
8 165 0.28498661518096924
8 166 0.30924126505851746
8 167 0.30764803290367126
8 168 0.165643110871315
8 171 0.3172374963760376
8 172 0.3219980001449585
8 173 0.31086465716362
8 174 0.3100472092628479
8 175 0.3191725015640259
8 176 0.2210831493139267
8 177 0.291691392660141
8 178 0.2779357135295868
8 180 0.2640805244445801
8 181 0.29730308055877686
8 182 0.3174038827419281
8 183 0.3389030396938324
8 184 0.0714285746216774
8 185 0.3139670193195343
8 186 0.3070661723613739
8 187 0.2990283966064453
8 188 0.21365642547607422
8 189 0.3040894567966461
8 190 0.32820942997932434
8 192 0.29532864689826965
8 193 0.23862072825431824
8 194 0.2453126460313797
8 195 0.24394376575946808
8 196 0.3074900805950165
8 197 0.31526315212249756
8 198 0.27857622504234314
8 199 0.205261692404747
8 200 0.3269101083278656
8 201 0.28602784872055054
8 202 0.32845982909202576
8 203 0.3264274597167969
8 204 0.30780625343322754
8 205 0.2651877701282501
8 207 0.2839536666870117
8 209 0.3193385601043701
8 210 0.3131607472896576
8 212 0.25617456436157227
8 213 0.32834553718566895
8 214 0.3160800039768219
8 215 0.11517510563135147
8 216 0.280821830034256
8 217 0.31703755259513855
8 218 0.27847984433174133
8 219 0.07576143741607666
8 221 0.16631796956062317
8 222 0.1514103263616562
8 223 0.3174038827419281
8 224 0.17961563169956207
8 225 0.3083028197288513
8 226 0.28275978565216064
8 227 0.4576961398124695
8 228 0.24541537463665009
8 229 0.0979991927742958
8 230 0.32101312279701233
8 231 0.0905357375741005
8 232 0.14111845195293427
8 233 0.2670258581638336
8 235 0.313802570104599
8 236 0.27105236053466797
8 238 0.32820942997932434
8 239 0.3225429654121399
8 240 0.30924126505851746
8 241 0.3048800230026245
8 242 0.2995709180831909
8 243 0.3137379586696625
8 244 0.08303403109312057
8 246 0.32549336552619934
8 247 0.2998451888561249
8 248 0.3006865084171295
8 249 0.2944984436035156
8 251 0.32972365617752075
8 252 0.24615707993507385
8 253 0.16158899664878845
8 254 0.22673583030700684
8 255 0.30622807145118713
9 10 0.9507008790969849
9 11 0.11703837662935257
9 12 0.3321494460105896
9 13 0.9587898850440979
9 14 0.9484635591506958
9 15 0.8838830590248108
9 16 0.9625411033630371
9 17 0.7892386317253113
9 18 0.9114510416984558
9 20 0.942521870136261
9 21 0.7919752597808838
9 22 0.9522969126701355
9 23 0.8232125639915466
9 24 0.9363146424293518
9 25 0.7250350117683411
9 26 0.964043915271759
9 27 0.3103131055831909
9 28 0.9478226900100708
9 29 0.9561149477958679
9 30 0.9230924844741821
9 31 0.2961342930793762
9 32 0.9592097401618958
9 33 0.9544805288314819
9 34 0.9583338499069214
9 35 0.9094138741493225
9 36 0.956659197807312
9 37 0.9692549109458923
9 38 0.8957918286323547
9 39 0.9445701241493225
9 40 0.9550256133079529
9 41 0.8208791017532349
9 42 0.9534339308738708
9 43 0.5067266225814819
9 44 0.9586668610572815
9 45 0.9626251459121704
9 46 0.9334853291511536
9 47 0.9679751992225647
9 48 0.9584470987319946
9 49 0.9512032270431519
9 50 0.5764282941818237
9 51 0.9757482409477234
9 52 0.5569248795509338
9 53 0.05273209884762764
9 54 0.8430262207984924
9 55 0.9651235342025757
9 56 0.9725751280784607
9 57 0.9504458904266357
9 58 0.880427896976471
9 59 0.8180830478668213
9 60 0.1208244115114212
9 61 0.8976806402206421
9 62 0.9526345133781433
9 63 0.7518762946128845
9 64 0.9730420708656311
9 65 0.4312879145145416
9 66 0.9630818367004395
9 67 0.9582468867301941
9 68 0.963969886302948
9 69 0.912842869758606
9 70 0.8747400641441345
9 71 0.9507008790969849
9 72 0.15500007569789886
9 73 0.9685545563697815
9 74 0.6574405431747437
9 75 0.16819296777248383
9 76 0.9443437457084656
9 77 0.9674373269081116
9 78 0.7635365724563599
9 79 0.9559081792831421
9 80 0.9522531628608704
9 81 0.24410219490528107
9 82 0.9547421336174011
9 83 0.9528879523277283
9 84 0.9388317465782166
9 85 0.9159931540489197
9 86 0.9582048654556274
9 87 0.4461737275123596
9 88 0.9577906131744385
9 89 0.9572030305862427
9 90 0.9668580293655396
9 91 0.9236563444137573
9 92 0.21046839654445648
9 93 0.9143694043159485
9 94 0.9592097401618958
9 95 0.8171364665031433
9 96 0.938754141330719
9 97 0.4259260892868042
9 98 0.9686852693557739
9 99 0.9582898616790771
9 100 0.9300441145896912
9 101 0.9586668610572815
9 102 0.9528432488441467
9 104 0.9610016942024231
9 105 0.9023996591567993
9 106 0.9646616578102112
9 107 0.2748183012008667
9 109 0.9661646485328674
9 110 0.9336740374565125
9 111 0.07323065400123596
9 112 0.9489679336547852
9 113 0.8314753770828247
9 114 0.3766220808029175
9 115 0.6873483657836914
9 116 0.8446626663208008
9 117 0.1855016052722931
9 118 0.418475478887558
9 119 0.3433801531791687
9 120 0.5568002462387085
9 121 0.9571599364280701
9 122 0.21854250133037567
9 123 0.282050222158432
9 124 0.07323065400123596
9 125 0.29171332716941833
9 126 0.9470382928848267
9 127 0.9576614499092102
9 128 0.966201901435852
9 129 0.9176291227340698
9 130 0.1708715260028839
9 131 0.9477846622467041
9 132 0.9565324187278748
9 133 0.13559944927692413
9 134 0.5432078242301941
9 135 0.9466855525970459
9 136 0.15500007569789886
9 137 0.538413405418396
9 138 0.9575408697128296
9 139 0.9653679132461548
9 140 0.6772077083587646
9 141 0.968059778213501
9 142 0.7013388872146606
9 143 0.9482924938201904
9 144 0.9536140561103821
9 145 0.22079873085021973
9 146 0.7363186478614807
9 147 0.9464883208274841
9 148 0.8755349516868591
9 149 0.9577035307884216
9 150 0.7623640298843384
9 151 0.9468615055084229
9 152 0.8554924726486206
9 153 0.9689576029777527
9 154 0.942234456539154
9 155 0.3213142454624176
9 156 0.8440454006195068
9 157 0.9083088636398315
9 158 0.9606872200965881
9 159 0.402372270822525
9 160 0.07789047062397003
9 161 0.9564920663833618
9 162 0.4122600257396698
9 163 0.17182612419128418
9 164 0.07220640033483505
9 165 0.8125318884849548
9 166 0.9625411033630371
9 167 0.9731104373931885
9 168 0.17810912430286407
9 169 0.0861111581325531
9 170 0.10709939897060394
9 171 0.9597523808479309
9 172 0.9518699645996094
9 173 0.7975119948387146
9 174 0.9650497436523438
9 175 0.9609590172767639
9 176 0.6920158267021179
9 177 0.9302853345870972
9 178 0.9302287697792053
9 179 0.2542649805545807
9 180 0.9609172344207764
9 181 0.956659197807312
9 182 0.9539795517921448
9 183 0.4087281823158264
9 185 0.9566159248352051
9 186 0.9467715620994568
9 187 0.9517063498497009
9 188 0.8110606074333191
9 189 0.9435582756996155
9 190 0.9202285408973694
9 191 0.5038107633590698
9 192 0.9387169480323792
9 193 0.9582048654556274
9 194 0.8302502036094666
9 195 0.625383734703064
9 196 0.9684720039367676
9 197 0.7585065960884094
9 198 0.9554847478866577
9 199 0.7161948084831238
9 200 0.9554633498191833
9 201 0.7932596206665039
9 202 0.3149976134300232
9 203 0.4902457892894745
9 204 0.96946781873703
9 205 0.9649463295936584
9 206 0.1208244115114212
9 207 0.9488825798034668
9 208 0.2381596565246582
9 209 0.9614588618278503
9 210 0.9690918922424316
9 212 0.9522531628608704
9 213 0.941450834274292
9 214 0.9718755483627319
9 215 0.715122401714325
9 216 0.9436609745025635
9 217 0.9741801619529724
9 218 0.8468806147575378
9 219 0.46217474341392517
9 220 0.19104017317295074
9 221 0.5600266456604004
9 222 0.886986494064331
9 223 0.9550256133079529
9 224 0.4870627820491791
9 225 0.9259892106056213
9 226 0.9620842933654785
9 227 0.5278357267379761
9 228 0.9633938670158386
9 229 0.07048695534467697
9 230 0.9539351463317871
9 231 0.2067263126373291
9 232 0.22555764019489288
9 233 0.7248870134353638
9 234 0.2592313587665558
9 235 0.9571599364280701
9 236 0.09386831521987915
9 238 0.9147639274597168
9 239 0.9637418985366821
9 240 0.967743992805481
9 241 0.9642459154129028
9 242 0.9363614916801453
9 243 0.9453152418136597
9 244 0.16457033157348633
9 245 0.1712525188922882
9 246 0.9396434426307678
9 247 0.934825599193573
9 248 0.9131481647491455
9 249 0.9654858708381653
9 250 0.30929824709892273
9 251 0.9145925045013428
9 252 0.9147639274597168
9 253 0.7036299705505371
9 254 0.9548577070236206
9 255 0.9406177401542664
10 11 0.12470565736293793
10 12 0.32552775740623474
10 13 0.9501470327377319
10 14 0.9406827688217163
10 15 0.8439417481422424
10 16 0.9529129862785339
10 17 0.7565885782241821
10 18 0.8847697377204895
10 20 0.9226072430610657
10 21 0.7763769626617432
10 22 0.9445911645889282
10 23 0.8038299083709717
10 24 0.9368685483932495
10 25 0.6711880564689636
10 26 0.9533520340919495
10 27 0.33139172196388245
10 28 0.9203231334686279
10 29 0.9484837055206299
10 30 0.9081094861030579
10 31 0.2843032777309418
10 32 0.9494783878326416
10 33 0.9562961459159851
10 34 0.9549524188041687
10 35 0.8906941413879395
10 36 0.9679561853408813
10 37 0.9533520340919495
10 38 0.8913586735725403
10 39 0.9356338977813721
10 40 0.9600047469139099
10 41 0.7796132564544678
10 42 0.9489237666130066
10 43 0.46576014161109924
10 44 0.9468173980712891
10 45 0.96138995885849
10 46 0.9243165850639343
10 47 0.9616004824638367
10 48 0.9422428607940674
10 49 0.960380494594574
10 50 0.5783270597457886
10 51 0.9600675702095032
10 52 0.5822071433067322
10 53 0.06633143872022629
10 54 0.8435097932815552
10 55 0.9534081220626831
10 56 0.9578717947006226
10 57 0.9426333904266357
10 58 0.8451864123344421
10 59 0.8232499957084656
10 60 0.1129027009010315
10 61 0.8955435752868652
10 62 0.9416840076446533
10 63 0.7579594850540161
10 64 0.9562217593193054
10 65 0.4492786228656769
10 66 0.9534652829170227
10 67 0.9558955430984497
10 68 0.9490385055541992
10 69 0.9030949473381042
10 70 0.8547162413597107
10 71 0.9440338015556335
10 72 0.07798951864242554
10 73 0.9611636400222778
10 74 0.640002429485321
10 75 0.18092802166938782
10 76 0.907659113407135
10 77 0.9610527753829956
10 78 0.7466385364532471
10 79 0.948203444480896
10 80 0.9487587809562683
10 81 0.2579261064529419
10 82 0.9491071701049805
10 83 0.950476348400116
10 84 0.9243165850639343
10 85 0.9130101203918457
10 86 0.9516382813453674
10 87 0.4511297643184662
10 88 0.9533520340919495
10 89 0.9706016182899475
10 90 0.9573220610618591
10 91 0.9141627550125122
10 92 0.2298230230808258
10 93 0.8923287391662598
10 94 0.9494783878326416
10 95 0.7909120321273804
10 96 0.9220366477966309
10 97 0.4286161959171295
10 98 0.9506433606147766
10 99 0.9559475779533386
10 100 0.9186062812805176
10 101 0.9468173980712891
10 102 0.9451481699943542
10 104 0.9534652829170227
10 105 0.8867453336715698
10 106 0.9613397121429443
10 107 0.29073625802993774
10 109 0.9523604512214661
10 110 0.9178467988967896
10 111 0.08597537130117416
10 112 0.9411829710006714
10 113 0.7788480520248413
10 114 0.33505865931510925
10 115 0.635932445526123
10 116 0.8145809173583984
10 117 0.16404615342617035
10 118 0.4618719220161438
10 119 0.3187390863895416
10 120 0.5530164241790771
10 121 0.9495352506637573
10 122 0.272107869386673
10 123 0.28733572363853455
10 124 0.08597537130117416
10 125 0.37050724029541016
10 126 0.9316275119781494
10 127 0.9479285478591919
10 128 0.956605076789856
10 129 0.8921977877616882
10 130 0.16580963134765625
10 131 0.9367581605911255
10 132 0.9520307183265686
10 133 0.16612018644809723
10 134 0.586935818195343
10 135 0.9569224715232849
10 136 0.16247816383838654
10 137 0.5359880924224854
10 138 0.947757363319397
10 139 0.958970308303833
10 140 0.6887656450271606
10 141 0.9669040441513062
10 142 0.6942456364631653
10 143 0.9361962080001831
10 144 0.9394452571868896
10 145 0.285148024559021
10 146 0.735500693321228
10 147 0.9364134073257446
10 148 0.8444029688835144
10 149 0.9563953280448914
10 150 0.757999062538147
10 151 0.9433027505874634
10 152 0.8445643186569214
10 153 0.9390028119087219
10 154 0.9310624599456787
10 155 0.30394303798675537
10 156 0.8139346241950989
10 157 0.9029258489608765
10 158 0.9445911645889282
10 159 0.47202634811401367
10 160 0.10777582228183746
10 161 0.9445911645889282
10 162 0.4286161959171295
10 163 0.22751493752002716
10 164 0.07266244292259216
10 165 0.8275747895240784
10 166 0.9602431058883667
10 167 0.9594630002975464
10 168 0.2034548670053482
10 169 0.09748690575361252
10 170 0.10777582228183746
10 171 0.9510847926139832
10 172 0.9365243911743164
10 173 0.8000173568725586
10 174 0.9574962854385376
10 175 0.9534081220626831
10 176 0.6652713418006897
10 177 0.9165211915969849
10 178 0.9393356442451477
10 179 0.25587087869644165
10 180 0.956498384475708
10 181 0.9658542275428772
10 182 0.9494783878326416
10 183 0.3741430938243866
10 185 0.9479285478591919
10 186 0.9431918859481812
10 187 0.948203444480896
10 188 0.8125012516975403
10 189 0.9399480819702148
10 190 0.9018446803092957
10 191 0.5398892164230347
10 192 0.9208946228027344
10 193 0.9516382813453674
10 194 0.7816314697265625
10 195 0.6477981209754944
10 196 0.9600115418434143
10 197 0.747283935546875
10 198 0.9457049369812012
10 199 0.7066690921783447
10 200 0.9271586537361145
10 201 0.8305984735488892
10 202 0.31698712706565857
10 203 0.4715479016304016
10 204 0.9578717947006226
10 205 0.9541897177696228
10 206 0.12158752232789993
10 207 0.9400054216384888
10 208 0.3392643928527832
10 209 0.9539041519165039
10 210 0.9637883305549622
10 212 0.9519283175468445
10 213 0.9226072430610657
10 214 0.9518076777458191
10 215 0.7125138640403748
10 216 0.9248856902122498
10 217 0.9595191478729248
10 218 0.8451569080352783
10 219 0.49352744221687317
10 220 0.18126124143600464
10 221 0.5653471946716309
10 222 0.8982521891593933
10 223 0.9494783878326416
10 224 0.5080710053443909
10 225 0.9209389686584473
10 226 0.9671151638031006
10 227 0.5255782008171082
10 228 0.9547415971755981
10 229 0.12610158324241638
10 230 0.950476348400116
10 231 0.2537990212440491
10 232 0.25587087869644165
10 233 0.7403732538223267
10 234 0.2845839262008667
10 235 0.9495352506637573
10 236 0.1380586475133896
10 238 0.9271403551101685
10 239 0.9412420988082886
10 240 0.9571016430854797
10 241 0.9651190638542175
10 242 0.9294261932373047
10 243 0.9373278021812439
10 244 0.19766321778297424
10 245 0.16084517538547516
10 246 0.9316883087158203
10 247 0.9320594668388367
10 248 0.90682452917099
10 249 0.9505310654640198
10 250 0.28635159134864807
10 251 0.9049006104469299
10 252 0.9128428101539612
10 253 0.7263378500938416
10 254 0.9524317979812622
10 255 0.9519123435020447
11 12 0.24790026247501373
11 13 0.15154045820236206
11 14 0.13205274939537048
11 15 0.11487593501806259
11 16 0.13740594685077667
11 18 0.13943475484848022
11 20 0.12728558480739594
11 22 0.14541317522525787
11 24 0.10549263656139374
11 25 0.14959152042865753
11 26 0.13073945045471191
11 28 0.14174063503742218
11 29 0.1448792815208435
11 30 0.12217891216278076
11 32 0.13121873140335083
11 33 0.13819749653339386
11 34 0.1513037383556366
11 35 0.15320715308189392
11 36 0.11032646894454956
11 37 0.1376204788684845
11 38 0.15447859466075897
11 39 0.1396724283695221
11 40 0.08978123217821121
11 41 0.0906032845377922
11 42 0.14510737359523773
11 43 0.0658579170703888
11 44 0.14510737359523773
11 45 0.1508336067199707
11 46 0.15531519055366516
11 47 0.15021352469921112
11 48 0.1321229785680771
11 49 0.13170331716537476
11 51 0.1501365602016449
11 52 0.05949851870536804
11 53 0.17407765984535217
11 54 0.07940009981393814
11 55 0.14435119926929474
11 56 0.10941465944051743
11 57 0.14642059803009033
11 58 0.14532214403152466
11 59 0.1358305811882019
11 61 0.15365761518478394
11 62 0.14610838890075684
11 63 0.06128572300076485
11 64 0.143828883767128
11 65 0.05723637714982033
11 66 0.15106812119483948
11 67 0.13094420731067657
11 68 0.1172218769788742
11 69 0.12359143048524857
11 70 0.16762179136276245
11 71 0.15241803228855133
11 73 0.14998295903205872
11 74 0.07082640379667282
11 76 0.14349551498889923
11 77 0.1434592306613922
11 78 0.08015929162502289
11 79 0.11096671223640442
11 80 0.12477155774831772
11 81 0.053721535950899124
11 82 0.0904480442404747
11 83 0.14518363773822784
11 84 0.1411956250667572
11 85 0.12943945825099945
11 86 0.13798026740550995
11 87 0.0701378881931305
11 88 0.15138252079486847
11 89 0.14472781121730804
11 90 0.12315485626459122
11 91 0.09337788820266724
11 93 0.0729985386133194
11 94 0.1381249725818634
11 95 0.06589329987764359
11 96 0.12028034031391144
11 97 0.16541822254657745
11 98 0.08959340304136276
11 99 0.1445768177509308
11 100 0.14197614789009094
11 101 0.13128761947155
11 102 0.1453365534543991
11 104 0.15106812119483948
11 105 0.11797920614480972
11 106 0.150989830493927
11 107 0.1395726203918457
11 108 0.15075567364692688
11 109 0.11685573309659958
11 110 0.1282772421836853
11 111 0.16116458177566528
11 112 0.15298449993133545
11 113 0.05778615176677704
11 114 0.12613123655319214
11 115 0.09886946529150009
11 116 0.08813831210136414
11 117 0.11134044080972672
11 118 0.08912637829780579
11 119 0.09772038459777832
11 120 0.22751636803150177
11 121 0.15177829563617706
11 122 0.26901379227638245
11 123 0.11495012044906616
11 125 0.07479576021432877
11 126 0.11228138953447342
11 127 0.1380525678396225
11 128 0.15106812119483948
11 129 0.06585326790809631
11 130 0.08058229088783264
11 131 0.13952282071113586
11 132 0.05533715337514877
11 134 0.21840523183345795
11 135 0.11872156709432602
11 137 0.05096472054719925
11 138 0.14541317522525787
11 139 0.1502906233072281
11 140 0.1624137908220291
11 141 0.14309240877628326
11 142 0.1700991988182068
11 143 0.11167804896831512
11 144 0.13247577846050262
11 146 0.14351074397563934
11 147 0.13340644538402557
11 148 0.062073346227407455
11 149 0.12411727756261826
11 150 0.14626938104629517
11 151 0.12516912817955017
11 152 0.16072267293930054
11 153 0.13922500610351562
11 154 0.14744922518730164
11 156 0.08820062130689621
11 157 0.1459115743637085
11 158 0.09001767635345459
11 160 0.12856486439704895
11 161 0.13156430423259735
11 165 0.11379481106996536
11 166 0.13740594685077667
11 167 0.11619332432746887
11 168 0.06356417387723923
11 171 0.15185782313346863
11 172 0.13311798870563507
11 173 0.16610242426395416
11 174 0.15154045820236206
11 175 0.14435119926929474
11 177 0.11453726887702942
11 178 0.14841823279857635
11 179 0.05415303632616997
11 180 0.11009637266397476
11 181 0.13790808618068695
11 182 0.14503122866153717
11 183 0.1788204312324524
11 185 0.1380525678396225
11 186 0.15331104397773743
11 187 0.14564381539821625
11 188 0.16104960441589355
11 189 0.13254667818546295
11 190 0.15874652564525604
11 192 0.1274961531162262
11 193 0.11038421094417572
11 194 0.06574627012014389
11 195 0.13123950362205505
11 196 0.1434592306613922
11 197 0.11381634324789047
11 198 0.13142573833465576
11 199 0.06452228873968124
11 200 0.1478506624698639
11 201 0.16315796971321106
11 202 0.14705103635787964
11 203 0.2209843099117279
11 204 0.0888994112610817
11 205 0.09673824161291122
11 206 0.05698028579354286
11 207 0.13240498304367065
11 209 0.14442630112171173
11 210 0.14309240877628326
11 212 0.15249857306480408
11 213 0.15557126700878143
11 214 0.1513037383556366
11 216 0.12700645625591278
11 217 0.15021352469921112
11 218 0.11600403487682343
11 219 0.13325044512748718
11 221 0.09360726922750473
11 222 0.08918051421642303
11 223 0.15193746984004974
11 224 0.14379392564296722
11 225 0.15731149911880493
11 226 0.11661355197429657
11 227 0.19564637541770935
11 228 0.11740622669458389
11 229 0.25854384899139404
11 230 0.15209715068340302
11 231 0.08189266175031662
11 232 0.1624591052532196
11 233 0.15207695960998535
11 234 0.08891084790229797
11 235 0.13798026740550995
11 236 0.19069251418113708
11 238 0.15874652564525604
11 239 0.11114327609539032
11 240 0.12366534769535065
11 241 0.13006378710269928
11 242 0.15455444157123566
11 243 0.11270960420370102
11 244 0.17524990439414978
11 245 0.07537783682346344
11 246 0.1401999294757843
11 247 0.15643413364887238
11 248 0.08653946220874786
11 249 0.10359372943639755
11 250 0.14294646680355072
11 251 0.11598467081785202
11 252 0.10102051496505737
11 253 0.0921747088432312
11 254 0.12483755499124527
11 255 0.11942843347787857
12 13 0.3207637369632721
12 14 0.3294796943664551
12 15 0.3437778949737549
12 16 0.3573991656303406
12 17 0.20003189146518707
12 18 0.3694494366645813
12 20 0.3619286119937897
12 21 0.16301709413528442
12 22 0.3544056713581085
12 23 0.16915170848369598
12 24 0.2242336869239807
12 25 0.3922322392463684
12 26 0.3175426721572876
12 28 0.33299577236175537
12 29 0.3299500346183777
12 30 0.2532695531845093
12 31 0.07542472332715988
12 32 0.3245013952255249
12 33 0.29568326473236084
12 34 0.3462298810482025
12 35 0.37646201252937317
12 36 0.2950640022754669
12 37 0.3406367003917694
12 38 0.3116927742958069
12 39 0.3457156717777252
12 40 0.30132272839546204
12 41 0.3697357177734375
12 42 0.36235690116882324
12 43 0.19892841577529907
12 44 0.36235690116882324
12 45 0.35953548550605774
12 46 0.3702180087566376
12 47 0.3580574095249176
12 48 0.34715867042541504
12 49 0.3315158486366272
12 51 0.3550109565258026
12 52 0.23962587118148804
12 53 0.14605934917926788
12 54 0.3231090307235718
12 55 0.3575848937034607
12 56 0.32418307662010193
12 57 0.3627111315727234
12 58 0.39467498660087585
12 59 0.25140058994293213
12 60 0.09561829268932343
12 61 0.3652902841567993
12 62 0.35901889204978943
12 63 0.23507021367549896
12 64 0.3505443334579468
12 65 0.11405704915523529
12 66 0.36009448766708374
12 67 0.31803998351097107
12 68 0.3268846273422241
12 69 0.29584723711013794
12 70 0.39955273270606995
12 71 0.3633122146129608
12 72 0.17888545989990234
12 73 0.3575078248977661
12 74 0.1315876692533493
12 76 0.3672184348106384
12 77 0.33817970752716064
12 78 0.21298182010650635
12 79 0.29095718264579773
12 80 0.3169756531715393
12 82 0.2977229952812195
12 83 0.3538462221622467
12 84 0.36133280396461487
12 85 0.35296887159347534
12 86 0.3559987246990204
12 87 0.12946778535842896
12 88 0.3608439266681671
12 89 0.3469527065753937
12 90 0.33009061217308044
12 91 0.23805874586105347
12 93 0.226622074842453
12 94 0.36216673254966736
12 95 0.2971707284450531
12 96 0.3383817672729492
12 97 0.41638100147247314
12 98 0.3093661963939667
12 99 0.3321494460105896
12 100 0.3186585009098053
12 101 0.3594580590724945
12 102 0.35421890020370483
12 104 0.36009448766708374
12 105 0.2784097194671631
12 106 0.357028603553772
12 107 0.4977090358734131
12 109 0.3229798972606659
12 110 0.34382012486457825
12 111 0.06761234253644943
12 112 0.3646624684333801
12 113 0.2389632910490036
12 114 0.3099308907985687
12 115 0.21568594872951508
12 116 0.3731224536895752
12 117 0.07784989476203918
12 118 0.08724477142095566
12 119 0.29517123103141785
12 120 0.4822659492492676
12 121 0.3386329412460327
12 122 0.3898718059062958
12 123 0.1253831386566162
12 126 0.2737959921360016
12 127 0.35908105969429016
12 128 0.3572137653827667
12 129 0.23636431992053986
12 131 0.36290526390075684
12 132 0.2553676664829254
12 133 0.06531972438097
12 134 0.35203731060028076
12 135 0.31055814027786255
12 136 0.07155417650938034
12 137 0.3046778440475464
12 138 0.36021557450294495
12 139 0.3582412004470825
12 140 0.2765536904335022
12 141 0.34303221106529236
12 142 0.4519506096839905
12 143 0.3191763162612915
12 144 0.3305351436138153
12 146 0.43649446964263916
12 147 0.35053107142448425
12 148 0.260412335395813
12 149 0.29795679450035095
12 150 0.35374221205711365
12 151 0.3384068012237549
12 152 0.398140013217926
12 153 0.34460821747779846
12 154 0.36820489168167114
12 156 0.3128370940685272
12 157 0.34891602396965027
12 158 0.3079262375831604
12 160 0.05393598601222038
12 161 0.3485957384109497
12 162 0.1072496548295021
12 165 0.30007752776145935
12 166 0.3372234106063843
12 167 0.3326186239719391
12 171 0.36197686195373535
12 172 0.3497731387615204
12 173 0.40416646003723145
12 174 0.358330637216568
12 175 0.35470113158226013
12 176 0.14273829758167267
12 177 0.36638951301574707
12 178 0.3439396917819977
12 179 0.10223313421010971
12 180 0.34641018509864807
12 181 0.32977741956710815
12 182 0.3592694103717804
12 183 0.6478946805000305
12 185 0.34460195899009705
12 186 0.34497615694999695
12 187 0.35205820202827454
12 188 0.25674358010292053
12 189 0.3541252911090851
12 190 0.3783971667289734
12 192 0.3120112419128418
12 193 0.2633811831474304
12 194 0.2172090858221054
12 195 0.22870272397994995
12 196 0.3582412004470825
12 197 0.35260531306266785
12 198 0.36273813247680664
12 199 0.1817464530467987
12 200 0.3485317528247833
12 201 0.3251309096813202
12 202 0.590474545955658
12 203 0.5235282182693481
12 204 0.29836317896842957
12 205 0.3304695188999176
12 207 0.3215879499912262
12 209 0.34911513328552246
12 210 0.35446661710739136
12 212 0.3256997764110565
12 213 0.36786186695098877
12 214 0.36065611243247986
12 215 0.09021341800689697
12 216 0.3463342785835266
12 217 0.3580574095249176
12 218 0.1784435659646988
12 219 0.23478715121746063
12 221 0.10308495163917542
12 222 0.10288664698600769
12 223 0.35347476601600647
12 224 0.1919429749250412
12 225 0.3749765455722809
12 226 0.3251883089542389
12 227 0.5386386513710022
12 228 0.3302960693836212
12 229 0.17354437708854675
12 230 0.3596469759941101
12 231 0.0687117949128151
12 232 0.2271847426891327
12 233 0.3865521550178528
12 234 0.14920076727867126
12 235 0.34442150592803955
12 236 0.08000000566244125
12 238 0.3360167145729065
12 239 0.31764793395996094
12 240 0.3314588963985443
12 241 0.34174808859825134
12 242 0.34187960624694824
12 243 0.31916922330856323
12 244 0.27938157320022583
12 246 0.338198721408844
12 247 0.3490205705165863
12 248 0.32069721817970276
12 249 0.2955280840396881
12 250 0.17990824580192566
12 251 0.3071554899215698
12 252 0.25125572085380554
12 253 0.16241173446178436
12 254 0.35205820202827454
12 255 0.3183016777038574
13 14 0.9584375619888306
13 15 0.8727387189865112
13 16 0.9630433320999146
13 17 0.7754573822021484
13 18 0.8985812664031982
13 20 0.9440852403640747
13 21 0.7808675169944763
13 22 0.9664351344108582
13 23 0.8285301923751831
13 24 0.9431977272033691
13 25 0.7098283171653748
13 26 0.9697607159614563
13 27 0.30413874983787537
13 28 0.9300597906112671
13 29 0.9607957601547241
13 30 0.9355543851852417
13 31 0.29628878831863403
13 32 0.9534308314323425
13 33 0.9528842568397522
13 34 0.9577916860580444
13 35 0.9143106937408447
13 36 0.9550684094429016
13 37 0.9582903981208801
13 38 0.8962591886520386
13 39 0.9524710774421692
13 40 0.9544773697853088
13 41 0.7988400459289551
13 42 0.9549785256385803
13 43 0.522959291934967
13 44 0.9591670632362366
13 45 0.961049497127533
13 46 0.9350422620773315
13 47 0.9653761386871338
13 48 0.9473555684089661
13 49 0.9506491422653198
13 50 0.5801929235458374
13 51 0.9659156203269958
13 52 0.510330080986023
13 53 0.05275961756706238
13 54 0.827824056148529
13 55 0.9677104353904724
13 56 0.9647921919822693
13 57 0.9551681876182556
13 58 0.8669785261154175
13 59 0.8245639801025391
13 60 0.11225264519453049
13 61 0.8992578983306885
13 62 0.954185962677002
13 63 0.7429813146591187
13 64 0.9652466773986816
13 65 0.46403905749320984
13 66 0.9687872529029846
13 67 0.956658124923706
13 68 0.9655177593231201
13 69 0.9221327900886536
13 70 0.8578773140907288
13 71 0.9522468447685242
13 72 0.16154266893863678
13 73 0.9669937491416931
13 74 0.6424506306648254
13 75 0.12185847014188766
13 76 0.9209166765213013
13 77 0.9648363590240479
13 78 0.7247933745384216
13 79 0.951151967048645
13 80 0.9548509120941162
13 81 0.21980659663677216
13 82 0.9489142298698425
13 83 0.9533851146697998
13 84 0.9436010122299194
13 85 0.917560875415802
13 86 0.9566138386726379
13 87 0.48679569363594055
13 88 0.9582903981208801
13 89 0.9556136727333069
13 90 0.9642520546913147
13 91 0.9197843074798584
13 92 0.18817628920078278
13 93 0.9093154072761536
13 94 0.9534308314323425
13 95 0.7938472628593445
13 96 0.9446049928665161
13 97 0.42842721939086914
13 98 0.9587468504905701
13 99 0.9577466249465942
13 100 0.9466657042503357
13 101 0.9549785256385803
13 102 0.9554380178451538
13 104 0.9604625105857849
13 105 0.8894615769386292
13 106 0.9610047936439514
13 107 0.23618502914905548
13 109 0.9687521457672119
13 110 0.9449607729911804
13 111 0.08548034727573395
13 112 0.9473555684089661
13 113 0.8018854856491089
13 114 0.3631657361984253
13 115 0.678717315196991
13 116 0.8098908066749573
13 117 0.17997421324253082
13 118 0.41194072365760803
13 119 0.32578903436660767
13 120 0.549832284450531
13 121 0.9628867506980896
13 122 0.26312902569770813
13 123 0.2891652584075928
13 124 0.08548034727573395
13 125 0.3542057275772095
13 126 0.9517862200737
13 127 0.9592071175575256
13 128 0.9594219326972961
13 129 0.9036931991577148
13 130 0.16485494375228882
13 131 0.9482792615890503
13 132 0.9559832811355591
13 133 0.1710624247789383
13 134 0.5696207284927368
13 135 0.9418880343437195
13 136 0.14215755462646484
13 137 0.5058706998825073
13 138 0.9569911360740662
13 139 0.9710477590560913
13 140 0.709412157535553
13 141 0.969597578048706
13 142 0.6902483701705933
13 143 0.9561914801597595
13 144 0.9435456395149231
13 145 0.2650967240333557
13 146 0.7353435158729553
13 147 0.9512382745742798
13 148 0.8489477634429932
13 149 0.9582032561302185
13 150 0.7771043181419373
13 151 0.9473555684089661
13 152 0.8733359575271606
13 153 0.9504747986793518
13 154 0.9363419413566589
13 155 0.3182671070098877
13 156 0.8250443935394287
13 157 0.9132051467895508
13 158 0.9569911360740662
13 159 0.44706642627716064
13 160 0.06818972527980804
13 161 0.9580404162406921
13 162 0.4534947872161865
13 163 0.23072907328605652
13 164 0.0722440779209137
13 165 0.7994066476821899
13 166 0.9588788151741028
13 167 0.9653320908546448
13 168 0.20228342711925507
13 169 0.09692560136318207
13 170 0.09741389006376266
13 171 0.9560690522193909
13 172 0.9385643005371094
13 173 0.7853425145149231
13 174 0.9561586976051331
13 175 0.9583353996276855
13 176 0.6791185736656189
13 177 0.9220921993255615
13 178 0.9296431541442871
13 179 0.23388171195983887
13 180 0.9582903981208801
13 181 0.9550684094429016
13 182 0.9555239081382751
13 183 0.3916969299316406
13 185 0.9571150541305542
13 186 0.9514896869659424
13 187 0.9490500092506409
13 188 0.8517529368400574
13 189 0.951450765132904
13 190 0.917428195476532
13 191 0.5213891267776489
13 192 0.943500280380249
13 193 0.9607957601547241
13 194 0.8244564533233643
13 195 0.6501876711845398
13 196 0.9648363590240479
13 197 0.7310405373573303
13 198 0.9601761698722839
13 199 0.7081875801086426
13 200 0.9335565567016602
13 201 0.7961461544036865
13 202 0.2833274304866791
13 203 0.5082305669784546
13 204 0.9668647646903992
13 205 0.9528842568397522
13 206 0.103617824614048
13 207 0.9504336714744568
13 208 0.32183799147605896
13 209 0.9577916860580444
13 210 0.9675323367118835
13 212 0.9538004994392395
13 213 0.9387272000312805
13 214 0.9598761200904846
13 215 0.708411455154419
13 216 0.9388071298599243
13 217 0.9664108753204346
13 218 0.8578701019287109
13 219 0.5128979086875916
13 220 0.18021757900714874
13 221 0.5443603992462158
13 222 0.8942065238952637
13 223 0.9597102403640747
13 224 0.5130695104598999
13 225 0.9188872575759888
13 226 0.9605072736740112
13 227 0.5095808506011963
13 228 0.9576170444488525
13 229 0.11753954738378525
13 230 0.9544328451156616
13 231 0.2233809232711792
13 232 0.2256753295660019
13 233 0.7374659776687622
13 234 0.30989259481430054
13 235 0.9597502946853638
13 236 0.1444881558418274
13 238 0.9086803197860718
13 239 0.9495073556900024
13 240 0.9588788151741028
13 241 0.9626742005348206
13 242 0.9389792680740356
13 243 0.9329984188079834
13 244 0.12747575342655182
13 245 0.1827646642923355
13 246 0.9486321806907654
13 247 0.9288480281829834
13 248 0.9190888404846191
13 249 0.9544773697853088
13 250 0.3373109698295593
13 251 0.9062815308570862
13 252 0.9283629655838013
13 253 0.7333303689956665
13 254 0.9501010179519653
13 255 0.9357855319976807
14 15 0.8606799244880676
14 16 0.9506937265396118
14 17 0.7655062079429626
14 18 0.8819754719734192
14 20 0.9287875890731812
14 21 0.7672235369682312
14 22 0.9507741928100586
14 23 0.8100875616073608
14 24 0.9420014023780823
14 25 0.6904792785644531
14 26 0.9521780014038086
14 27 0.28769415616989136
14 28 0.9200016260147095
14 29 0.9483380913734436
14 30 0.9197912812232971
14 31 0.29895317554473877
14 32 0.9472206234931946
14 33 0.9434919357299805
14 34 0.9506309032440186
14 35 0.9191861152648926
14 36 0.9478419423103333
14 37 0.9521780014038086
14 38 0.8818233609199524
14 39 0.9450189471244812
14 40 0.9535565972328186
14 41 0.7871323823928833
14 42 0.94771808385849
14 43 0.5256479978561401
14 44 0.9466615319252014
14 45 0.9539669752120972
14 46 0.9294176697731018
14 47 0.9563092589378357
14 48 0.9463052749633789
14 49 0.9432995915412903
14 50 0.5749253630638123
14 51 0.9579061269760132
14 52 0.5112802386283875
14 53 0.06654257327318192
14 54 0.8085590600967407
14 55 0.9553918242454529
14 56 0.9546470046043396
14 57 0.9435016512870789
14 58 0.8572325706481934
14 59 0.835644006729126
14 60 0.12197454273700714
14 61 0.9051068425178528
14 62 0.9436175227165222
14 63 0.7295823693275452
14 64 0.9550765156745911
14 65 0.4769635498523712
14 66 0.9554502367973328
14 67 0.9473466277122498
14 68 0.9562765955924988
14 69 0.9037462472915649
14 70 0.8492818474769592
14 71 0.9491573572158813
14 72 0.15647552907466888
14 73 0.9579685926437378
14 74 0.6327570676803589
14 75 0.16393902897834778
14 76 0.910548210144043
14 77 0.9557554721832275
14 78 0.7217782139778137
14 79 0.945919394493103
14 80 0.9475391507148743
14 81 0.23821160197257996
14 82 0.9446814060211182
14 83 0.9429306983947754
14 84 0.9283381700515747
14 85 0.9104185700416565
14 86 0.9493929743766785
14 87 0.49117323756217957
14 88 0.9521780014038086
14 89 0.9473466277122498
14 90 0.9572307467460632
14 91 0.909384548664093
14 92 0.207951158285141
14 93 0.9107953906059265
14 94 0.9440526962280273
14 95 0.7997266054153442
14 96 0.9401172399520874
14 97 0.4046875238418579
14 98 0.9557768702507019
14 99 0.9537269473075867
14 100 0.9399825930595398
14 101 0.9434919357299805
14 102 0.9597969651222229
14 104 0.9502004981040955
14 105 0.8895677924156189
14 106 0.9549550414085388
14 107 0.2596500515937805
14 109 0.9522386789321899
14 110 0.9338443875312805
14 111 0.061606451869010925
14 112 0.9420522451400757
14 113 0.8002607226371765
14 114 0.3388802707195282
14 115 0.6712150573730469
14 116 0.8000216484069824
14 117 0.16456831991672516
14 118 0.4270015060901642
14 119 0.2988351881504059
14 120 0.5419600009918213
14 121 0.9462282657623291
14 122 0.23558028042316437
14 123 0.2847350835800171
14 124 0.07392773777246475
14 125 0.3516726791858673
14 126 0.9335199594497681
14 127 0.945668637752533
14 128 0.9502004981040955
14 129 0.8961565494537354
14 130 0.15401612222194672
14 131 0.9418731927871704
14 132 0.9465998411178589
14 133 0.17260070145130157
14 134 0.564197301864624
14 135 0.932205080986023
14 136 0.10431702435016632
14 137 0.5026270747184753
14 138 0.9454803466796875
14 139 0.9578445553779602
14 140 0.7041051983833313
14 141 0.9585210680961609
14 142 0.6921206712722778
14 143 0.9498485922813416
14 144 0.9339066743850708
14 145 0.27862563729286194
14 146 0.7364702820777893
14 147 0.9329524040222168
14 148 0.8269218802452087
14 149 0.9499505758285522
14 150 0.7840924263000488
14 151 0.9431154727935791
14 152 0.8624657392501831
14 153 0.940927267074585
14 154 0.9361732006072998
14 155 0.30815422534942627
14 156 0.809169352054596
14 157 0.9035688638687134
14 158 0.9486566185951233
14 159 0.4398656189441681
14 160 0.08846089988946915
14 161 0.9444215297698975
14 162 0.4483753740787506
14 163 0.23280391097068787
14 164 0.058314982801675797
14 165 0.7916812896728516
14 166 0.9496432542800903
14 167 0.9604268074035645
14 168 0.218681201338768
14 169 0.0977972075343132
14 170 0.09828989207744598
14 171 0.9467240571975708
14 172 0.9298639893531799
14 173 0.7720866799354553
14 174 0.9479053020477295
14 175 0.9543408155441284
14 176 0.667388916015625
14 177 0.9238167405128479
14 178 0.9217932820320129
14 179 0.2194245606660843
14 180 0.9479694962501526
14 181 0.9488962888717651
14 182 0.9451087117195129
14 183 0.38776224851608276
14 185 0.9520013332366943
14 186 0.9429975152015686
14 187 0.9395567178726196
14 188 0.8200123310089111
14 189 0.9397398829460144
14 190 0.9091285467147827
14 191 0.5066652894020081
14 192 0.9433205127716064
14 193 0.9515027403831482
14 194 0.8130212426185608
14 195 0.6375111937522888
14 196 0.9557554721832275
14 197 0.7148568630218506
14 198 0.9518880844116211
14 199 0.7018715143203735
14 200 0.9236508011817932
14 201 0.7895843386650085
14 202 0.2698148787021637
14 203 0.48696205019950867
14 204 0.9588295221328735
14 205 0.9498311877250671
14 206 0.0696997418999672
14 207 0.9451285600662231
14 208 0.32785457372665405
14 209 0.951682448387146
14 210 0.9606048464775085
14 212 0.9401199221611023
14 213 0.9287875890731812
14 214 0.9495793581008911
14 215 0.6861906051635742
14 216 0.9278296232223511
14 217 0.9583972692489624
14 218 0.8513945937156677
14 219 0.5175102353096008
14 220 0.18734844028949738
14 221 0.5295754075050354
14 222 0.8908843994140625
14 223 0.9440526962280273
14 224 0.4956967532634735
14 225 0.9096568822860718
14 226 0.9513140916824341
14 227 0.5122936367988586
14 228 0.9493326544761658
14 229 0.13440939784049988
14 230 0.9482161998748779
14 231 0.24208520352840424
14 232 0.18630386888980865
14 233 0.7386263608932495
14 234 0.30588188767433167
14 235 0.9493929743766785
14 236 0.14578746259212494
14 238 0.8991987705230713
14 239 0.9410516023635864
14 240 0.9496432542800903
14 241 0.9556307196617126
14 242 0.9280878901481628
14 243 0.92523193359375
14 244 0.16613687574863434
14 245 0.18440817296504974
14 246 0.9400131106376648
14 247 0.916543185710907
14 248 0.9163269996643066
14 249 0.9440526962280273
14 250 0.34034428000450134
14 251 0.8944800496101379
14 252 0.9300914406776428
14 253 0.7103278040885925
14 254 0.9395567178726196
14 255 0.9259395599365234
15 16 0.8797304034233093
15 17 0.7760909795761108
15 18 0.8605719208717346
15 20 0.8995268940925598
15 21 0.742933452129364
15 22 0.8644964098930359
15 23 0.7744357585906982
15 24 0.8294485211372375
15 25 0.7293373942375183
15 26 0.867191731929779
15 27 0.2183856964111328
15 28 0.8800196051597595
15 29 0.8531856536865234
15 30 0.8730579018592834
15 31 0.26883527636528015
15 32 0.8645527958869934
15 33 0.8487078547477722
15 34 0.8586292862892151
15 35 0.876414954662323
15 36 0.8504157662391663
15 37 0.8880599737167358
15 38 0.7870153784751892
15 39 0.8730620741844177
15 40 0.8494259715080261
15 41 0.8146101832389832
15 42 0.8498719930648804
15 43 0.5747755169868469
15 44 0.8847982883453369
15 45 0.8605818152427673
15 46 0.8421412706375122
15 47 0.8673974871635437
15 48 0.8611375689506531
15 49 0.8455555438995361
15 50 0.504499614238739
15 51 0.8784511089324951
15 52 0.3889541029930115
15 53 0.08798826485872269
15 54 0.7919599413871765
15 55 0.8778712153434753
15 56 0.8871697783470154
15 57 0.8869318962097168
15 58 0.8621141314506531
15 59 0.6946385502815247
15 60 0.13440430164337158
15 61 0.7988592982292175
15 62 0.860423743724823
15 63 0.7050983309745789
15 64 0.8827723264694214
15 65 0.3977924883365631
15 66 0.8815878629684448
15 67 0.8511324524879456
15 68 0.8875924348831177
15 69 0.829255998134613
15 70 0.7625260949134827
15 71 0.8427744507789612
15 72 0.17242108285427094
15 73 0.8672147989273071
15 74 0.5676777362823486
15 76 0.8969592452049255
15 77 0.8643897771835327
15 78 0.6722794771194458
15 79 0.8541823625564575
15 80 0.8537307977676392
15 81 0.15839698910713196
15 82 0.8686294555664062
15 83 0.8468242883682251
15 84 0.8873410224914551
15 85 0.827514111995697
15 86 0.8566727638244629
15 87 0.43014469742774963
15 88 0.8532795906066895
15 89 0.849971354007721
15 90 0.8714877963066101
15 91 0.8241539001464844
15 93 0.8511002659797668
15 94 0.8633891940116882
15 95 0.806283712387085
15 96 0.8845250606536865
15 97 0.36484938859939575
15 98 0.8871285319328308
15 99 0.8537243604660034
15 100 0.8719135522842407
15 101 0.8719919919967651
15 102 0.8605426549911499
15 104 0.8653907179832458
15 105 0.7988348007202148
15 106 0.8614732027053833
15 107 0.24691644310951233
15 109 0.8859782218933105
15 110 0.8717144131660461
15 111 0.0678844302892685
15 112 0.859965980052948
15 113 0.8039222359657288
15 114 0.37948545813560486
15 115 0.7546070218086243
15 116 0.7600477933883667
15 117 0.14382025599479675
15 118 0.17018625140190125
15 119 0.34575220942497253
15 120 0.5003468990325928
15 121 0.8578351736068726
15 122 0.17305798828601837
15 123 0.2324080616235733
15 124 0.054307542741298676
15 125 0.12916989624500275
15 126 0.8784905672073364
15 127 0.8606105446815491
15 128 0.8653907179832458
15 129 0.8494043946266174
15 130 0.18328794836997986
15 131 0.8615484237670898
15 132 0.8624204397201538
15 133 0.1508399397134781
15 134 0.3873467743396759
15 135 0.8365864157676697
15 136 0.17960529029369354
15 137 0.5710206031799316
15 138 0.8691630363464355
15 139 0.8643897771835327
15 140 0.6020132899284363
15 141 0.8656236529350281
15 142 0.6209474802017212
15 143 0.890234112739563
15 144 0.8422915935516357
15 145 0.11052678525447845
15 146 0.7314258217811584
15 147 0.8683198690414429
15 148 0.8366727828979492
15 149 0.8504157662391663
15 150 0.6914859414100647
15 151 0.8435633182525635
15 152 0.8085108399391174
15 153 0.8831667304039001
15 154 0.8624048829078674
15 155 0.328833669424057
15 156 0.8321855664253235
15 157 0.8247887492179871
15 158 0.8819962739944458
15 159 0.21514298021793365
15 161 0.8668296933174133
15 162 0.35724836587905884
15 163 0.16095855832099915
15 164 0.06425754725933075
15 165 0.6984336376190186
15 166 0.8554220199584961
15 167 0.872894823551178
15 168 0.13922467827796936
15 169 0.09578949213027954
15 170 0.08664485812187195
15 171 0.865262508392334
15 172 0.8463749289512634
15 173 0.6884486079216003
15 174 0.8622937202453613
15 175 0.8581828474998474
15 176 0.661695122718811
15 177 0.851514458656311
15 178 0.815678596496582
15 179 0.24178490042686462
15 180 0.8741477727890015
15 181 0.8504157662391663
15 182 0.8482624292373657
15 183 0.4300159513950348
15 185 0.8675885200500488
15 186 0.8606274127960205
15 187 0.8483397960662842
15 188 0.7543362379074097
15 189 0.8415670394897461
15 190 0.8522363305091858
15 191 0.4363698959350586
15 192 0.8747602701187134
15 193 0.8566727638244629
15 194 0.887563943862915
15 195 0.493264377117157
15 196 0.8712956309318542
15 197 0.6446192264556885
15 198 0.8694130778312683
15 199 0.6212010979652405
15 200 0.8600080013275146
15 201 0.635010302066803
15 202 0.32208606600761414
15 203 0.4358389973640442
15 204 0.8768002390861511
15 205 0.8661709427833557
15 206 0.11520367860794067
15 207 0.8688462376594543
15 208 0.12386209517717361
15 209 0.8551530241966248
15 210 0.8702158331871033
15 212 0.8478913307189941
15 213 0.8721241354942322
15 214 0.8783278465270996
15 215 0.6978325247764587
15 216 0.8916102051734924
15 217 0.8812022805213928
15 218 0.7700693607330322
15 219 0.4781991243362427
15 220 0.19429656863212585
15 221 0.4593418538570404
15 222 0.7788245677947998
15 223 0.87386155128479
15 224 0.3391790986061096
15 225 0.8120039701461792
15 226 0.8587156534194946
15 227 0.41616323590278625
15 228 0.8645527958869934
15 229 0.052272818982601166
15 230 0.8514835238456726
15 232 0.12317343801259995
15 233 0.6345372200012207
15 234 0.26589709520339966
15 235 0.8636470437049866
15 236 0.06425754725933075
15 238 0.8023908138275146
15 239 0.8777785897254944
15 240 0.863524854183197
15 241 0.8604034185409546
15 242 0.8297311067581177
15 243 0.8533560633659363
15 244 0.07086463272571564
15 245 0.13970014452934265
15 246 0.865729570388794
15 247 0.8553966283798218
15 248 0.8468884825706482
15 249 0.8715343475341797
15 250 0.32341769337654114
15 251 0.8085354566574097
15 252 0.8254899382591248
15 253 0.6056711077690125
15 254 0.8518453240394592
15 255 0.8261801600456238
16 17 0.7888847589492798
16 18 0.9162113666534424
16 20 0.9533881545066833
16 21 0.7903287410736084
16 22 0.9660161137580872
16 23 0.8202822208404541
16 24 0.9407459497451782
16 25 0.7207013964653015
16 26 0.9651597738265991
16 27 0.3096679449081421
16 28 0.9340692162513733
16 29 0.9645548462867737
16 30 0.929863691329956
16 31 0.30231213569641113
16 32 0.9582594037055969
16 33 0.9556293487548828
16 34 0.9604994654655457
16 35 0.914139449596405
16 36 0.9588391184806824
16 37 0.9620397090911865
16 38 0.8983768224716187
16 39 0.9637173414230347
16 40 0.960347056388855
16 41 0.8216623663902283
16 42 0.9577181935310364
16 43 0.5215998888015747
16 44 0.9723398089408875
16 45 0.9637326002120972
16 46 0.9347458481788635
16 47 0.9680268168449402
16 48 0.9511992335319519
16 49 0.958655059337616
16 50 0.5907766819000244
16 51 0.9685623049736023
16 52 0.5197950601577759
16 53 0.0789337083697319
16 54 0.8424736857414246
16 55 0.9651948809623718
16 56 0.9684858918190002
16 57 0.9526853561401367
16 58 0.8681930303573608
16 59 0.8175899386405945
16 60 0.12057321518659592
16 61 0.8991321921348572
16 62 0.9548604488372803
16 63 0.7728093266487122
16 64 0.9699839949607849
16 65 0.4736466705799103
16 66 0.9704204797744751
16 67 0.9583380222320557
16 68 0.961965799331665
16 69 0.9131426811218262
16 70 0.8602537512779236
16 71 0.9560545086860657
16 72 0.16112273931503296
16 73 0.9696322083473206
16 74 0.6423099637031555
16 75 0.12154170125722885
16 76 0.9293672442436218
16 77 0.9674910306930542
16 78 0.7390637397766113
16 79 0.9518243074417114
16 80 0.9544642567634583
16 81 0.1867559403181076
16 82 0.9527572393417358
16 83 0.9571766257286072
16 84 0.949684739112854
16 85 0.927131712436676
16 86 0.9645548462867737
16 87 0.4876505136489868
16 88 0.9620397090911865
16 89 0.9583380222320557
16 90 0.9669162631034851
16 91 0.9163077473640442
16 92 0.1698121577501297
16 93 0.9047449827194214
16 94 0.9593032002449036
16 95 0.8129478096961975
16 96 0.9453577399253845
16 97 0.45686182379722595
16 98 0.9614630341529846
16 99 0.9604598879814148
16 100 0.9474237561225891
16 101 0.9692065715789795
16 102 0.9581846594810486
16 104 0.9641931653022766
16 105 0.8904929757118225
16 106 0.9626561403274536
16 107 0.27776291966438293
16 109 0.9735066294670105
16 110 0.9435815811157227
16 111 0.08525814861059189
16 112 0.9575055837631226
16 113 0.7985533475875854
16 114 0.3540513217449188
16 115 0.6814362406730652
16 116 0.8283737301826477
16 117 0.17950637638568878
16 118 0.40862470865249634
16 119 0.3456203043460846
16 120 0.5574526190757751
16 121 0.9635120034217834
16 122 0.27723070979118347
16 123 0.22239120304584503
16 124 0.08525814861059189
16 125 0.34197986125946045
16 126 0.9461300373077393
16 127 0.9734066724777222
16 128 0.9621174335479736
16 129 0.9079797863960266
16 130 0.11570748686790466
16 131 0.9531952142715454
16 132 0.9597712159156799
16 133 0.17650113999843597
16 134 0.5698774456977844
16 135 0.9447174072265625
16 136 0.14178802073001862
16 137 0.5141846537590027
16 138 0.9555500745773315
16 139 0.9685235619544983
16 140 0.6887959241867065
16 141 0.9711966514587402
16 142 0.6855974793434143
16 143 0.9547608494758606
16 144 0.9463622570037842
16 145 0.25706297159194946
16 146 0.7551232576370239
16 147 0.9455817937850952
16 148 0.8467410206794739
16 149 0.9577968716621399
16 150 0.7659809589385986
16 151 0.9564545154571533
16 152 0.8814769387245178
16 153 0.9532648921012878
16 154 0.9508880972862244
16 155 0.31423333287239075
16 156 0.8277474641799927
16 157 0.9108313322067261
16 158 0.9545035362243652
16 159 0.43481218814849854
16 160 0.05829639732837677
16 161 0.9618297219276428
16 162 0.45231595635414124
16 163 0.23012931644916534
16 164 0.07205627858638763
16 165 0.7997856736183167
16 166 0.9615784287452698
16 167 0.967988133430481
16 168 0.2161688357591629
16 169 0.0966736450791359
16 170 0.07772853225469589
16 171 0.959843635559082
16 172 0.9414193034172058
16 173 0.7820457816123962
16 174 0.9588788151741028
16 175 0.9631170034408569
16 176 0.6891077756881714
16 177 0.9283512830734253
16 178 0.9325677752494812
16 179 0.2250887006521225
16 180 0.9661998152732849
16 181 0.9577968716621399
16 182 0.9593032002449036
16 183 0.41770678758621216
16 185 0.9629735946655273
16 186 0.9500697255134583
16 187 0.9528725743293762
16 188 0.8398021459579468
16 189 0.9510864019393921
16 190 0.92594975233078
16 191 0.5200338959693909
16 192 0.9442594647407532
16 193 0.9603837728500366
16 194 0.8185867667198181
16 195 0.6546010971069336
16 196 0.9685235619544983
16 197 0.7489898204803467
16 198 0.9660441875457764
16 199 0.7174922227859497
16 200 0.9364505410194397
16 201 0.8064069151878357
16 202 0.32069310545921326
16 203 0.5265571475028992
16 204 0.9664187431335449
16 205 0.9608513116836548
16 206 0.11196084320545197
16 207 0.9563894867897034
16 208 0.3148283064365387
16 209 0.9636179804801941
16 210 0.9784060120582581
16 212 0.9555119276046753
16 213 0.9384247064590454
16 214 0.9646574854850769
16 215 0.7277671098709106
16 216 0.9534304141998291
16 217 0.9690588712692261
16 218 0.8533022403717041
16 219 0.5155927538871765
16 220 0.11438580602407455
16 221 0.5482510328292847
16 222 0.8862656950950623
16 223 0.963478684425354
16 224 0.4939534664154053
16 225 0.9208217859268188
16 226 0.9631944894790649
16 227 0.5304347276687622
16 228 0.9572155475616455
16 229 0.10160280764102936
16 230 0.956131637096405
16 231 0.19391874969005585
16 232 0.2169036567211151
16 233 0.7341968417167664
16 234 0.30908700823783875
16 235 0.966640293598175
16 236 0.10808441787958145
16 238 0.9117714762687683
16 239 0.950188934803009
16 240 0.9615784287452698
16 241 0.9674144983291626
16 242 0.9471567869186401
16 243 0.9358968734741211
16 244 0.1642281860113144
16 245 0.15380683541297913
16 246 0.9504043459892273
16 247 0.9404053092002869
16 248 0.9265099167823792
16 249 0.9572155475616455
16 250 0.3333475887775421
16 251 0.9083084464073181
16 252 0.9270403385162354
16 253 0.7216717004776001
16 254 0.953920841217041
16 255 0.9386621713638306
17 18 0.7368172407150269
17 20 0.761644184589386
17 21 0.8908506631851196
17 22 0.7678629755973816
17 23 0.6887989640235901
17 24 0.7614411115646362
17 25 0.6882672309875488
17 26 0.772071361541748
17 27 0.36419376730918884
17 28 0.7659805417060852
17 29 0.7624591588973999
17 30 0.7808235287666321
17 31 0.35781940817832947
17 32 0.7865445613861084
17 33 0.7830746173858643
17 34 0.7626516819000244
17 35 0.707892119884491
17 36 0.7736848592758179
17 37 0.7746491432189941
17 38 0.7179005742073059
17 39 0.7979727983474731
17 40 0.767139732837677
17 41 0.722062349319458
17 42 0.7520104646682739
17 43 0.4786491394042969
17 44 0.7714255452156067
17 45 0.7628505229949951
17 46 0.7233628034591675
17 47 0.7763412594795227
17 48 0.7502824664115906
17 49 0.7686743140220642
17 50 0.6722120046615601
17 51 0.7772216796875
17 52 0.43465864658355713
17 54 0.7049802541732788
17 55 0.7725558876991272
17 56 0.801876425743103
17 57 0.7405313849449158
17 58 0.6533119082450867
17 59 0.5851982235908508
17 60 0.1387540102005005
17 61 0.6757084131240845
17 62 0.7611079812049866
17 63 0.810150682926178
17 64 0.7877214550971985
17 65 0.49854305386543274
17 66 0.7717540860176086
17 67 0.7836081981658936
17 68 0.7917676568031311
17 69 0.6781821250915527
17 70 0.6308231353759766
17 71 0.7449088096618652
17 72 0.1517573893070221
17 73 0.7725955247879028
17 74 0.7581143379211426
17 75 0.15780039131641388
17 76 0.7432091236114502
17 77 0.7754599452018738
17 78 0.7274035215377808
17 79 0.7846704125404358
17 80 0.782957136631012
17 81 0.24654264748096466
17 82 0.7715340256690979
17 83 0.7485206723213196
17 84 0.7630352973937988
17 85 0.7139168977737427
17 86 0.7857206463813782
17 87 0.4703414738178253
17 88 0.7682045102119446
17 89 0.7732805013656616
17 90 0.7869098782539368
17 91 0.7561615109443665
17 92 0.19937334954738617
17 93 0.8395761251449585
17 94 0.7787826657295227
17 95 0.8578347563743591
17 96 0.7819433808326721
17 97 0.3183073401451111
17 98 0.7900629043579102
17 99 0.7621569037437439
17 100 0.7619343996047974
17 101 0.794723629951477
17 102 0.768754780292511
17 104 0.7640365958213806
17 105 0.8080140948295593
17 106 0.7713541388511658
17 107 0.18301044404506683
17 109 0.7957325577735901
17 110 0.7382098436355591
17 111 0.07547223567962646
17 112 0.7607030868530273
17 113 0.8118253946304321
17 114 0.31052035093307495
17 115 0.6667181253433228
17 116 0.7999757528305054
17 117 0.10427988320589066
17 118 0.30885568261146545
17 119 0.373416006565094
17 120 0.22878986597061157
17 121 0.7779667973518372
17 122 0.16949665546417236
17 123 0.15933775901794434
17 124 0.10566112399101257
17 125 0.2136605829000473
17 126 0.8084263801574707
17 127 0.7641515731811523
17 128 0.7614640593528748
17 129 0.8182513117790222
17 130 0.18113334476947784
17 131 0.767062783241272
17 132 0.7981511354446411
17 133 0.08020441979169846
17 134 0.08182209730148315
17 135 0.7626526951789856
17 136 0.1677318513393402
17 137 0.44391536712646484
17 138 0.7548923492431641
17 139 0.7741802930831909
17 140 0.3239143192768097
17 141 0.7811353802680969
17 142 0.3416367769241333
17 143 0.7727035284042358
17 144 0.7718766331672668
17 145 0.1956993043422699
17 146 0.633407711982727
17 147 0.7523099184036255
17 148 0.7819429039955139
17 149 0.768518328666687
17 150 0.45127373933792114
17 151 0.7802416682243347
17 152 0.6178920865058899
17 153 0.7888967394828796
17 154 0.7470490336418152
17 155 0.3735367953777313
17 156 0.7239416241645813
17 157 0.6655279397964478
17 158 0.8041808605194092
17 159 0.41239774227142334
17 161 0.7782395482063293
17 162 0.445066899061203
17 163 0.25164806842803955
17 164 0.0714399665594101
17 165 0.5481185913085938
17 166 0.7657200694084167
17 167 0.7861006855964661
17 168 0.24408653378486633
17 169 0.11980845034122467
17 170 0.08428841829299927
17 171 0.7602726221084595
17 172 0.7729938626289368
17 173 0.5304908752441406
17 174 0.7599740624427795
17 175 0.7738434672355652
17 176 0.8521960973739624
17 177 0.7053264379501343
17 178 0.7241572141647339
17 179 0.2383791208267212
17 180 0.795272171497345
17 181 0.7620602250099182
17 182 0.767139732837677
17 183 0.2771044075489044
17 184 0.05647824704647064
17 185 0.7835462689399719
17 186 0.7453571557998657
17 187 0.7573887705802917
17 188 0.6078721880912781
17 189 0.7631425857543945
17 190 0.7190693020820618
17 191 0.5636247396469116
17 192 0.7748452425003052
17 193 0.7766744494438171
17 194 0.7743310332298279
17 195 0.5900018811225891
17 196 0.7920952439308167
17 197 0.682232141494751
17 198 0.7657586336135864
17 199 0.7562466263771057
17 200 0.7583146095275879
17 201 0.5012215375900269
17 202 0.2085563987493515
17 203 0.24592995643615723
17 204 0.7980335354804993
17 205 0.7778972387313843
17 206 0.12808062136173248
17 207 0.7623267769813538
17 208 0.2371617555618286
17 209 0.7626516819000244
17 210 0.7798590064048767
17 212 0.7881509065628052
17 213 0.7338275909423828
17 214 0.7729578018188477
17 215 0.765325129032135
17 216 0.8009463548660278
17 217 0.7788991332054138
17 218 0.7503936886787415
17 219 0.3594253957271576
17 220 0.12150796502828598
17 221 0.6378083229064941
17 222 0.7197089195251465
17 223 0.7684333324432373
17 224 0.08325385302305222
17 225 0.7098902463912964
17 226 0.7902286648750305
17 227 0.3893842101097107
17 228 0.7826635837554932
17 230 0.7601758241653442
17 231 0.14828571677207947
17 233 0.36027199029922485
17 234 0.24565428495407104
17 235 0.7727975845336914
17 238 0.6893333792686462
17 239 0.7924247980117798
17 240 0.7850239276885986
17 241 0.7719281911849976
17 242 0.7764051556587219
17 243 0.7692845463752747
17 245 0.13413584232330322
17 246 0.7747246623039246
17 247 0.7405616044998169
17 248 0.7943059802055359
17 249 0.7917191982269287
17 250 0.25628769397735596
17 251 0.7481862902641296
17 252 0.7123110890388489
17 253 0.4575464725494385
17 254 0.7781747579574585
17 255 0.7395588159561157
18 20 0.8882320523262024
18 21 0.7173725962638855
18 22 0.893246591091156
18 23 0.8032954931259155
18 24 0.8663543462753296
18 25 0.7336068153381348
18 26 0.8976447582244873
18 27 0.20251786708831787
18 28 0.8993464112281799
18 29 0.8955361843109131
18 30 0.8505335450172424
18 31 0.2684968411922455
18 32 0.9009354710578918
18 33 0.8880213499069214
18 34 0.9049502611160278
18 35 0.8739845156669617
18 36 0.8906145691871643
18 37 0.9009776711463928
18 38 0.8456080555915833
18 39 0.8986263275146484
18 40 0.8897852897644043
18 41 0.8125172257423401
18 42 0.8935993313789368
18 43 0.5231343507766724
18 44 0.9103333950042725
18 45 0.8999244570732117
18 46 0.9107058644294739
18 47 0.9105556607246399
18 48 0.906021237373352
18 49 0.8885946869850159
18 50 0.47605687379837036
18 51 0.9178017377853394
18 52 0.46109190583229065
18 53 0.08431491255760193
18 54 0.7832534909248352
18 55 0.9189070463180542
18 56 0.9108557105064392
18 57 0.8960578441619873
18 58 0.869342565536499
18 59 0.7340084314346313
18 60 0.1287931501865387
18 61 0.8434768319129944
18 62 0.8941472768783569
18 63 0.6996915340423584
18 64 0.9200050234794617
18 65 0.41121813654899597
18 66 0.9157360196113586
18 67 0.891261875629425
18 68 0.9006339907646179
18 69 0.8486289978027344
18 70 0.873386025428772
18 71 0.9004294276237488
18 72 0.16522280871868134
18 73 0.922366201877594
18 74 0.638725221157074
18 75 0.09273403882980347
18 76 0.924381673336029
18 77 0.9088171720504761
18 78 0.6945421695709229
18 79 0.8901844024658203
18 80 0.8863564133644104
18 81 0.17346765100955963
18 82 0.8817908763885498
18 83 0.8896042108535767
18 84 0.9118456840515137
18 85 0.876559317111969
18 86 0.8966500759124756
18 87 0.4121868908405304
18 88 0.8976447582244873
18 89 0.891261875629425
18 90 0.9069060683250427
18 91 0.8558490872383118
18 92 0.19093568623065948
18 93 0.8379611372947693
18 94 0.9120856523513794
18 95 0.7806016802787781
18 96 0.8864363431930542
18 97 0.4467335641384125
18 98 0.8990506529808044
18 99 0.8958896994590759
18 100 0.8744803071022034
18 101 0.9192582368850708
18 102 0.9017148613929749
18 104 0.9279310703277588
18 105 0.8250093460083008
18 106 0.8997485637664795
18 107 0.2891877293586731
18 109 0.9022601246833801
18 110 0.8755922317504883
18 111 0.07806044071912766
18 112 0.9048985242843628
18 113 0.7810223698616028
18 114 0.3810974955558777
18 115 0.7007559537887573
18 116 0.8149908185005188
18 117 0.17376799881458282
18 118 0.33815377950668335
18 119 0.35656091570854187
18 120 0.5683900713920593
18 121 0.9033331871032715
18 122 0.2566465139389038
18 123 0.2858053147792816
18 124 0.0910705104470253
18 125 0.1932133138179779
18 126 0.8905338644981384
18 127 0.9071497321128845
18 128 0.9135187864303589
18 129 0.8552902340888977
18 130 0.16262590885162354
18 131 0.8818954825401306
18 132 0.8934226632118225
18 133 0.1382581889629364
18 134 0.5066548585891724
18 135 0.8862236738204956
18 136 0.16522280871868134
18 137 0.5430673360824585
18 138 0.8954825401306152
18 139 0.9055083394050598
18 140 0.6755977869033813
18 141 0.9053932428359985
18 142 0.6957204341888428
18 143 0.8880025148391724
18 144 0.8926807045936584
18 145 0.07060832530260086
18 146 0.7023382186889648
18 147 0.8819478750228882
18 148 0.8380721211433411
18 149 0.8928411602973938
18 150 0.7306852340698242
18 151 0.8835671544075012
18 152 0.8229475021362305
18 153 0.9182256460189819
18 154 0.8932839632034302
18 155 0.2740047574043274
18 156 0.8634653687477112
18 157 0.8563163876533508
18 158 0.893246591091156
18 159 0.2630331814289093
18 160 0.0518922433257103
18 161 0.8999543786048889
18 162 0.4151708483695984
18 163 0.11085914820432663
18 165 0.759824275970459
18 166 0.9017915725708008
18 167 0.9037665724754333
18 168 0.1590685099363327
18 171 0.9071497321128845
18 172 0.8879590034484863
18 173 0.7642948627471924
18 174 0.9063660502433777
18 175 0.9111384749412537
18 176 0.6576128005981445
18 177 0.8749089241027832
18 178 0.8626405596733093
18 179 0.15737488865852356
18 180 0.8998667001724243
18 181 0.8917279243469238
18 182 0.8975904583930969
18 183 0.44880807399749756
18 185 0.8982343077659607
18 186 0.8832029104232788
18 187 0.8868252635002136
18 188 0.7527458667755127
18 189 0.8830217719078064
18 190 0.9121860265731812
18 191 0.37305736541748047
18 192 0.8805527687072754
18 193 0.8921946883201599
18 194 0.7908015251159668
18 195 0.5932841300964355
18 196 0.9099200963973999
18 197 0.7590592503547668
18 198 0.894539475440979
18 199 0.6577700972557068
18 200 0.9127664566040039
18 201 0.7151848077774048
18 202 0.3425559401512146
18 203 0.49739450216293335
18 204 0.9042313098907471
18 205 0.8902525305747986
18 206 0.1287931501865387
18 207 0.8820778131484985
18 208 0.1351759433746338
18 209 0.9038398265838623
18 210 0.9086936116218567
18 212 0.8863564133644104
18 213 0.9304744601249695
18 214 0.9171642661094666
18 215 0.6475664973258972
18 216 0.8862841725349426
18 217 0.9193746447563171
18 218 0.7966042757034302
18 219 0.4603864848613739
18 220 0.15127532184123993
18 221 0.5327320694923401
18 222 0.8027032017707825
18 223 0.9042805433273315
18 224 0.460091769695282
18 225 0.8750786185264587
18 226 0.8970677852630615
18 227 0.5685707330703735
18 228 0.8897852897644043
18 229 0.1085294634103775
18 230 0.9029985070228577
18 231 0.18951007723808289
18 232 0.23169080913066864
18 233 0.686038076877594
18 234 0.23685294389724731
18 235 0.9089024066925049
18 236 0.1231498122215271
18 238 0.8690814971923828
18 239 0.9095450043678284
18 240 0.902900755405426
18 241 0.90074223279953
18 242 0.8733527064323425
18 243 0.8802824020385742
18 244 0.14147116243839264
18 245 0.14603769779205322
18 246 0.9133378267288208
18 247 0.8977505564689636
18 248 0.8767343759536743
18 249 0.8998204469680786
18 250 0.2769458293914795
18 251 0.8660688400268555
18 252 0.8481116890907288
18 253 0.6458647847175598
18 254 0.8857055306434631
18 255 0.8801580667495728
20 21 0.7661554217338562
20 22 0.9382790923118591
20 23 0.789096474647522
20 24 0.9102980494499207
20 25 0.7068912982940674
20 26 0.9431012868881226
20 27 0.22766666114330292
20 28 0.9129018783569336
20 29 0.9337608218193054
20 30 0.931368887424469
20 31 0.30766600370407104
20 32 0.9282935857772827
20 33 0.9255561232566833
20 34 0.930841326713562
20 35 0.9261456727981567
20 36 0.928981363773346
20 37 0.9431012868881226
20 38 0.8686007857322693
20 39 0.9354342222213745
20 40 0.9325912594795227
20 41 0.8200883269309998
20 42 0.9255561232566833
20 43 0.5348203182220459
20 44 0.9631803035736084
20 45 0.9375483989715576
20 46 0.9115883111953735
20 47 0.941129744052887
20 48 0.9260360598564148
20 49 0.9263297915458679
20 50 0.560065746307373
20 51 0.9417091012001038
20 52 0.46836674213409424
20 53 0.08124444633722305
20 54 0.821432888507843
20 55 0.9399816989898682
20 56 0.9436447620391846
20 57 0.938271164894104
20 58 0.8781403303146362
20 59 0.7781304717063904
20 60 0.12410294264554977
20 61 0.8765060901641846
20 62 0.9341057538986206
20 63 0.7395892143249512
20 64 0.9408423900604248
20 65 0.45634725689888
20 66 0.9560983777046204
20 67 0.9284959435462952
20 68 0.9418540596961975
20 69 0.9048129916191101
20 70 0.8285417556762695
20 71 0.9258406162261963
20 72 0.15920595824718475
20 73 0.9418063163757324
20 74 0.5918537378311157
20 75 0.08339984714984894
20 76 0.9242044687271118
20 77 0.9384243488311768
20 78 0.7122030854225159
20 79 0.9214250445365906
20 80 0.9306433796882629
20 81 0.16297177970409393
20 82 0.9373529553413391
20 83 0.9260426163673401
20 84 0.9357509016990662
20 85 0.8983367085456848
20 86 0.9359073638916016
20 87 0.4757387936115265
20 88 0.9313259720802307
20 89 0.9295681118965149
20 90 0.9420017600059509
20 91 0.8894942998886108
20 92 0.05979429557919502
20 93 0.8869406580924988
20 94 0.9325912594795227
20 95 0.8034302592277527
20 96 0.9433133006095886
20 97 0.4538598358631134
20 98 0.9435062408447266
20 99 0.9307402968406677
20 100 0.9398192763328552
20 101 0.937380850315094
20 102 0.9313246011734009
20 104 0.9358013272285461
20 105 0.8580577373504639
20 106 0.9363840818405151
20 107 0.25332406163215637
20 109 0.9538835883140564
20 110 0.9390527009963989
20 111 0.087754026055336
20 112 0.92928147315979
20 113 0.7808339595794678
20 114 0.3672191798686981
20 115 0.6983087062835693
20 116 0.7990233302116394
20 117 0.19053511321544647
20 118 0.32121753692626953
20 119 0.3344546854496002
20 120 0.5570056438446045
20 121 0.9337608218193054
20 122 0.2549095153808594
20 123 0.19313570857048035
20 124 0.087754026055336
20 125 0.25017550587654114
20 126 0.9203325510025024
20 127 0.9406931400299072
20 128 0.9347330331802368
20 129 0.8844742774963379
20 130 0.12536290287971497
20 131 0.9257498383522034
20 132 0.9297581315040588
20 133 0.1695569008588791
20 134 0.5436412692070007
20 135 0.9158781170845032
20 136 0.13267163932323456
20 137 0.5272549986839294
20 138 0.9318156838417053
20 139 0.9416126608848572
20 140 0.6822068095207214
20 141 0.9413252472877502
20 142 0.6850860118865967
20 143 0.9414479732513428
20 144 0.9154922962188721
20 145 0.22301018238067627
20 146 0.7646706700325012
20 147 0.9317547678947449
20 148 0.8304873108863831
20 149 0.928981363773346
20 150 0.7589565515518188
20 151 0.9238724112510681
20 152 0.8739432692527771
20 153 0.9281057715415955
20 154 0.9328470826148987
20 155 0.31683167815208435
20 156 0.8195466995239258
20 157 0.9011760354042053
20 158 0.9296611547470093
20 159 0.3539227843284607
20 161 0.9436653256416321
20 162 0.4257860481739044
20 163 0.21828848123550415
20 164 0.059332557022571564
20 165 0.7688248753547668
20 166 0.9330806136131287
20 167 0.9442231059074402
20 168 0.19283080101013184
20 169 0.06633581221103668
20 170 0.10000500082969666
20 171 0.9342500567436218
20 172 0.9101207852363586
20 173 0.7480901479721069
20 174 0.9312259554862976
20 175 0.935704231262207
20 176 0.6593742966651917
20 177 0.9243455529212952
20 178 0.9004949927330017
20 179 0.2316780537366867
20 180 0.936678409576416
20 181 0.9300540685653687
20 182 0.9304424524307251
20 183 0.42993494868278503
20 185 0.9374715685844421
20 186 0.9312650561332703
20 187 0.9235829710960388
20 188 0.8230465650558472
20 189 0.9203234314918518
20 190 0.9261149764060974
20 191 0.5016804933547974
20 192 0.932232677936554
20 193 0.930540919303894
20 194 0.8387148976325989
20 195 0.5826725363731384
20 196 0.9384243488311768
20 197 0.6960038542747498
20 198 0.9426714777946472
20 199 0.6825714707374573
20 200 0.9101949334144592
20 201 0.760211706161499
20 202 0.323544979095459
20 203 0.5278158187866211
20 204 0.9415170550346375
20 205 0.9427557587623596
20 206 0.10637395083904266
20 207 0.9334332942962646
20 208 0.2605065703392029
20 209 0.9319112300872803
20 210 0.9487455487251282
20 212 0.9241730570793152
20 213 0.9251924753189087
20 214 0.9458203315734863
20 215 0.7127093076705933
20 216 0.9451175332069397
20 217 0.9506897330284119
20 218 0.8241416215896606
20 219 0.5203215479850769
20 220 0.16819198429584503
20 221 0.4933082163333893
20 222 0.8509342074394226
20 223 0.9379633069038391
20 224 0.4819762110710144
20 225 0.8943823575973511
20 226 0.9348320960998535
20 227 0.48699134588241577
20 228 0.9347401261329651
20 229 0.0884883925318718
20 230 0.9271181225776672
20 231 0.08068758994340897
20 232 0.17691779136657715
20 233 0.7320312261581421
20 234 0.3008454144001007
20 235 0.9444936513900757
20 236 0.09641540050506592
20 238 0.8823349475860596
20 239 0.9228911399841309
20 240 0.9320117831230164
20 241 0.9382273554801941
20 242 0.9093091487884521
20 243 0.9095957279205322
20 244 0.13631926476955414
20 245 0.16417275369167328
20 246 0.9291520714759827
20 247 0.9203680157661438
20 248 0.8964150547981262
20 249 0.9325912594795227
20 250 0.3399293124675751
20 251 0.8740004897117615
20 252 0.9081538915634155
20 253 0.6811375021934509
20 254 0.9268198013305664
20 255 0.907123327255249
21 22 0.7772541642189026
21 23 0.6638889312744141
21 24 0.7802734971046448
21 25 0.6359305381774902
21 26 0.7813324332237244
21 27 0.3924053907394409
21 28 0.7678467035293579
21 29 0.7744003534317017
21 30 0.7933693528175354
21 31 0.3090585172176361
21 32 0.7841967344284058
21 33 0.8051548004150391
21 34 0.770700991153717
21 35 0.688755452632904
21 36 0.7919355034828186
21 37 0.7800536751747131
21 38 0.7272810339927673
21 39 0.7955780625343323
21 40 0.7867636680603027
21 41 0.6903501749038696
21 42 0.7563575506210327
21 43 0.41612955927848816
21 44 0.773051381111145
21 45 0.7695803642272949
21 46 0.7229103446006775
21 47 0.7841812372207642
21 48 0.7508315443992615
21 49 0.7961101531982422
21 50 0.7093933820724487
21 51 0.7812429666519165
21 52 0.46882811188697815
21 54 0.7363142371177673
21 55 0.7754101157188416
21 56 0.8069950938224792
21 57 0.7476533651351929
21 58 0.6268423795700073
21 59 0.5835563540458679
21 60 0.1270713061094284
21 61 0.6649443507194519
21 62 0.773212194442749
21 63 0.8119017481803894
21 64 0.7904238104820251
21 65 0.48131826519966125
21 66 0.7733291387557983
21 67 0.7889601588249207
21 68 0.7996242046356201
21 69 0.6917529702186584
21 70 0.6216041445732117
21 71 0.7519139647483826
21 72 0.1426371932029724
21 73 0.7791767120361328
21 74 0.7540205717086792
21 75 0.18502174317836761
21 76 0.7226853370666504
21 77 0.7833141684532166
21 78 0.7448442578315735
21 79 0.7862201929092407
21 80 0.7896691560745239
21 81 0.2495916336774826
21 82 0.7822631001472473
21 83 0.7606094479560852
21 84 0.7596463561058044
21 85 0.724327802658081
21 86 0.7923499941825867
21 87 0.47445571422576904
21 88 0.7698234915733337
21 89 0.7876793146133423
21 90 0.788337767124176
21 91 0.7568771839141846
21 92 0.23626373708248138
21 93 0.8424562811851501
21 94 0.7713620662689209
21 95 0.8372983336448669
21 96 0.7731515765190125
21 97 0.2990309000015259
21 98 0.7889601588249207
21 99 0.7663863897323608
21 100 0.7664840817451477
21 101 0.7923133969306946
21 102 0.771699845790863
21 104 0.7695008516311646
21 105 0.794795036315918
21 106 0.7729283571243286
21 107 0.1123993918299675
21 109 0.8009589910507202
21 110 0.7429877519607544
21 111 0.08985298126935959
21 112 0.7637546062469482
21 113 0.7732107639312744
21 114 0.2578440010547638
21 115 0.610016942024231
21 116 0.766868531703949
21 117 0.09656091034412384
21 118 0.32574570178985596
21 119 0.3486807942390442
21 120 0.26259273290634155
21 121 0.7820930480957031
21 122 0.2045201063156128
21 123 0.13244719803333282
21 124 0.08985298126935959
21 125 0.326652854681015
21 126 0.8216180801391602
21 127 0.7671093940734863
21 128 0.7695008516311646
21 129 0.7941257953643799
21 130 0.17970596253871918
21 131 0.7713897228240967
21 132 0.8098583221435547
21 133 0.10127393156290054
21 134 0.17089961469173431
21 135 0.7748125791549683
21 136 0.11094003915786743
21 137 0.40253180265426636
21 138 0.7592383623123169
21 139 0.7795054912567139
21 140 0.3000560402870178
21 141 0.7914417386054993
21 142 0.30557700991630554
21 143 0.7769915461540222
21 144 0.7800473570823669
21 145 0.24834053218364716
21 146 0.6117474436759949
21 147 0.764649510383606
21 148 0.7642451524734497
21 149 0.7791210412979126
21 150 0.43332669138908386
21 151 0.7870161533355713
21 152 0.6044889688491821
21 153 0.7800926566123962
21 154 0.7411620020866394
21 155 0.3824206292629242
21 156 0.7107861638069153
21 157 0.6779088973999023
21 158 0.8017042279243469
21 159 0.46370092034339905
21 160 0.07167787849903107
21 161 0.7811147570610046
21 162 0.39963939785957336
21 163 0.2552131414413452
21 164 0.08859624713659286
21 165 0.5740103125572205
21 166 0.775007426738739
21 167 0.78371661901474
21 168 0.23625662922859192
21 169 0.11886433511972427
21 170 0.08362419903278351
21 171 0.7645437717437744
21 172 0.7695065140724182
21 173 0.5371144413948059
21 174 0.7642260789871216
21 175 0.7741326093673706
21 176 0.8129620552062988
21 177 0.7050896883010864
21 178 0.7315850257873535
21 179 0.23650062084197998
21 180 0.8043504357337952
21 181 0.782965362071991
21 182 0.7713620662689209
21 183 0.23262523114681244
21 184 0.0560331791639328
21 185 0.787634015083313
21 186 0.755024254322052
21 187 0.7655980587005615
21 188 0.6554587483406067
21 189 0.7700932621955872
21 190 0.7174257636070251
21 191 0.6228875517845154
21 192 0.7753209471702576
21 193 0.7885036468505859
21 194 0.7269920706748962
21 195 0.6134944558143616
21 196 0.7909314632415771
21 197 0.6394336819648743
21 198 0.771293580532074
21 199 0.8033896088600159
21 200 0.7549556493759155
21 201 0.559430718421936
21 202 0.17958477139472961
21 203 0.22708162665367126
21 204 0.8044533729553223
21 205 0.7846085429191589
21 206 0.11648204177618027
21 207 0.773155152797699
21 208 0.3149888217449188
21 209 0.7668666243553162
21 210 0.7876428365707397
21 212 0.8089922070503235
21 213 0.7293589115142822
21 214 0.7758134603500366
21 215 0.802731990814209
21 216 0.8064361810684204
21 217 0.7778367400169373
21 218 0.7617270350456238
21 219 0.3689746856689453
21 220 0.12724769115447998
21 221 0.6653998494148254
21 222 0.7416595816612244
21 223 0.7726455926895142
21 224 0.09960320591926575
21 225 0.7122692465782166
21 226 0.8094974160194397
21 227 0.37268105149269104
21 228 0.7867636680603027
21 230 0.7670335173606873
21 231 0.17755520343780518
21 232 0.08051084727048874
21 233 0.3690703213214874
21 234 0.2685033679008484
21 235 0.7782467603683472
21 236 0.0531577430665493
21 238 0.7107208371162415
21 239 0.7900530695915222
21 240 0.7890520095825195
21 241 0.790016233921051
21 242 0.7898703813552856
21 243 0.7723863124847412
21 245 0.1821078360080719
21 246 0.7777387499809265
21 247 0.7571902871131897
21 248 0.777324914932251
21 249 0.7957478761672974
21 250 0.23908787965774536
21 251 0.7395960092544556
21 252 0.7361994981765747
21 253 0.5156083106994629
21 254 0.7849313616752625
21 255 0.7624534368515015
22 23 0.8169187307357788
22 24 0.9395884275436401
22 25 0.6964709758758545
22 26 0.9559937119483948
22 27 0.31210821866989136
22 28 0.9230763912200928
22 29 0.9574421048164368
22 30 0.9240531325340271
22 31 0.2944238483905792
22 32 0.9479253888130188
22 33 0.9473704695701599
22 34 0.9534008502960205
22 35 0.906895101070404
22 36 0.9506386518478394
22 37 0.95389723777771
22 38 0.8920090794563293
22 39 0.9617369174957275
22 40 0.9500295519828796
22 41 0.7967685461044312
22 42 0.9494757652282715
22 43 0.5216972231864929
22 44 0.9589495062828064
22 45 0.9556605815887451
22 46 0.9249044060707092
22 47 0.960053026676178
22 48 0.9428050518035889
22 49 0.947202205657959
22 50 0.5745397806167603
22 51 0.9606006145477295
22 52 0.5021379590034485
22 53 0.07955572009086609
22 54 0.8176640868186951
22 55 0.9581408500671387
22 56 0.9584081768989563
22 57 0.9463846683502197
22 58 0.8563920855522156
22 59 0.8167296648025513
22 60 0.12152338027954102
22 61 0.891727089881897
22 62 0.9443668723106384
22 63 0.7482235431671143
22 64 0.9609339833259583
22 65 0.4773791432380676
22 66 0.9644688963890076
22 67 0.9501417875289917
22 68 0.9579917192459106
22 69 0.9059410095214844
22 70 0.8565866947174072
22 71 0.9540898203849792
22 72 0.16239243745803833
22 73 0.9616950750350952
22 74 0.6396647691726685
22 75 0.13416612148284912
22 76 0.9115522503852844
22 77 0.9595050811767578
22 78 0.7136812210083008
22 79 0.9434771537780762
22 80 0.9482582211494446
22 81 0.21277906000614166
22 82 0.9443668723106384
22 83 0.9499748945236206
22 84 0.9378100633621216
22 85 0.9212921261787415
22 86 0.9574421048164368
22 87 0.4936303198337555
22 88 0.95389723777771
22 89 0.9501417875289917
22 90 0.9578592777252197
22 91 0.9071151614189148
22 92 0.1936701238155365
22 93 0.891857922077179
22 94 0.9479253888130188
22 95 0.8017875552177429
22 96 0.9409512877464294
22 97 0.45588037371635437
22 98 0.9532914757728577
22 99 0.9554433226585388
22 100 0.9494826793670654
22 101 0.9515810608863831
22 102 0.9562468528747559
22 104 0.9550543427467346
22 105 0.8806609511375427
22 106 0.9545593857765198
22 107 0.2693207263946533
22 109 0.9591881036758423
22 110 0.9282189607620239
22 111 0.0859300047159195
22 112 0.9438643455505371
22 113 0.7834674119949341
22 114 0.35135146975517273
22 115 0.6732507944107056
22 116 0.8031656742095947
22 117 0.17526717483997345
22 118 0.407319039106369
22 119 0.3126163184642792
22 120 0.5490763187408447
22 121 0.9511362314224243
22 122 0.2794153690338135
22 123 0.2556639313697815
22 124 0.0859300047159195
22 125 0.36176609992980957
22 126 0.9386193156242371
22 127 0.9579437971115112
22 128 0.9540082812309265
22 129 0.8961856961250305
22 130 0.14117072522640228
22 131 0.9490167498588562
22 132 0.9483672380447388
22 133 0.17789201438426971
22 134 0.5691149234771729
22 135 0.9362041354179382
22 136 0.1429053544998169
22 137 0.48329928517341614
22 138 0.9514768123626709
22 139 0.9647084474563599
22 140 0.6985899806022644
22 141 0.9622417688369751
22 142 0.6838022470474243
22 143 0.9484617710113525
22 144 0.9378873705863953
22 145 0.25538745522499084
22 146 0.7310135364532471
22 147 0.9412674307823181
22 148 0.8356833457946777
22 149 0.9495882391929626
22 150 0.7733278870582581
22 151 0.9502203464508057
22 152 0.8697687983512878
22 153 0.9469910860061646
22 154 0.9348496794700623
22 155 0.3005509376525879
22 156 0.8257200717926025
22 157 0.9046722650527954
22 158 0.947257399559021
22 159 0.4516540765762329
22 160 0.08813370019197464
22 161 0.947257399559021
22 162 0.4604620337486267
22 163 0.2319428026676178
22 164 0.07262410968542099
22 165 0.7875148057937622
22 166 0.9534569382667542
22 167 0.9599980115890503
22 168 0.21303074061870575
22 169 0.09743546694517136
22 170 0.06854843348264694
22 171 0.9505830407142639
22 172 0.9328283667564392
22 173 0.7717611789703369
22 174 0.9506950974464417
22 175 0.9539523124694824
22 176 0.6767674684524536
22 177 0.9149470925331116
22 178 0.9237669706344604
22 179 0.19386430084705353
22 180 0.9549455046653748
22 181 0.9495882391929626
22 182 0.9542378783226013
22 183 0.3937574028968811
22 185 0.952686071395874
22 186 0.9458790421485901
22 187 0.9434771537780762
22 188 0.8378331065177917
22 189 0.9490167498588562
22 190 0.91785728931427
22 191 0.5183296799659729
22 192 0.9398312568664551
22 193 0.9532381892204285
22 194 0.8075101971626282
22 195 0.6643732786178589
22 196 0.9595050811767578
22 197 0.7268837690353394
22 198 0.956797182559967
22 199 0.7175296545028687
22 200 0.9277421832084656
22 201 0.8053051233291626
22 202 0.29121825098991394
22 203 0.52872633934021
22 204 0.9584081768989563
22 205 0.9494757652282715
22 206 0.0868024230003357
22 207 0.9480022192001343
22 208 0.32975277304649353
22 209 0.9534008502960205
22 210 0.964317798614502
22 212 0.9482582211494446
22 213 0.9296611547470093
22 214 0.9534008502960205
22 215 0.6978952288627625
22 216 0.9415959119796753
22 217 0.9610931277275085
22 218 0.8635609745979309
22 219 0.5196558237075806
22 220 0.15920613706111908
22 221 0.5543540120124817
22 222 0.8830606341362
22 223 0.9552899599075317
22 224 0.511785626411438
22 225 0.9117386937141418
22 226 0.9551101922988892
22 227 0.51412433385849
22 228 0.9489774703979492
22 229 0.11815785616636276
22 230 0.9520812630653381
22 231 0.23703134059906006
22 232 0.22273769974708557
22 233 0.7345314621925354
22 234 0.3115227222442627
22 235 0.9574421048164368
22 236 0.13798581063747406
22 238 0.9035673141479492
22 239 0.9418036937713623
22 240 0.9534569382667542
22 241 0.9593957662582397
22 242 0.941778302192688
22 243 0.9271752238273621
22 244 0.18154065310955048
22 245 0.17798464000225067
22 246 0.9546902179718018
22 247 0.9272348284721375
22 248 0.9272195100784302
22 249 0.9489774703979492
22 250 0.3390853703022003
22 251 0.8977972865104675
22 252 0.9266511797904968
22 253 0.7385921478271484
22 254 0.94453364610672
22 255 0.9300060272216797
23 24 0.8159835338592529
23 25 0.6170248985290527
23 26 0.813017725944519
23 27 0.2151160091161728
23 28 0.829814612865448
23 29 0.8175911903381348
23 30 0.8045433163642883
23 31 0.20732109248638153
23 32 0.8503043055534363
23 33 0.8201042413711548
23 34 0.8162549734115601
23 35 0.7701041102409363
23 36 0.8147168159484863
23 37 0.8203422427177429
23 38 0.7608346939086914
23 39 0.8053168654441833
23 40 0.813547670841217
23 41 0.7350078821182251
23 42 0.8201042413711548
23 43 0.5117464661598206
23 44 0.8152007460594177
23 45 0.8185839056968689
23 46 0.826623797416687
23 47 0.8321772813796997
23 48 0.816686749458313
23 49 0.80302494764328
23 50 0.3953724205493927
23 51 0.8353829383850098
23 52 0.4222200810909271
23 54 0.6944495439529419
23 55 0.8414396643638611
23 56 0.8237549066543579
23 57 0.8312370181083679
23 58 0.7883644700050354
23 59 0.7385147213935852
23 61 0.7970322966575623
23 62 0.8084811568260193
23 63 0.6228427290916443
23 64 0.8408249616622925
23 65 0.3604734241962433
23 66 0.8296024203300476
23 67 0.8240723609924316
23 68 0.8171634674072266
23 69 0.8009470701217651
23 70 0.7839863896369934
23 71 0.8198081851005554
23 72 0.1134704202413559
23 73 0.8429945111274719
23 74 0.556456983089447
23 75 0.06113966554403305
23 76 0.8299054503440857
23 77 0.8301804661750793
23 78 0.5767358541488647
23 79 0.8243664503097534
23 80 0.8177818655967712
23 81 0.1381939798593521
23 82 0.8146527409553528
23 83 0.8119497895240784
23 84 0.8178566098213196
23 85 0.8190340995788574
23 86 0.8175911903381348
23 87 0.3608472943305969
23 88 0.8154592514038086
23 89 0.8130683898925781
23 90 0.8326757550239563
23 91 0.8372184634208679
23 92 0.19931654632091522
23 93 0.7860960364341736
23 94 0.8307008147239685
23 95 0.6736354827880859
23 96 0.8146352767944336
23 97 0.3174755871295929
23 98 0.8338536620140076
23 99 0.8207698464393616
23 100 0.7896336913108826
23 101 0.8115231990814209
23 102 0.8115770220756531
23 104 0.8442208766937256
23 105 0.7626526951789856
23 106 0.8121263384819031
23 107 0.21047084033489227
23 109 0.8207085132598877
23 110 0.7838655114173889
23 112 0.816686749458313
23 113 0.7029747366905212
23 114 0.3100767135620117
23 115 0.668282151222229
23 116 0.680895209312439
23 117 0.15802133083343506
23 118 0.345222532749176
23 119 0.29125088453292847
23 120 0.38026362657546997
23 121 0.8359502553939819
23 122 0.11280489712953568
23 123 0.26103103160858154
23 125 0.2687043845653534
23 126 0.8204383850097656
23 127 0.8180195689201355
23 128 0.8222930431365967
23 129 0.8307828307151794
23 130 0.2001430094242096
23 131 0.8032166361808777
23 132 0.8356928825378418
23 133 0.18645092844963074
23 134 0.4139789342880249
23 135 0.8139894604682922
23 136 0.16642329096794128
23 137 0.47242045402526855
23 138 0.8378024101257324
23 139 0.8253327012062073
23 140 0.6474557518959045
23 141 0.8304754495620728
23 142 0.6404215097427368
23 143 0.8222212195396423
23 144 0.812682569026947
23 145 0.1853465437889099
23 146 0.5935345888137817
23 147 0.8096723556518555
23 148 0.8011445999145508
23 149 0.8306196928024292
23 150 0.7158961892127991
23 151 0.8043500185012817
23 152 0.7712209820747375
23 153 0.8187918663024902
23 154 0.7897419333457947
23 155 0.1655973494052887
23 156 0.7766839861869812
23 157 0.7468068599700928
23 158 0.83411705493927
23 159 0.2838223874568939
23 160 0.07982943952083588
23 161 0.8009489178657532
23 162 0.41085079312324524
23 163 0.11651960760354996
23 164 0.06766068935394287
23 165 0.7310972809791565
23 166 0.82393878698349
23 167 0.8354572057723999
23 168 0.09585263580083847
23 169 0.07564693689346313
23 170 0.05702103301882744
23 171 0.8302653431892395
23 172 0.8128935098648071
23 173 0.7028086185455322
23 174 0.826086163520813
23 175 0.8158305883407593
23 176 0.5846400260925293
23 177 0.7937424182891846
23 178 0.7974396347999573
23 179 0.11048248410224915
23 180 0.8252252340316772
23 181 0.8086003065109253
23 182 0.8098719716072083
23 183 0.2191849797964096
23 184 0.05349046736955643
23 185 0.8033245205879211
23 186 0.796176552772522
23 187 0.8194448351860046
23 188 0.7014293074607849
23 189 0.8081670999526978
23 190 0.8000816106796265
23 191 0.3536197543144226
23 192 0.8105074763298035
23 193 0.8298305869102478
23 194 0.7887713313102722
23 195 0.49073219299316406
23 196 0.8265445828437805
23 197 0.6243959665298462
23 198 0.8086954951286316
23 199 0.544538676738739
23 200 0.8381065726280212
23 201 0.6310119032859802
23 202 0.17888915538787842
23 203 0.3712881803512573
23 204 0.8358867764472961
23 205 0.8188783526420593
23 206 0.11119623482227325
23 207 0.8184299468994141
23 208 0.170273095369339
23 209 0.8150348663330078
23 210 0.8220134973526001
23 212 0.805484414100647
23 213 0.8254777789115906
23 214 0.8199153542518616
23 215 0.5772168040275574
23 216 0.7886177897453308
23 217 0.8321772813796997
23 218 0.7655768394470215
23 219 0.40660232305526733
23 220 0.2045866996049881
23 221 0.5023515224456787
23 222 0.7884292006492615
23 223 0.8257998824119568
23 224 0.44758743047714233
23 225 0.7814320921897888
23 226 0.8250923156738281
23 227 0.34709200263023376
23 228 0.81477290391922
23 229 0.05504123494029045
23 230 0.8094967007637024
23 231 0.17434078454971313
23 232 0.19694702327251434
23 233 0.6570336222648621
23 234 0.18533837795257568
23 235 0.8163672685623169
23 236 0.08457586169242859
23 238 0.7821598052978516
23 239 0.829375147819519
23 240 0.8288140892982483
23 241 0.8161026835441589
23 242 0.7901705503463745
23 243 0.8135694265365601
23 244 0.11192653328180313
23 245 0.16047139465808868
23 246 0.8170636892318726
23 247 0.8098723888397217
23 248 0.7842710018157959
23 249 0.8417277932167053
23 250 0.26808956265449524
23 251 0.8089169859886169
23 252 0.7783194184303284
23 253 0.6475595235824585
23 254 0.7997584939002991
23 255 0.7914169430732727
24 25 0.6596376299858093
24 26 0.9464733600616455
24 27 0.3364022970199585
24 28 0.9057284593582153
24 29 0.943610668182373
24 30 0.9207277894020081
24 31 0.29555606842041016
24 32 0.9339146614074707
24 33 0.9418888688087463
24 34 0.9374680519104004
24 35 0.8804565072059631
24 36 0.9452507495880127
24 37 0.9390208125114441
24 38 0.8695528507232666
24 39 0.928169846534729
24 40 0.954217255115509
24 41 0.774833619594574
24 42 0.932266891002655
24 43 0.5033714175224304
24 44 0.9311977624893188
24 45 0.940919816493988
24 46 0.9077073335647583
24 47 0.9444467425346375
24 48 0.9285153746604919
24 49 0.942726194858551
24 50 0.599449098110199
24 51 0.9450186491012573
24 52 0.5155225992202759
24 54 0.7972955107688904
24 55 0.9369806051254272
24 56 0.9448450207710266
24 57 0.9223644137382507
24 58 0.8260135054588318
24 59 0.8196260929107666
24 60 0.11460975557565689
24 61 0.8751206398010254
24 62 0.9257802367210388
24 63 0.7409727573394775
24 64 0.9410080313682556
24 65 0.48485276103019714
24 66 0.9381330609321594
24 67 0.9372925758361816
24 68 0.9420500993728638
24 69 0.9010015726089478
24 70 0.8275580406188965
24 71 0.9336528182029724
24 72 0.14514261484146118
24 73 0.9461614489555359
24 74 0.6402860283851624
24 75 0.1777389645576477
24 76 0.8902997970581055
24 77 0.9438744783401489
24 78 0.7372567057609558
24 79 0.9357133507728577
24 80 0.949161171913147
24 81 0.2452019900083542
24 82 0.9376216530799866
24 83 0.9338265657424927
24 84 0.9077073335647583
24 85 0.9001114964485168
24 86 0.9414757490158081
24 87 0.49701759219169617
24 88 0.9400854706764221
24 89 0.9394251704216003
24 90 0.9474486112594604
24 91 0.9035347104072571
24 92 0.23329786956310272
24 93 0.9069498181343079
24 94 0.9317775964736938
24 95 0.7786567211151123
24 96 0.9173674583435059
24 97 0.3885623514652252
24 98 0.9426241517066956
24 99 0.9427058696746826
24 100 0.9248069524765015
24 101 0.932266891002655
24 102 0.9348100423812866
24 104 0.9381330609321594
24 105 0.8739123940467834
24 106 0.9387087821960449
24 107 0.1727602481842041
24 109 0.9476160407066345
24 110 0.9063637852668762
24 111 0.06233949214220047
24 112 0.9263635873794556
24 113 0.7867922186851501
24 114 0.3066697418689728
24 115 0.647077202796936
24 116 0.7872258424758911
24 117 0.16652648150920868
24 118 0.45736372470855713
24 119 0.2630801200866699
24 120 0.48541581630706787
24 121 0.9372060298919678
24 122 0.2232479453086853
24 123 0.2632235586643219
24 124 0.07480738312005997
24 125 0.37610915303230286
24 126 0.9283409714698792
24 127 0.9355611205101013
24 128 0.9381330609321594
24 129 0.886441707611084
24 130 0.14961476624011993
24 131 0.9217787384986877
24 132 0.9557227492332458
24 133 0.18067701160907745
24 134 0.5495681166648865
24 135 0.9260088205337524
24 136 0.09896086901426315
24 137 0.4632667601108551
24 138 0.9310174584388733
24 139 0.9459883570671082
24 140 0.6799631714820862
24 141 0.9498952031135559
24 142 0.6389468908309937
24 143 0.9309121370315552
24 144 0.9212856292724609
24 145 0.28945937752723694
24 146 0.6952736973762512
24 147 0.916894257068634
24 148 0.8235555291175842
24 149 0.9463176131248474
24 150 0.7441660761833191
24 151 0.9381986260414124
24 152 0.8312822580337524
24 153 0.9241194725036621
24 154 0.916894257068634
24 155 0.3216678500175476
24 156 0.785301148891449
24 157 0.8849716782569885
24 158 0.9395884275436401
24 159 0.47689229249954224
24 160 0.09945941716432571
24 161 0.9342315793037415
24 162 0.4606906771659851
24 163 0.23557399213314056
24 164 0.07376107573509216
24 165 0.7759490609169006
24 166 0.9375569820404053
24 167 0.9475318789482117
24 168 0.22128324210643768
24 169 0.09896086901426315
24 170 0.10940536111593246
24 171 0.9334251284599304
24 172 0.917079746723175
24 173 0.7465788125991821
24 174 0.9346716403961182
24 175 0.9380441904067993
24 176 0.6693136692047119
24 177 0.8971508741378784
24 178 0.9141718149185181
24 179 0.22622476518154144
24 180 0.9368915557861328
24 181 0.9377826452255249
24 182 0.9371203780174255
24 183 0.2917669117450714
24 185 0.9451730847358704
24 186 0.9380447864532471
24 187 0.9303480386734009
24 188 0.8198023438453674
24 189 0.9228580594062805
24 190 0.8853364586830139
24 191 0.5441234707832336
24 192 0.9205712676048279
24 193 0.9670941233634949
24 194 0.7947210669517517
24 195 0.6404109001159668
24 196 0.9438744783401489
24 197 0.700334370136261
24 198 0.9311072826385498
24 199 0.7145013809204102
24 200 0.9106758832931519
24 201 0.8027660846710205
24 202 0.2015186846256256
24 203 0.4585650563240051
24 204 0.9533094167709351
24 205 0.9376124143600464
24 207 0.9337319731712341
24 208 0.34439393877983093
24 209 0.9385321140289307
24 210 0.9498952031135559
24 212 0.9405811429023743
24 213 0.9070157408714294
24 214 0.9364039897918701
24 215 0.7232868075370789
24 216 0.9170354604721069
24 217 0.9444467425346375
24 218 0.8615251183509827
24 219 0.5092361569404602
24 220 0.17842602729797363
24 221 0.559411883354187
24 222 0.9129832983016968
24 223 0.9360518455505371
24 224 0.5096850991249084
24 225 0.8939283490180969
24 226 0.943529486656189
24 227 0.45027971267700195
24 228 0.9360518455505371
24 229 0.12000767886638641
24 230 0.9348962306976318
24 231 0.24918927252292633
24 232 0.2136567384004593
24 233 0.7072761654853821
24 234 0.3129606544971466
24 235 0.9382734894752502
24 236 0.13276994228363037
24 238 0.8886857628822327
24 239 0.929678738117218
24 240 0.9386199712753296
24 241 0.9437002539634705
24 242 0.9228266477584839
24 243 0.9133527278900146
24 244 0.14099858701229095
24 245 0.1807710826396942
24 246 0.9229983687400818
24 247 0.910946249961853
24 248 0.9082615375518799
24 249 0.9371203780174255
24 250 0.34439393877983093
24 251 0.882691502571106
24 252 0.9299940466880798
24 253 0.7273367643356323
24 254 0.9303480386734009
24 255 0.9130440354347229
25 26 0.6963503956794739
25 27 0.16770508885383606
25 28 0.7128249406814575
25 29 0.6981709003448486
25 30 0.6740961670875549
25 31 0.26810508966445923
25 32 0.6989030838012695
25 33 0.6822147369384766
25 34 0.7002317905426025
25 35 0.693284273147583
25 36 0.6807860136032104
25 37 0.7076731324195862
25 38 0.6188451051712036
25 39 0.7182247042655945
25 40 0.676174521446228
25 41 0.7183346152305603
25 42 0.6978488564491272
25 43 0.49579113721847534
25 44 0.7120616436004639
25 45 0.7036968469619751
25 46 0.7071797847747803
25 47 0.7148481607437134
25 48 0.6937070488929749
25 49 0.6743943095207214
25 50 0.416084885597229
25 51 0.7144818305969238
25 52 0.35980162024497986
25 53 0.10741722583770752
25 54 0.6402016282081604
25 55 0.7267313003540039
25 56 0.7173570394515991
25 57 0.7084667086601257
25 58 0.6922141909599304
25 59 0.5653491616249084
25 60 0.05860090255737305
25 61 0.629101574420929
25 62 0.6998007297515869
25 63 0.5816656947135925
25 64 0.7226928472518921
25 65 0.37378814816474915
25 66 0.7203275561332703
25 67 0.7002761363983154
25 68 0.7148252725601196
25 69 0.6415144205093384
25 70 0.6879897117614746
25 71 0.6968385577201843
25 72 0.2017233520746231
25 73 0.7151532173156738
25 74 0.6014571189880371
25 75 0.05513349175453186
25 76 0.7246019244194031
25 77 0.701163649559021
25 78 0.6302014589309692
25 79 0.6861633658409119
25 80 0.691503643989563
25 81 0.07182430475950241
25 82 0.6683167815208435
25 83 0.681151270866394
25 84 0.7217009663581848
25 85 0.6744794845581055
25 86 0.7123613953590393
25 87 0.4327963590621948
25 88 0.70201176404953
25 89 0.6988585591316223
25 90 0.7036532759666443
25 91 0.6264352798461914
25 92 0.127707377076149
25 93 0.6936905384063721
25 94 0.7173699736595154
25 95 0.6912276744842529
25 96 0.7087357640266418
25 97 0.3618980050086975
25 98 0.6988585591316223
25 99 0.6868007183074951
25 100 0.6745855212211609
25 101 0.7376447319984436
25 102 0.6889863014221191
25 104 0.7231522798538208
25 105 0.6794745326042175
25 106 0.71007239818573
25 107 0.33014732599258423
25 109 0.7154203653335571
25 110 0.6874793171882629
25 111 0.099449023604393
25 112 0.713731586933136
25 113 0.7301361560821533
25 114 0.4150996208190918
25 115 0.61618971824646
25 116 0.7465860843658447
25 117 0.17557762563228607
25 118 0.15887956321239471
25 119 0.38591888546943665
25 120 0.41871413588523865
25 121 0.7180375456809998
25 122 0.27666500210762024
25 123 0.20333753526210785
25 124 0.11602386087179184
25 125 0.11538460850715637
25 126 0.7087269425392151
25 127 0.7169939875602722
25 128 0.7104406356811523
25 129 0.6592021584510803
25 130 0.18232321739196777
25 131 0.7016713619232178
25 132 0.6843551993370056
25 133 0.05604485049843788
25 134 0.276633620262146
25 135 0.6622031927108765
25 136 0.21926450729370117
25 137 0.46386605501174927
25 138 0.7021681070327759
25 139 0.7138099074363708
25 140 0.4224955141544342
25 141 0.7133862376213074
25 142 0.4801051616668701
25 143 0.704918622970581
25 144 0.7012960314750671
25 145 0.05497252196073532
25 146 0.6069738864898682
25 147 0.6874479055404663
25 148 0.6559438705444336
25 149 0.6850408911705017
25 150 0.5256184339523315
25 151 0.697998046875
25 152 0.653304398059845
25 153 0.7388336062431335
25 154 0.6946690082550049
25 155 0.3272644877433777
25 156 0.6761958599090576
25 157 0.6647725701332092
25 158 0.7107137441635132
25 159 0.135853111743927
25 161 0.7107137441635132
25 162 0.3897362947463989
25 163 0.12895332276821136
25 164 0.07844644784927368
25 165 0.49487531185150146
25 166 0.6881991624832153
25 167 0.7001180648803711
25 168 0.1634301096200943
25 171 0.7141544222831726
25 172 0.6974903345108032
25 173 0.591060221195221
25 174 0.6999105215072632
25 175 0.6956260800361633
25 176 0.6418459415435791
25 177 0.677320659160614
25 178 0.6585304141044617
25 179 0.1615103930234909
25 180 0.7232419848442078
25 181 0.6807860136032104
25 182 0.6903798580169678
25 183 0.4447190463542938
25 184 0.06201736629009247
25 185 0.7070555090904236
25 186 0.6937544345855713
25 187 0.6918694376945496
25 188 0.5780491232872009
25 189 0.6887571811676025
25 190 0.7257717251777649
25 191 0.35776209831237793
25 192 0.7095175981521606
25 193 0.6995899677276611
25 194 0.6930661201477051
25 195 0.46098190546035767
25 196 0.7264561653137207
25 197 0.6536986231803894
25 198 0.7156562805175781
25 199 0.5877371430397034
25 200 0.7110418081283569
25 201 0.47151368856430054
25 202 0.3327135145664215
25 203 0.44384390115737915
25 204 0.7061043977737427
25 205 0.7006914019584656
25 206 0.16408252716064453
25 207 0.6880209445953369
25 208 0.09660796076059341
25 209 0.6988171339035034
25 210 0.7119847536087036
25 212 0.6986325979232788
25 213 0.7316179275512695
25 214 0.7271093130111694
25 215 0.550000011920929
25 216 0.7242082953453064
25 217 0.7176570296287537
25 218 0.6187869906425476
25 219 0.3343783915042877
25 220 0.11859989166259766
25 221 0.48616158962249756
25 222 0.5701737999916077
25 223 0.727313756942749
25 224 0.22316987812519073
25 225 0.6736168265342712
25 226 0.6984172463417053
25 227 0.4200277626514435
25 228 0.7060057520866394
25 229 0.10635890811681747
25 230 0.6882614493370056
25 231 0.09545140713453293
25 232 0.17264904081821442
25 233 0.43424633145332336
25 234 0.24231499433517456
25 235 0.7010089755058289
25 236 0.05883483216166496
25 238 0.6396883726119995
25 239 0.7172600030899048
25 240 0.7037436962127686
25 241 0.6969757676124573
25 242 0.6979360580444336
25 243 0.6737574338912964
25 244 0.10814058035612106
25 245 0.13178689777851105
25 246 0.7065184712409973
25 247 0.6932610869407654
25 248 0.7075563073158264
25 249 0.6846977472305298
25 250 0.3108255863189697
25 251 0.6635143160820007
25 252 0.6114886403083801
25 253 0.4019363820552826
25 254 0.7189735770225525
25 255 0.6632559895515442
26 27 0.3133162558078766
26 28 0.9312361478805542
26 29 0.9577056169509888
26 30 0.9302274584770203
26 31 0.27556759119033813
26 32 0.9545280337333679
26 33 0.955029308795929
26 34 0.9588757753372192
26 35 0.9089400768280029
26 36 0.9645114541053772
26 37 0.9624999761581421
26 38 0.8964387774467468
26 39 0.945135235786438
26 40 0.9618464112281799
26 41 0.796760618686676
26 42 0.9539833068847656
26 43 0.5024747848510742
26 44 0.9592134952545166
26 45 0.9641993641853333
26 46 0.9319303035736084
26 47 0.9664373397827148
26 48 0.9484735727310181
26 49 0.9580531716346741
26 50 0.5830484628677368
26 51 0.966975212097168
26 52 0.5422235727310181
26 54 0.8401831388473511
26 55 0.962539553642273
26 56 0.9710332155227661
26 57 0.9531172513961792
26 58 0.8649170994758606
26 59 0.8188664317131042
26 60 0.12076146900653839
26 61 0.898320734500885
26 62 0.9521383047103882
26 63 0.7461830973625183
26 64 0.9663142561912537
26 65 0.4397278130054474
26 66 0.9656984806060791
26 67 0.9608775973320007
26 68 0.9655553698539734
26 69 0.9244734644889832
26 70 0.8615968227386475
26 71 0.9523032307624817
26 72 0.1613743007183075
26 73 0.9680500030517578
26 74 0.6371859312057495
26 75 0.15651187300682068
26 76 0.9210429787635803
26 77 0.9658991694450378
26 78 0.7469590902328491
26 79 0.9522604942321777
26 80 0.954905092716217
26 81 0.22771000862121582
26 82 0.9574045538902283
26 83 0.9555312395095825
26 84 0.939411461353302
26 85 0.9231362342834473
26 86 0.9566612839698792
26 87 0.4799177646636963
26 88 0.9593750238418579
26 89 0.9567043781280518
26 90 0.9653186202049255
26 91 0.9220878481864929
26 92 0.19245587289333344
26 93 0.9094727635383606
26 94 0.9555734992027283
26 95 0.8005012273788452
26 96 0.9350518584251404
26 97 0.41432178020477295
26 98 0.9640074372291565
26 99 0.9598750472068787
26 100 0.941380500793457
26 101 0.9560753703117371
26 102 0.955489993095398
26 104 0.9605010151863098
26 105 0.8918833136558533
26 106 0.9610422849655151
26 107 0.22889594733715057
26 109 0.9687830209732056
26 110 0.9428970813751221
26 111 0.08539125323295593
26 112 0.9474208950996399
26 113 0.8047989010810852
26 114 0.3409654498100281
26 115 0.6705264449119568
26 116 0.8163244724273682
26 117 0.17978663742542267
26 118 0.4295009672641754
26 119 0.33728402853012085
26 120 0.5565102100372314
26 121 0.9577056169509888
26 122 0.2554504871368408
26 123 0.2749427556991577
26 124 0.06099375709891319
26 125 0.351005882024765
26 126 0.9497319459915161
26 127 0.9623871445655823
26 128 0.9605010151863098
26 129 0.9038590788841248
26 130 0.1402856409549713
26 131 0.9462348818778992
26 132 0.9591755270957947
26 133 0.1767767071723938
26 134 0.5794678926467896
26 135 0.9430208206176758
26 136 0.10973452776670456
26 137 0.5188450813293457
26 138 0.9580901861190796
26 139 0.9669333696365356
26 140 0.6985489726066589
26 141 0.9716814756393433
26 142 0.6895290017127991
26 143 0.9499117732048035
26 144 0.9457287192344666
26 145 0.27585461735725403
26 146 0.7318615913391113
26 147 0.9513097405433655
26 148 0.8527613282203674
26 149 0.9613799452781677
26 150 0.7736894488334656
26 151 0.9484735727310181
26 152 0.8631570339202881
26 153 0.9505380988121033
26 154 0.9428064227104187
26 155 0.31793540716171265
26 156 0.8241845369338989
26 157 0.9155666828155518
26 158 0.9549455046653748
26 159 0.45548808574676514
26 160 0.06811865419149399
26 161 0.9633313417434692
26 162 0.4234277307987213
26 163 0.2304886132478714
26 164 0.05773502215743065
26 165 0.8182609677314758
26 166 0.9620397090911865
26 167 0.968464732170105
26 168 0.17801633477210999
26 169 0.09682458639144897
26 170 0.10704360902309418
26 171 0.9550725817680359
26 172 0.9418286085128784
26 173 0.7908102869987488
26 174 0.9582903981208801
26 175 0.9594177603721619
26 176 0.6725243926048279
26 177 0.9319680333137512
26 178 0.9329538941383362
26 179 0.2541325092315674
26 180 0.9635416865348816
26 181 0.9603360891342163
26 182 0.9555734992027283
26 183 0.4060543179512024
26 185 0.9613421559333801
26 186 0.9515530467033386
26 187 0.9543602466583252
26 188 0.8398942351341248
26 189 0.9451788067817688
26 190 0.9142873287200928
26 191 0.5227677226066589
26 192 0.932866632938385
26 193 0.9639719724655151
26 194 0.8086678981781006
26 195 0.6326992511749268
26 196 0.9658991694450378
26 197 0.734254777431488
26 198 0.9591755270957947
26 199 0.7116356492042542
26 200 0.9347151517868042
26 201 0.8089009523391724
26 202 0.29575270414352417
26 203 0.49982956051826477
26 204 0.9710332155227661
26 205 0.9613054990768433
26 206 0.11213564872741699
26 207 0.9536629319190979
26 208 0.32150256633758545
26 209 0.9588757753372192
26 210 0.9696184992790222
26 212 0.9559544920921326
26 213 0.932396411895752
26 214 0.959916889667511
26 215 0.7218266725540161
26 216 0.9442375302314758
26 217 0.9674709439277649
26 218 0.8511223793029785
26 219 0.5022774934768677
26 220 0.19094064831733704
26 221 0.5420218110084534
26 222 0.9056499600410461
26 223 0.9566190242767334
26 224 0.5085769891738892
26 225 0.9233418703079224
26 226 0.964698314666748
26 227 0.5183053016662598
26 228 0.9628919363021851
26 229 0.09393364191055298
26 230 0.9544847011566162
26 231 0.22314812242984772
26 232 0.22953903675079346
26 233 0.740760087966919
26 234 0.3095695972442627
26 235 0.9597944021224976
26 236 0.12268692255020142
26 238 0.9142873287200928
26 239 0.952724039554596
26 240 0.9599595665931702
26 241 0.965816080570221
26 242 0.9380006194114685
26 243 0.9341589212417603
26 244 0.15387268364429474
26 245 0.176868736743927
26 246 0.9423375129699707
26 247 0.9278799891471863
26 248 0.9148558974266052
26 249 0.9608009457588196
26 250 0.33695945143699646
26 251 0.9064343571662903
26 252 0.9317647814750671
26 253 0.7269846200942993
26 254 0.9585598707199097
26 255 0.9380006194114685
27 28 0.28684133291244507
27 29 0.3236546218395233
27 30 0.2908872663974762
27 31 0.07235359400510788
27 32 0.3049355745315552
27 33 0.330520361661911
27 34 0.3226426839828491
27 35 0.13421913981437683
27 36 0.329828143119812
27 37 0.30698662996292114
27 38 0.2909659445285797
27 39 0.3019278645515442
27 40 0.33034688234329224
27 41 0.19699229300022125
27 42 0.29873955249786377
27 44 0.24153411388397217
27 45 0.29010680317878723
27 46 0.1915746033191681
27 47 0.3077564239501953
27 48 0.2750539183616638
27 49 0.32837870717048645
27 50 0.47833824157714844
27 51 0.3107374608516693
27 52 0.3666955232620239
27 54 0.3505798280239105
27 55 0.28769823908805847
27 56 0.32395705580711365
27 57 0.2405131310224533
27 58 0.08090971410274506
27 59 0.28296586871147156
27 61 0.1850939393043518
27 62 0.2656003534793854
27 63 0.38656914234161377
27 64 0.3055576682090759
27 65 0.15794943273067474
27 66 0.2558172643184662
27 67 0.32965579628944397
27 68 0.31714245676994324
27 69 0.2775314748287201
27 70 0.1682068556547165
27 71 0.2549167275428772
27 72 0.05883484333753586
27 73 0.28847071528434753
27 74 0.35367587208747864
27 75 0.299399733543396
27 76 0.1847953349351883
27 77 0.3267662525177002
27 78 0.36867913603782654
27 79 0.32536259293556213
27 80 0.3124379813671112
27 81 0.3953329920768738
27 82 0.3104003965854645
27 83 0.3243345618247986
27 84 0.25651514530181885
27 85 0.2612859308719635
27 86 0.3109622895717621
27 87 0.16129367053508759
27 88 0.31015145778656006
27 89 0.3233162760734558
27 90 0.3241238296031952
27 91 0.31715136766433716
27 92 0.32635697722435
27 93 0.3424593210220337
27 94 0.2858771085739136
27 95 0.2954884469509125
27 96 0.2538253664970398
27 97 0.055331867188215256
27 98 0.30746743083000183
27 99 0.3103131055831909
27 100 0.274258017539978
27 101 0.31780803203582764
27 102 0.3055775463581085
27 104 0.2589755058288574
27 105 0.3459237515926361
27 106 0.30619028210639954
27 108 0.06933752447366714
27 109 0.3066673278808594
27 110 0.27205073833465576
27 111 0.07412493228912354
27 112 0.2686573266983032
27 113 0.337917298078537
27 115 0.07730467617511749
27 116 0.29481983184814453
27 118 0.26644912362098694
27 119 0.12584556639194489
27 121 0.3077892065048218
27 122 0.05624016001820564
27 123 0.10573874413967133
27 124 0.07412493228912354
27 125 0.36121100187301636
27 126 0.3292172849178314
27 127 0.29842624068260193
27 128 0.31266555190086365
27 129 0.31297701597213745
27 131 0.2951873540878296
27 132 0.33086806535720825
27 135 0.32441186904907227
27 138 0.2770756781101227
27 139 0.3141983151435852
27 141 0.32593074440956116
27 143 0.29855576157569885
27 144 0.3335115313529968
27 145 0.2570193409919739
27 146 0.15263734757900238
27 147 0.2809552550315857
27 148 0.32118284702301025
27 149 0.32031387090682983
27 150 0.05144491791725159
27 151 0.31983014941215515
27 152 0.1126425489783287
27 153 0.3009606897830963
27 154 0.24543216824531555
27 155 0.3707714378833771
27 156 0.21020764112472534
27 157 0.22146154940128326
27 158 0.32484734058380127
27 159 0.5805512070655823
27 160 0.1478281021118164
27 161 0.3089234530925751
27 162 0.07608132064342499
27 163 0.16477049887180328
27 164 0.13155870139598846
27 165 0.2841206192970276
27 166 0.31282782554626465
27 167 0.31435972452163696
27 168 0.13155870139598846
27 169 0.1961161345243454
27 170 0.11826248466968536
27 171 0.26985350251197815
27 172 0.3190164268016815
27 173 0.2291879951953888
27 174 0.29780253767967224
27 175 0.3129903972148895
27 176 0.35321396589279175
27 177 0.1975480616092682
27 178 0.3185581564903259
27 179 0.2615211308002472
27 180 0.329140305519104
27 181 0.329828143119812
27 182 0.29222995042800903
27 184 0.06933752447366714
27 185 0.3269989788532257
27 186 0.31089743971824646
27 187 0.3030337989330292
27 188 0.23332691192626953
27 189 0.3208557963371277
27 190 0.1393880397081375
27 191 0.4963381886482239
27 192 0.2769096791744232
27 193 0.33000078797340393
27 194 0.18899303674697876
27 195 0.3760978877544403
27 196 0.32362428307533264
27 197 0.28187334537506104
27 198 0.27678388357162476
27 199 0.39850547909736633
27 200 0.29467278718948364
27 201 0.3001670241355896
27 204 0.3271022439002991
27 205 0.31145188212394714
27 207 0.31089743971824646
27 208 0.33812135457992554
27 209 0.3068268597126007
27 210 0.3133949637413025
27 212 0.32837870717048645
27 213 0.1788809597492218
27 214 0.2846847176551819
27 215 0.3870117664337158
27 216 0.3115438222885132
27 217 0.2732123136520386
27 218 0.3236815631389618
27 219 0.06741492450237274
27 221 0.3820961117744446
27 222 0.3486451208591461
27 223 0.2795242965221405
27 225 0.2828335464000702
27 226 0.3281165361404419
27 227 0.19121654331684113
27 228 0.32399407029151917
27 230 0.3084357976913452
27 231 0.28876611590385437
27 232 0.06226693466305733
27 233 0.07817407697439194
27 234 0.12267911434173584
27 235 0.30144304037094116
27 236 0.06577935069799423
27 238 0.2887323498725891
27 239 0.3194904327392578
27 240 0.3254673480987549
27 241 0.32429084181785583
27 242 0.3295745849609375
27 243 0.32723289728164673
27 244 0.06448258459568024
27 246 0.2643786072731018
27 247 0.2191181182861328
27 248 0.31178519129753113
27 249 0.32399407029151917
27 251 0.3334074020385742
27 252 0.3086449205875397
27 253 0.23740752041339874
27 254 0.3285524249076843
27 255 0.33280572295188904
28 29 0.9261411428451538
28 30 0.8942053914070129
28 31 0.2698020040988922
28 32 0.9475713968276978
28 33 0.9243672490119934
28 34 0.9307514429092407
28 35 0.8826905488967896
28 36 0.9256566762924194
28 37 0.936600387096405
28 38 0.8705182075500488
28 39 0.9178999066352844
28 40 0.9249588847160339
28 41 0.8231828808784485
28 42 0.9232898950576782
28 43 0.5113572478294373
28 44 0.9297539591789246
28 45 0.9342731833457947
28 46 0.9136006236076355
28 47 0.9400135278701782
28 48 0.9302487373352051
28 49 0.9197286367416382
28 50 0.5327914953231812
28 51 0.9512360692024231
28 52 0.5380482077598572
28 53 0.0678531602025032
28 54 0.8170563578605652
28 55 0.9345545768737793
28 56 0.9435954689979553
28 57 0.9294713139533997
28 58 0.872923731803894
28 59 0.7848312854766846
28 60 0.10660877078771591
28 61 0.8761593103408813
28 62 0.9209808707237244
28 63 0.7343965768814087
28 64 0.9461228847503662
28 65 0.4082726836204529
28 66 0.9325140118598938
28 67 0.9262474775314331
28 68 0.9299570322036743
28 69 0.8898076415061951
28 70 0.8648209571838379
28 71 0.9203231334686279
28 72 0.14626096189022064
28 73 0.941759467124939
28 74 0.6452195644378662
28 75 0.16119761765003204
28 76 0.9351938366889954
28 77 0.9415611028671265
28 78 0.7429373264312744
28 79 0.9288657307624817
28 80 0.9208094477653503
28 81 0.23033934831619263
28 82 0.9242352247238159
28 83 0.9226973056793213
28 84 0.9169028401374817
28 85 0.9025622606277466
28 86 0.9261411428451538
28 87 0.3827434778213501
28 88 0.9280176162719727
28 89 0.9262474775314331
28 90 0.9398142099380493
28 91 0.9082567095756531
28 92 0.2074371576309204
28 93 0.8832077980041504
28 94 0.9357267022132874
28 95 0.7962142825126648
28 96 0.9123013019561768
28 97 0.40796878933906555
28 98 0.9380673170089722
28 99 0.9327949285507202
28 100 0.9031556248664856
28 101 0.9297539591789246
28 102 0.9225899577140808
28 104 0.9357258081436157
28 105 0.8645505905151367
28 106 0.9352408647537231
28 107 0.28289851546287537
28 109 0.933482825756073
28 110 0.8944582939147949
28 111 0.06281982362270355
28 112 0.926996111869812
28 113 0.8173094391822815
28 114 0.3708391785621643
28 115 0.6936841011047363
28 116 0.809532105922699
28 117 0.15623649954795837
28 118 0.396039217710495
28 119 0.335193008184433
28 120 0.5395651459693909
28 121 0.928292453289032
28 122 0.23640714585781097
28 123 0.2795896530151367
28 124 0.06281982362270355
28 125 0.28279760479927063
28 126 0.9212701320648193
28 127 0.9244739413261414
28 128 0.9432202577590942
28 129 0.9058209657669067
28 130 0.17589549720287323
28 131 0.9125659465789795
28 132 0.9264181852340698
28 133 0.1456553190946579
28 134 0.5125810503959656
28 135 0.9211664199829102
28 136 0.15955740213394165
28 137 0.5542438626289368
28 138 0.9263152480125427
28 139 0.9373006224632263
28 140 0.6583901643753052
28 141 0.9391536712646484
28 142 0.6998587846755981
28 143 0.9163196682929993
28 144 0.9251229166984558
28 145 0.19698522984981537
28 146 0.7062246203422546
28 147 0.9108220934867859
28 148 0.8698234558105469
28 149 0.9267317056655884
28 150 0.7324603796005249
28 151 0.9161540269851685
28 152 0.8364940881729126
28 153 0.9399228096008301
28 154 0.9075379371643066
28 155 0.3142234981060028
28 156 0.846359133720398
28 157 0.8781406283378601
28 158 0.9414299726486206
28 159 0.3569924831390381
28 160 0.1002257689833641
28 161 0.9219967722892761
28 162 0.377488374710083
28 163 0.12102189660072327
28 165 0.812343180179596
28 166 0.9329980611801147
28 167 0.943110466003418
28 168 0.14370353519916534
28 169 0.07756262272596359
28 170 0.1002257689833641
28 171 0.9459984302520752
28 172 0.9307002425193787
28 173 0.8015370965003967
28 174 0.9375775456428528
28 175 0.933482825756073
28 176 0.6729552149772644
28 177 0.8940184116363525
28 178 0.8980751037597656
28 179 0.2448543757200241
28 180 0.936600387096405
28 181 0.9256566762924194
28 182 0.9238821268081665
28 183 0.4030033051967621
28 185 0.9298550486564636
28 186 0.9235421419143677
28 187 0.9267030954360962
28 188 0.7897094488143921
28 189 0.9125659465789795
28 190 0.898908257484436
28 191 0.45330098271369934
28 192 0.9144121408462524
28 193 0.9261411428451538
28 194 0.823908805847168
28 195 0.5871068239212036
28 196 0.9415611028671265
28 197 0.7466820478439331
28 198 0.9231827855110168
28 199 0.6768925189971924
28 200 0.9484288692474365
28 201 0.7580739855766296
28 202 0.3242591917514801
28 203 0.46817857027053833
28 204 0.9425292611122131
28 205 0.9286766648292542
28 206 0.12437690049409866
28 207 0.9202826023101807
28 208 0.2165067195892334
28 209 0.9339683651924133
28 210 0.9434032440185547
28 212 0.9197286367416382
28 213 0.9239272475242615
28 214 0.9468358755111694
28 215 0.6836705207824707
28 216 0.9120000004768372
28 217 0.9474655389785767
28 218 0.83560711145401
28 219 0.4362897574901581
28 220 0.19103838503360748
28 221 0.5655465126037598
28 222 0.8574474453926086
28 223 0.9400338530540466
28 224 0.46062058210372925
28 225 0.8985864520072937
28 226 0.9326176643371582
28 227 0.5185705423355103
28 228 0.9271125197410583
28 229 0.11287019401788712
28 230 0.9280868768692017
28 231 0.20003622770309448
28 232 0.22796785831451416
28 233 0.7085414528846741
28 234 0.2114032357931137
28 235 0.928292453289032
28 236 0.1412258893251419
28 238 0.901158332824707
28 239 0.9422573447227478
28 240 0.9362115263938904
28 241 0.9338947534561157
28 242 0.9058398008346558
28 243 0.9181935787200928
28 244 0.18033863604068756
28 245 0.16453516483306885
28 246 0.9148086905479431
28 247 0.9146392345428467
28 248 0.8826522827148438
28 249 0.9368035793304443
28 250 0.2738173007965088
28 251 0.901925265789032
28 252 0.8831576704978943
28 253 0.6970124840736389
28 254 0.9202150702476501
28 255 0.911316454410553
29 30 0.9184786677360535
29 31 0.3001647889614105
29 32 0.9517825245857239
29 33 0.9533310532569885
29 34 0.957207202911377
29 35 0.9013506770133972
29 36 0.9544742703437805
29 37 0.9566612839698792
29 38 0.8931998610496521
29 39 0.9497261047363281
29 40 0.9549272060394287
29 41 0.8000938296318054
29 42 0.9564773440361023
29 43 0.5137842297554016
29 44 0.9543797969818115
29 45 0.9615171551704407
29 46 0.9322237372398376
29 47 0.9648186564445496
29 48 0.9477869868278503
29 49 0.9489848613739014
29 50 0.5845727920532227
29 51 0.9643242359161377
29 52 0.5346105098724365
29 53 0.07926362752914429
29 54 0.8387642502784729
29 55 0.9587961435317993
29 56 0.962154746055603
29 57 0.9450265169143677
29 58 0.8555695414543152
29 59 0.8258581161499023
29 60 0.10378044843673706
29 61 0.8973375558853149
29 62 0.9472354650497437
29 63 0.7561069130897522
29 64 0.9626034498214722
29 65 0.4799700081348419
29 66 0.9609277248382568
29 67 0.9550215005874634
29 68 0.9544742703437805
29 69 0.9136491417884827
29 70 0.8569108843803406
29 71 0.9568959474563599
29 72 0.1617961972951889
29 73 0.9654071927070618
29 74 0.631173312664032
29 75 0.16273294389247894
29 76 0.9147390723228455
29 77 0.9642770290374756
29 78 0.7259308695793152
29 79 0.9473815560340881
29 80 0.953193187713623
29 81 0.21607470512390137
29 82 0.9472354650497437
29 83 0.9548814296722412
29 84 0.9322237372398376
29 85 0.9244582056999207
29 86 0.9612565636634827
29 87 0.4875597059726715
29 88 0.9629275798797607
29 89 0.95711350440979
29 90 0.9636884927749634
29 91 0.9157768487930298
29 92 0.2109087109565735
29 93 0.8985549807548523
29 94 0.9559754133224487
29 95 0.7863421440124512
29 96 0.9332008957862854
29 97 0.44507673382759094
29 98 0.9539754390716553
29 99 0.9550700187683105
29 100 0.9309123158454895
29 101 0.9575261473655701
29 102 0.9548366665840149
29 104 0.9609277248382568
29 105 0.885261595249176
29 106 0.9614713191986084
29 107 0.2506784498691559
29 109 0.9587961435317993
29 110 0.9313008189201355
29 111 0.08561450242996216
29 112 0.9530641436576843
29 113 0.7818437218666077
29 114 0.34185686707496643
29 115 0.6542719602584839
29 116 0.8148102760314941
29 117 0.18588967621326447
29 118 0.44640588760375977
29 119 0.31443488597869873
29 120 0.5561476945877075
29 121 0.9612565636634827
29 122 0.27838945388793945
29 123 0.24774645268917084
29 124 0.08561450242996216
29 125 0.3661140203475952
29 126 0.9373033046722412
29 127 0.9586172103881836
29 128 0.9598855376243591
29 129 0.89844810962677
29 130 0.12230643630027771
29 131 0.948708713054657
29 132 0.9532841444015503
29 133 0.17723886668682098
29 134 0.5914510488510132
29 135 0.9412464499473572
29 136 0.14885251224040985
29 137 0.4969954192638397
29 138 0.9511362314224243
29 139 0.968424379825592
29 140 0.6974751353263855
29 141 0.9731876850128174
29 142 0.6898974180221558
29 143 0.9449794292449951
29 144 0.9418516755104065
29 145 0.28395119309425354
29 146 0.743304431438446
29 147 0.9399428367614746
29 148 0.8408586978912354
29 149 0.9576139450073242
29 150 0.7704885005950928
29 151 0.949897825717926
29 152 0.8747066855430603
29 153 0.9445706009864807
29 154 0.9431399703025818
29 155 0.3091070055961609
29 156 0.8080843091011047
29 157 0.9146384000778198
29 158 0.9500852227210999
29 159 0.4589066207408905
29 160 0.10732346028089523
29 161 0.9511362314224243
29 162 0.45877140760421753
29 163 0.22655999660491943
29 164 0.07235746085643768
29 165 0.796960175037384
29 166 0.9593409299850464
29 167 0.9637349247932434
29 168 0.21707238256931305
29 169 0.08629130572080612
29 170 0.10732346028089523
29 171 0.9544265866279602
29 172 0.9368471503257751
29 173 0.780272364616394
29 174 0.9555683732032776
29 175 0.9577528834342957
29 176 0.6654298901557922
29 177 0.9224528670310974
29 178 0.9332475662231445
29 179 0.25068730115890503
29 180 0.9597944021224976
29 181 0.9576139450073242
29 182 0.958071768283844
29 183 0.3824421763420105
29 185 0.9596649408340454
29 186 0.9476945400238037
29 187 0.9494868516921997
29 188 0.8408678770065308
29 189 0.9582381248474121
29 190 0.9122969508171082
29 191 0.5318422913551331
29 192 0.934230387210846
29 193 0.9602094292640686
29 194 0.7983085513114929
29 195 0.663466215133667
29 196 0.9642770290374756
29 197 0.7361744046211243
29 198 0.9627329707145691
29 199 0.7051019668579102
29 200 0.9328845143318176
29 201 0.8233975768089294
29 202 0.2901490330696106
29 203 0.5248120427131653
29 204 0.962154746055603
29 205 0.9554286003112793
29 206 0.09513208270072937
29 207 0.9476945400238037
29 208 0.3316414952278137
29 209 0.9603387117385864
29 210 0.9721534848213196
29 212 0.9542453289031982
29 213 0.9294676184654236
29 214 0.9582510590553284
29 215 0.7166184782981873
29 216 0.9359967708587646
29 217 0.9637823104858398
29 218 0.8533475399017334
29 219 0.5116804838180542
29 220 0.1367427408695221
29 221 0.5452147722244263
29 222 0.8899701237678528
29 223 0.9549272060394287
29 224 0.5198270082473755
29 225 0.9170734882354736
29 226 0.9588913321495056
29 227 0.5178043842315674
29 228 0.9538789391517639
29 229 0.11772403120994568
29 230 0.9517335295677185
29 231 0.24030421674251556
29 232 0.23835839331150055
29 233 0.7440544366836548
29 234 0.3036315441131592
29 235 0.9685864448547363
29 236 0.1302434355020523
29 238 0.9090113043785095
29 239 0.9457259774208069
29 240 0.9582982063293457
29 241 0.9621071219444275
29 242 0.944718062877655
29 243 0.9312552213668823
29 244 0.18619392812252045
29 245 0.1716107875108719
29 246 0.9384173154830933
29 247 0.9281473159790039
29 248 0.9150585532188416
29 249 0.9517825245857239
29 250 0.3254425525665283
29 251 0.9055033922195435
29 252 0.9199632406234741
29 253 0.7288852334022522
29 254 0.9494868516921997
29 255 0.9372541308403015
30 31 0.2913742959499359
30 32 0.910706102848053
30 33 0.9199246764183044
30 34 0.9156069159507751
30 35 0.8859127163887024
30 36 0.9136371612548828
30 37 0.9313154816627502
30 38 0.8595348000526428
30 39 0.9242216944694519
30 40 0.9183499217033386
30 41 0.7774913907051086
30 42 0.9089991450309753
30 43 0.5289829969406128
30 44 0.9330351948738098
30 45 0.921434223651886
30 46 0.884069561958313
30 47 0.9230441451072693
30 48 0.9059869647026062
30 49 0.9118773341178894
30 50 0.5854827165603638
30 51 0.9236501455307007
30 52 0.4289839267730713
30 54 0.8110049962997437
30 55 0.9216519594192505
30 56 0.932036280632019
30 57 0.9216353893280029
30 58 0.8332347273826599
30 59 0.7693712711334229
30 60 0.1171218678355217
30 61 0.8468683362007141
30 62 0.9086694121360779
30 63 0.7502925395965576
30 64 0.9237316250801086
30 65 0.46154317259788513
30 66 0.9348099231719971
30 67 0.9142493605613708
30 68 0.9365325570106506
30 69 0.8897140026092529
30 70 0.8011233806610107
30 71 0.9059185981750488
30 72 0.16854995489120483
30 73 0.9248611330986023
30 74 0.6223242878913879
30 75 0.10292639583349228
30 76 0.884856641292572
30 77 0.9224376678466797
30 78 0.698494553565979
30 79 0.9134563207626343
30 80 0.9250293970108032
30 81 0.1996118128299713
30 82 0.9306710958480835
30 83 0.9094769954681396
30 84 0.9108595252037048
30 85 0.878908634185791
30 86 0.9217511415481567
30 87 0.5034757256507874
30 88 0.9139076471328735
30 89 0.9131596684455872
30 90 0.9281888008117676
30 91 0.8779104351997375
30 92 0.11219364404678345
30 93 0.9118244647979736
30 94 0.910706102848053
30 95 0.8035380840301514
30 96 0.922931969165802
30 97 0.38994601368904114
30 98 0.9327741265296936
30 99 0.9143840670585632
30 100 0.9360982775688171
30 101 0.9122768640518188
30 102 0.9170005321502686
30 104 0.917438268661499
30 105 0.8557592034339905
30 106 0.9191331267356873
30 107 0.161834716796875
30 109 0.9477364420890808
30 110 0.9149622321128845
30 111 0.07644706964492798
30 112 0.9070864319801331
30 113 0.7818484306335449
30 114 0.34473076462745667
30 115 0.7175379395484924
30 116 0.7626733779907227
30 117 0.18778100609779358
30 118 0.3147239685058594
30 119 0.29974842071533203
30 120 0.48658883571624756
30 121 0.9184786677360535
30 122 0.20880725979804993
30 123 0.1926572322845459
30 124 0.07644706964492798
30 125 0.31930869817733765
30 126 0.9364838004112244
30 127 0.9167771339416504
30 128 0.9163525700569153
30 129 0.8850468397140503
30 130 0.17837651073932648
30 131 0.9133045077323914
30 132 0.9307357668876648
30 133 0.18463721871376038
30 134 0.48346057534217834
30 135 0.89882493019104
30 136 0.15506596863269806
30 137 0.47342100739479065
30 138 0.9196737408638
30 139 0.9224376678466797
30 140 0.6465286612510681
30 141 0.925466001033783
30 142 0.6245627403259277
30 143 0.93365877866745
30 144 0.8995866775512695
30 145 0.25354626774787903
30 146 0.7090950012207031
30 147 0.9292201995849609
30 148 0.8305654525756836
30 149 0.9169079065322876
30 150 0.7346293330192566
30 151 0.9103849530220032
30 152 0.8325613141059875
30 153 0.9102542996406555
30 154 0.9059064984321594
30 155 0.3287184238433838
30 156 0.8050496578216553
30 157 0.8686097264289856
30 158 0.9196737408638
30 159 0.41308310627937317
30 160 0.06098366901278496
30 161 0.9152942895889282
30 162 0.4375004172325134
30 163 0.24073749780654907
30 164 0.07537783682346344
30 165 0.7428348064422607
30 166 0.9168281555175781
30 167 0.9283150434494019
30 168 0.20100755989551544
30 169 0.08989331871271133
30 170 0.10163945704698563
30 171 0.9135028719902039
30 172 0.893977701663971
30 173 0.72092205286026
30 174 0.9137720465660095
30 175 0.9151309132575989
30 176 0.6824472546577454
30 177 0.8862548470497131
30 178 0.8839229941368103
30 179 0.22690220177173615
30 180 0.9302274584770203
30 181 0.9125468730926514
30 182 0.9128900170326233
30 183 0.31872498989105225
30 185 0.9233255386352539
30 186 0.9211429357528687
30 187 0.9090699553489685
30 188 0.8301321268081665
30 189 0.9066863059997559
30 190 0.8853464722633362
30 191 0.5500278472900391
30 192 0.9205902814865112
30 193 0.9315686225891113
30 194 0.8498237729072571
30 195 0.6097539067268372
30 196 0.9224376678466797
30 197 0.6686185598373413
30 198 0.9219862222671509
30 199 0.6966420412063599
30 200 0.8872220516204834
30 201 0.7300704121589661
30 202 0.18600648641586304
30 203 0.4439522325992584
30 204 0.9331175088882446
30 205 0.92757248878479
30 206 0.09910312294960022
30 207 0.9255502820014954
30 208 0.31642553210258484
30 209 0.9145194888114929
30 210 0.9286981821060181
30 212 0.9206453561782837
30 213 0.8922356963157654
30 214 0.9221314191818237
30 215 0.7376621961593628
30 216 0.9360202550888062
30 217 0.9262828826904297
30 218 0.8510618209838867
30 219 0.5330392718315125
30 220 0.1766389012336731
30 221 0.5235716104507446
30 222 0.8789422512054443
30 223 0.9216258525848389
30 224 0.4609169661998749
30 225 0.8728207945823669
30 226 0.9208264946937561
30 227 0.39054691791534424
30 228 0.9205338954925537
30 229 0.0572311170399189
30 230 0.9083839058876038
30 231 0.11221916973590851
30 232 0.1412787139415741
30 233 0.6860033273696899
30 234 0.3233349025249481
30 235 0.9261144399642944
30 236 0.09045340120792389
30 238 0.8591055274009705
30 239 0.9105163812637329
30 240 0.9179144501686096
30 241 0.9210906028747559
30 242 0.9063981175422668
30 243 0.8921614289283752
30 244 0.06096078082919121
30 245 0.17877423763275146
30 246 0.9199535250663757
30 247 0.8938114643096924
30 248 0.8939619064331055
30 249 0.9249017834663391
30 250 0.35194265842437744
30 251 0.8538997769355774
30 252 0.9070237874984741
30 253 0.7097586989402771
30 254 0.9079734086990356
30 255 0.8897364139556885
31 32 0.2868214249610901
31 33 0.3040536940097809
31 34 0.27882447838783264
31 35 0.3174186944961548
31 36 0.279552698135376
31 37 0.29257792234420776
31 38 0.28368324041366577
31 39 0.30039316415786743
31 40 0.3073086440563202
31 41 0.29320669174194336
31 42 0.3006373643875122
31 43 0.29304924607276917
31 44 0.30747002363204956
31 45 0.27795812487602234
31 46 0.3036690950393677
31 47 0.28019124269485474
31 48 0.30942636728286743
31 49 0.2947349548339844
31 50 0.3672844171524048
31 51 0.2766735553741455
31 52 0.10590068250894547
31 54 0.1491745412349701
31 55 0.2820780575275421
31 56 0.30090928077697754
31 57 0.24820208549499512
31 58 0.23445524275302887
31 59 0.16986627876758575
31 61 0.2568521797657013
31 62 0.2923915982246399
31 63 0.38092026114463806
31 64 0.27428486943244934
31 65 0.46692395210266113
31 66 0.298760324716568
31 67 0.2964435815811157
31 68 0.28978022933006287
31 69 0.15456031262874603
31 70 0.177049919962883
31 71 0.28772860765457153
31 73 0.2797611653804779
31 74 0.345172643661499
31 76 0.27668970823287964
31 77 0.29384514689445496
31 78 0.31265097856521606
31 79 0.27431708574295044
31 80 0.308443546295166
31 81 0.06640159338712692
31 82 0.3027113080024719
31 83 0.27686846256256104
31 84 0.2862168550491333
31 85 0.19910047948360443
31 86 0.3001647889614105
31 87 0.263545960187912
31 88 0.30278414487838745
31 89 0.3066657483577728
31 90 0.3044469356536865
31 91 0.2983115613460541
31 93 0.3139955401420593
31 94 0.3038941025733948
31 95 0.3217128813266754
31 96 0.31133344769477844
31 97 0.260224848985672
31 98 0.2998509705066681
31 99 0.27571120858192444
31 100 0.2948185205459595
31 101 0.30747002363204956
31 102 0.30453386902809143
31 104 0.2817853093147278
31 105 0.3244633078575134
31 106 0.30539196729660034
31 109 0.295672208070755
31 110 0.2959692180156708
31 112 0.3025502562522888
31 113 0.2857023775577545
31 114 0.24944382905960083
31 115 0.21508243680000305
31 116 0.33276790380477905
31 118 0.19829370081424713
31 120 0.053283363580703735
31 121 0.303575724363327
31 124 0.15936382114887238
31 126 0.2845062017440796
31 127 0.29008379578590393
31 128 0.26820528507232666
31 129 0.3219696283340454
31 131 0.306969553232193
31 132 0.3009536564350128
31 135 0.30039316415786743
31 136 0.10540925711393356
31 137 0.10708993673324585
31 138 0.24307085573673248
31 139 0.30060020089149475
31 140 0.08029952645301819
31 141 0.2998315989971161
31 142 0.12147676199674606
31 143 0.28987932205200195
31 144 0.2723328471183777
31 145 0.0720749944448471
31 146 0.3458988666534424
31 147 0.24300281703472137
31 148 0.2570277452468872
31 149 0.28637105226516724
31 150 0.08507943153381348
31 151 0.29567408561706543
31 152 0.27622994780540466
31 153 0.29943087697029114
31 154 0.30548927187919617
31 155 0.2307494878768921
31 156 0.18632318079471588
31 157 0.2741343080997467
31 158 0.2944238483905792
31 159 0.15239010751247406
31 161 0.30469444394111633
31 162 0.4758397340774536
31 163 0.3542459309101105
31 165 0.056261662393808365
31 166 0.2887250781059265
31 167 0.3007546067237854
31 168 0.34569665789604187
31 170 0.06356417387723923
31 171 0.2934965491294861
31 172 0.29097291827201843
31 173 0.11086636036634445
31 174 0.28947755694389343
31 175 0.3058677911758423
31 176 0.40372487902641296
31 177 0.272525817155838
31 178 0.2620711922645569
31 179 0.14725688099861145
31 180 0.27216553688049316
31 181 0.3034169375896454
31 182 0.3073086440563202
31 185 0.29690930247306824
31 186 0.2825235426425934
31 187 0.28117498755455017
31 188 0.15128761529922485
31 189 0.306969553232193
31 190 0.2889725863933563
31 191 0.27618932723999023
31 192 0.3081749379634857
31 193 0.29334282875061035
31 194 0.29661568999290466
31 195 0.3593716621398926
31 196 0.30397772789001465
31 197 0.36360570788383484
31 198 0.3009536564350128
31 199 0.2962205708026886
31 200 0.25758811831474304
31 201 0.1774684190750122
31 203 0.1799536496400833
31 204 0.29752829670906067
31 205 0.2869720458984375
31 207 0.2790781259536743
31 208 0.09086738526821136
31 209 0.3060268759727478
31 210 0.30320048332214355
31 212 0.308443546295166
31 213 0.28319254517555237
31 214 0.2924256920814514
31 215 0.2958400845527649
31 216 0.3000141680240631
31 217 0.2936944365501404
31 218 0.28676965832710266
31 219 0.17129002511501312
31 221 0.2314033955335617
31 222 0.24985481798648834
31 223 0.2731632590293884
31 224 0.05170445144176483
31 225 0.22626003623008728
31 226 0.2950594127178192
31 227 0.16323214769363403
31 228 0.29706501960754395
31 230 0.2871228754520416
31 233 0.053074486553668976
31 235 0.29675379395484924
31 238 0.2069186419248581
31 239 0.2953600585460663
31 240 0.3057089149951935
31 241 0.2978349030017853
31 242 0.3021817207336426
31 243 0.27862560749053955
31 244 0.05198752135038376
31 246 0.29459595680236816
31 247 0.2671852707862854
31 248 0.31020036339759827
31 249 0.29706501960754395
31 251 0.30464187264442444
31 252 0.2747023403644562
31 253 0.050129637122154236
31 254 0.28117498755455017
31 255 0.30912840366363525
32 33 0.9543308019638062
32 34 0.9571661949157715
32 35 0.8989705443382263
32 36 0.9575705528259277
32 37 0.9587100148200989
32 38 0.8919013142585754
32 39 0.9390503168106079
32 40 0.9527806639671326
32 41 0.8046872615814209
32 42 0.951181173324585
32 43 0.5103206038475037
32 44 0.951181173324585
32 45 0.961483895778656
32 46 0.9353466629981995
32 47 0.9647931456565857
32 48 0.9477243423461914
32 49 0.9489269256591797
32 50 0.5574025511741638
32 51 0.9725937247276306
32 52 0.5731394290924072
32 53 0.05289783701300621
32 54 0.8311992287635803
32 55 0.9608460664749146
32 56 0.9610857963562012
32 57 0.9502550363540649
32 58 0.8692498803138733
32 59 0.8340081572532654
32 60 0.06925952434539795
32 61 0.9060606956481934
32 62 0.9471717476844788
32 63 0.7462580800056458
32 64 0.9667348265647888
32 65 0.44133979082107544
32 66 0.956718921661377
32 67 0.9612586498260498
32 68 0.9523321986198425
32 69 0.9112935066223145
32 70 0.8693858981132507
32 71 0.9494783878326416
32 72 0.12957270443439484
32 73 0.9653838276863098
32 74 0.6487457752227783
32 75 0.17453959584236145
32 76 0.9309601187705994
32 77 0.9704779386520386
32 78 0.7334585189819336
32 79 0.9504826068878174
32 80 0.9478737115859985
32 81 0.23670709133148193
32 82 0.9471717476844788
32 83 0.9495803117752075
32 84 0.9299834370613098
32 85 0.9254277348518372
32 86 0.9528307318687439
32 87 0.4283941984176636
32 88 0.9555734992027283
32 89 0.9560230374336243
32 90 0.9678177833557129
32 91 0.9396556615829468
32 92 0.2290983945131302
32 93 0.8983882069587708
32 94 0.9569779634475708
32 95 0.7984299659729004
32 96 0.9320296049118042
32 97 0.4181254804134369
32 98 0.9612586498260498
32 99 0.9602557420730591
32 100 0.9221814274787903
32 101 0.9522311091423035
32 102 0.9484773874282837
32 104 0.9577622413635254
32 105 0.889551043510437
32 106 0.9583086371421814
32 107 0.29335400462150574
32 109 0.9556241035461426
32 110 0.9182012677192688
32 112 0.9456112384796143
32 113 0.8002234697341919
32 114 0.37233036756515503
32 115 0.6684778928756714
32 116 0.8241866827011108
32 117 0.17480678856372833
32 118 0.4513879120349884
32 119 0.33852046728134155
32 120 0.5312596559524536
32 121 0.959119975566864
32 122 0.2340923696756363
32 123 0.2829367220401764
32 124 0.061217352747917175
32 125 0.34945154190063477
32 126 0.9350875616073608
32 127 0.9512324333190918
32 128 0.9608922004699707
32 129 0.9205132126808167
32 130 0.17140857875347137
32 131 0.9401642084121704
32 132 0.9563858509063721
32 133 0.17742474377155304
32 134 0.5501547455787659
32 135 0.9517831206321716
32 136 0.1490086168050766
32 137 0.5401056408882141
32 138 0.9594982862472534
32 139 0.9621744155883789
32 140 0.692400336265564
32 141 0.965925931930542
32 142 0.7049789428710938
32 143 0.9406679272651672
32 144 0.9460175633430481
32 145 0.2694827914237976
32 146 0.7277305722236633
32 147 0.9345277547836304
32 148 0.865318775177002
32 149 0.9617612361907959
32 150 0.7686818838119507
32 151 0.9477243423461914
32 152 0.8616698980331421
32 153 0.9476765394210815
32 154 0.9334609508514404
32 155 0.28686851263046265
32 156 0.8320789933204651
32 157 0.8956451416015625
32 158 0.9573941230773926
32 159 0.42816734313964844
32 160 0.10743601620197296
32 161 0.9479253888130188
32 162 0.43183448910713196
32 163 0.19050998985767365
32 164 0.07243335247039795
32 165 0.8385502099990845
32 166 0.9582594037055969
32 167 0.9709765315055847
32 168 0.18832670152187347
32 169 0.09717953205108643
32 170 0.09766910970211029
32 171 0.9606713652610779
32 172 0.9495391845703125
32 173 0.8012804985046387
32 174 0.9628499150276184
32 175 0.9577129483222961
32 176 0.6808977723121643
32 177 0.9255955815315247
32 178 0.9277833700180054
32 179 0.2509502172470093
32 180 0.9587100148200989
32 181 0.9533798694610596
32 182 0.9506819844245911
32 183 0.36802351474761963
32 185 0.9512324333190918
32 186 0.9423356652259827
32 187 0.955751359462738
32 188 0.8111628890037537
32 189 0.9433440566062927
32 190 0.9132537245750427
32 191 0.5034652948379517
32 192 0.9266006946563721
32 193 0.9517825245857239
32 194 0.8166270852088928
32 195 0.6304170489311218
32 196 0.9632123112678528
32 197 0.752909243106842
32 198 0.9490290284156799
32 199 0.7016401290893555
32 200 0.956326961517334
32 201 0.7982318997383118
32 202 0.3191794455051422
32 203 0.4799363911151886
32 204 0.9652417898178101
32 205 0.9564306139945984
32 206 0.11254672706127167
32 207 0.945512056350708
32 208 0.2885514199733734
32 209 0.9561212062835693
32 210 0.9669612050056458
32 212 0.9468205571174622
32 213 0.9358144998550415
32 214 0.9644807577133179
32 215 0.6989030838012695
32 216 0.9284019470214844
32 217 0.971017599105835
32 218 0.8601175546646118
32 219 0.4494553506374359
32 220 0.18616518378257751
32 221 0.5706758499145508
32 222 0.8931617140769958
32 223 0.9590765833854675
32 224 0.49653828144073486
32 225 0.9158623814582825
32 226 0.9630236625671387
32 227 0.5090580582618713
32 228 0.9538300037384033
32 229 0.1178474947810173
32 230 0.9516811370849609
32 231 0.2447037547826767
32 232 0.2509502172470093
32 233 0.7393980026245117
32 234 0.23978276550769806
32 235 0.9517825245857239
32 236 0.1376233696937561
32 238 0.9198317527770996
32 239 0.9572721123695374
32 240 0.9613909721374512
32 241 0.961035966873169
32 242 0.9339675307273865
32 243 0.9440051913261414
32 244 0.19704000651836395
32 245 0.17179076373577118
32 246 0.9351411461830139
32 247 0.9312815070152283
32 248 0.9061567783355713
32 249 0.9643231630325317
32 250 0.28544872999191284
32 251 0.9295824766159058
32 252 0.9066756367683411
32 253 0.7184457778930664
32 254 0.9462676048278809
32 255 0.9393044710159302
33 34 0.9566232562065125
33 35 0.8950063586235046
33 36 0.9654110074043274
33 37 0.955029308795929
33 38 0.9024339318275452
33 39 0.9384817481040955
33 40 0.9616799354553223
33 41 0.7788153886795044
33 42 0.9516806602478027
33 43 0.48055392503738403
33 44 0.9495798349380493
33 45 0.9578197598457336
33 46 0.9283254146575928
33 47 0.962185800075531
33 48 0.9429364800453186
33 49 0.9631238579750061
33 50 0.5993921160697937
33 51 0.9627301692962646
33 52 0.5698224306106567
33 53 0.07938841730356216
33 54 0.8243935704231262
33 55 0.9550809264183044
33 56 0.9626299738883972
33 57 0.9401547312736511
33 58 0.8487775921821594
33 59 0.8198705911636353
33 60 0.09528185427188873
33 61 0.8954133987426758
33 62 0.9423807859420776
33 63 0.7745994329452515
33 64 0.9589132070541382
33 65 0.47637519240379333
33 66 0.9561774730682373
33 67 0.9607157707214355
33 68 0.9528323411941528
33 69 0.9040356874465942
33 70 0.8513104319572449
33 71 0.9468173980712891
33 72 0.14260482788085938
33 73 0.9638180732727051
33 74 0.6706200242042542
33 75 0.18045228719711304
33 76 0.9107258319854736
33 77 0.9637181758880615
33 78 0.7555068135261536
33 79 0.9520360231399536
33 80 0.9546939134597778
33 81 0.2572478652000427
33 82 0.9455537796020508
33 83 0.9521809220314026
33 84 0.9272521734237671
33 85 0.9117025136947632
33 86 0.9522823095321655
33 87 0.4797976016998291
33 88 0.9560753703117371
33 89 0.9586203694343567
33 90 0.9600052237510681
33 91 0.9194024801254272
33 92 0.23371317982673645
33 93 0.906627893447876
33 94 0.950131356716156
33 95 0.7938407063484192
33 96 0.9249899983406067
33 97 0.43663331866264343
33 98 0.9533820152282715
33 99 0.9565736651420593
33 100 0.9215865731239319
33 101 0.9495798349380493
33 102 0.9489754438400269
33 104 0.9561774730682373
33 105 0.9023484587669373
33 106 0.9577685594558716
33 107 0.24046440422534943
33 109 0.9561258554458618
33 110 0.9176000356674194
33 111 0.08574929088354111
33 112 0.9429364800453186
33 113 0.7893492579460144
33 114 0.3369167447090149
33 115 0.6522961258888245
33 116 0.8136570453643799
33 117 0.18054047226905823
33 118 0.4651736915111542
33 119 0.33869820833206177
33 120 0.5206165313720703
33 121 0.9512335062026978
33 122 0.2713923752307892
33 123 0.27609553933143616
33 124 0.08574929088354111
33 125 0.3695330023765564
33 126 0.9441129565238953
33 127 0.950682520866394
33 128 0.9572213292121887
33 129 0.8987503051757812
33 130 0.17149858176708221
33 131 0.9427789449691772
33 132 0.9579395651817322
33 133 0.17160063982009888
33 134 0.5626757740974426
33 135 0.9512212872505188
33 136 0.16205093264579773
33 137 0.511336088180542
33 138 0.9484230875968933
33 139 0.9616411924362183
33 140 0.6695265173912048
33 141 0.9695407152175903
33 142 0.667998731136322
33 143 0.9390397667884827
33 144 0.9433345198631287
33 145 0.28439825773239136
33 146 0.7172045707702637
33 147 0.937153160572052
33 148 0.8504392504692078
33 149 0.9549288153648376
33 150 0.7442342042922974
33 151 0.9471648931503296
33 152 0.8493242859840393
33 153 0.9418247938156128
33 154 0.9339510798454285
33 155 0.32249340415000916
33 156 0.8178889155387878
33 157 0.9005516171455383
33 158 0.9494757652282715
33 159 0.4707851707935333
33 160 0.10749242454767227
33 161 0.9484230875968933
33 162 0.45720764994621277
33 163 0.23145504295825958
33 164 0.07247138023376465
33 165 0.803157389163971
33 166 0.9598069190979004
33 167 0.9621351957321167
33 168 0.21258270740509033
33 169 0.09723056107759476
33 170 0.10749242454767227
33 171 0.950682520866394
33 172 0.936191976070404
33 173 0.7751882672309875
33 174 0.9528842568397522
33 175 0.9561258554458618
33 176 0.6945552825927734
33 177 0.9130228757858276
33 178 0.9271961450576782
33 179 0.25519806146621704
33 180 0.9592134952545166
33 181 0.9633145332336426
33 182 0.9522311091423035
33 183 0.34844672679901123
33 185 0.9517319202423096
33 186 0.9428304433822632
33 187 0.9509817361831665
33 188 0.8250541090965271
33 189 0.9448999166488647
33 190 0.9049578905105591
33 191 0.5442595481872559
33 192 0.9238569140434265
33 193 0.9596236348152161
33 194 0.7920694351196289
33 195 0.6660453677177429
33 196 0.9616411924362183
33 197 0.7493118047714233
33 198 0.9484758377075195
33 199 0.734236478805542
33 200 0.932212769985199
33 201 0.816012978553772
33 202 0.27463847398757935
33 203 0.4564753770828247
33 204 0.96366947889328
33 205 0.9527311325073242
33 206 0.12126781046390533
33 207 0.9428304433822632
33 208 0.33837229013442993
33 209 0.954532265663147
33 210 0.9643615484237671
33 212 0.9599626660346985
33 213 0.9255561232566833
33 214 0.954532265663147
33 215 0.7319595813751221
33 216 0.9288894534111023
33 217 0.962185800075531
33 218 0.8676230907440186
33 219 0.492229700088501
33 220 0.18626293540000916
33 221 0.5834267139434814
33 222 0.9060579538345337
33 223 0.950131356716156
33 224 0.49878621101379395
33 225 0.9152563214302063
33 226 0.9708288311958313
33 227 0.5056076645851135
33 228 0.9522311091423035
33 229 0.12577000260353088
33 230 0.9500789642333984
33 231 0.2531316578388214
33 232 0.2510819733142853
33 233 0.716667890548706
33 234 0.297351598739624
33 235 0.9512335062026978
33 236 0.1159542053937912
33 238 0.9137332439422607
33 239 0.9461588859558105
33 240 0.961895763874054
33 241 0.9625812768936157
33 242 0.9397977590560913
33 243 0.9402174353599548
33 244 0.19181527197360992
33 245 0.1776103377342224
33 246 0.9345665574073792
33 247 0.9317704439163208
33 248 0.9110177755355835
33 249 0.9543308019638062
33 250 0.3011202812194824
33 251 0.9058270454406738
33 252 0.9192178249359131
33 253 0.7244279384613037
33 254 0.9457101225852966
33 255 0.9430015683174133
34 35 0.9018440246582031
34 36 0.9608796834945679
34 37 0.959916889667511
34 38 0.9026502966880798
34 39 0.9467566609382629
34 40 0.955076277256012
34 41 0.7975922226905823
34 42 0.9576687812805176
34 43 0.4862700402736664
34 44 0.9555777311325073
34 45 0.9647349715232849
34 46 0.9367861747741699
34 47 0.9700667262077332
34 48 0.9542928338050842
34 49 0.9523105621337891
34 50 0.5533484220504761
34 51 0.9706021547317505
34 52 0.56534743309021
34 53 0.07901579141616821
34 54 0.8301349878311157
34 55 0.9620386362075806
34 56 0.9653544425964355
34 57 0.9484013915061951
34 58 0.86678147315979
34 59 0.8293206095695496
34 60 0.11207729578018188
34 61 0.9056028127670288
34 62 0.9474319219589233
34 63 0.7391713857650757
34 64 0.9637388586997986
34 65 0.4265088438987732
34 66 0.9631180763244629
34 67 0.9582920074462891
34 68 0.9577497839927673
34 69 0.917392373085022
34 70 0.8830518126487732
34 71 0.9560006260871887
34 72 0.16129031777381897
34 73 0.969609260559082
34 74 0.6475706696510315
34 75 0.16801786422729492
34 76 0.9227347373962402
34 77 0.9684972763061523
34 78 0.738484799861908
34 79 0.9559623599052429
34 80 0.9512617588043213
34 81 0.2519763112068176
34 82 0.9474319219589233
34 83 0.9644483327865601
34 84 0.9357179999351501
34 85 0.9172155857086182
34 86 0.957207202911377
34 87 0.445709228515625
34 88 0.9619991183280945
34 89 0.9582920074462891
34 90 0.9668866395950317
34 91 0.922694742679596
34 92 0.23261621594429016
34 93 0.9012680053710938
34 94 0.9561212062835693
34 95 0.795099675655365
34 96 0.9334947466850281
34 97 0.4323086142539978
34 98 0.9582920074462891
34 99 0.9614588618278503
34 100 0.9322980642318726
34 101 0.9555777311325073
34 102 0.9560397863388062
34 104 0.9651960134506226
34 105 0.8891878128051758
34 106 0.962618887424469
34 107 0.29565006494522095
34 109 0.9599584937095642
34 110 0.9251540899276733
34 111 0.07315441220998764
34 112 0.9490321278572083
34 113 0.7981348037719727
34 114 0.3735036849975586
34 115 0.6612018942832947
34 116 0.8146873116493225
34 117 0.17407765984535217
34 118 0.44501009583473206
34 119 0.33415138721466064
34 120 0.563467800617218
34 121 0.9582510590553284
34 122 0.2738187611103058
34 123 0.2991490066051483
34 124 0.08534681797027588
34 125 0.3593108355998993
34 126 0.9396816492080688
34 127 0.9587531089782715
34 128 0.9693518280982971
34 129 0.8978531956672668
34 130 0.17069363594055176
34 131 0.9446869492530823
34 132 0.9534433484077454
34 133 0.17079521715641022
34 134 0.5913410186767578
34 135 0.9456999897956848
34 136 0.16129031777381897
34 137 0.5205028057098389
34 138 0.9534008502960205
34 139 0.9664300680160522
34 140 0.7083040475845337
34 141 0.9711757898330688
34 142 0.7163366675376892
34 143 0.9451930522918701
34 144 0.953676164150238
34 145 0.2646826207637787
34 146 0.7233380675315857
34 147 0.9391287565231323
34 148 0.8523175716400146
34 149 0.9598363637924194
34 150 0.7837014198303223
34 151 0.9479799270629883
34 152 0.8650237917900085
34 153 0.9500434398651123
34 154 0.938066303730011
34 155 0.31776997447013855
34 156 0.831034779548645
34 157 0.9095709919929504
34 158 0.9544485807418823
34 159 0.4485888183116913
34 160 0.10698790103197098
34 161 0.9523531198501587
34 162 0.4095555245876312
34 163 0.19423240423202515
34 164 0.05770498141646385
34 165 0.83628249168396
34 166 0.9636179804801941
34 167 0.9658924341201782
34 168 0.20677617192268372
34 169 0.09677419811487198
34 170 0.09726172685623169
34 171 0.9556199312210083
34 172 0.9455786347389221
34 173 0.8105043172836304
34 174 0.9661293625831604
34 175 0.96099853515625
34 176 0.6692326664924622
34 177 0.9293168187141418
34 178 0.9399538040161133
34 179 0.24170993268489838
34 180 0.959916889667511
34 181 0.9619230031967163
34 182 0.955076277256012
34 183 0.41814124584198
34 185 0.9566643834114075
34 186 0.9468402862548828
34 187 0.9507155418395996
34 188 0.8175264000892639
34 189 0.9446869492530823
34 190 0.9203621745109558
34 191 0.5032862424850464
34 192 0.9323811531066895
34 193 0.957207202911377
34 194 0.7895952463150024
34 195 0.6491720676422119
34 196 0.9674636721611023
34 197 0.7524181604385376
34 198 0.9555364847183228
34 199 0.7042919993400574
34 200 0.943816065788269
34 201 0.8158858418464661
34 202 0.3114911913871765
34 203 0.5074366331100464
34 204 0.9674237966537476
34 205 0.9555777311325073
34 206 0.12069862335920334
34 207 0.9457858800888062
34 208 0.32442501187324524
34 209 0.9614984393119812
34 210 0.9691138863563538
34 212 0.9512617588043213
34 213 0.9351209998130798
34 214 0.9594172835350037
34 215 0.6931586861610413
34 216 0.9352054595947266
34 217 0.9690335988998413
34 218 0.8506793975830078
34 219 0.47379031777381897
34 220 0.19084128737449646
34 221 0.5488213300704956
34 222 0.8871874809265137
34 223 0.955076277256012
34 224 0.5162237286567688
34 225 0.9293527603149414
34 226 0.9641962647438049
34 227 0.5494877099990845
34 228 0.9561212062835693
34 229 0.13300341367721558
34 230 0.9571260213851929
34 231 0.24781331419944763
34 232 0.24990348517894745
34 233 0.7512027025222778
34 234 0.2925928235054016
34 235 0.959294855594635
34 236 0.14426246285438538
34 238 0.9290963411331177
34 239 0.9532792568206787
34 240 0.9615389704704285
34 241 0.9653134942054749
34 242 0.9375125169754028
34 243 0.9400677680969238
34 244 0.19621814787387848
34 245 0.1824791580438614
34 246 0.9460896253585815
34 247 0.9295487999916077
34 248 0.9154708981513977
34 249 0.9561212062835693
34 250 0.3120659589767456
34 251 0.9180275201797485
34 252 0.9138115644454956
34 253 0.723816990852356
34 254 0.9549129605293274
34 255 0.9449530839920044
35 36 0.8964522480964661
35 37 0.9244019985198975
35 38 0.8335585594177246
35 39 0.903437614440918
35 40 0.8967535495758057
35 41 0.7905600666999817
35 42 0.9083150029182434
35 43 0.5496595501899719
35 44 0.9316051006317139
35 45 0.9133472442626953
35 46 0.9087575674057007
35 47 0.9106883406639099
35 48 0.9140943884849548
35 49 0.8922774195671082
35 50 0.4622553884983063
35 51 0.9135076999664307
35 52 0.40490618348121643
35 53 0.08381981402635574
35 54 0.7761054635047913
35 55 0.9168209433555603
35 56 0.90989750623703
35 57 0.9210115075111389
35 58 0.8937004208564758
35 59 0.7630412578582764
35 60 0.12803688645362854
35 61 0.8725816011428833
35 62 0.9101142287254333
35 63 0.6730994582176208
35 64 0.9102056622505188
35 65 0.47081300616264343
35 66 0.9324013590812683
35 67 0.8970898985862732
35 68 0.9152665734291077
35 69 0.8739843964576721
35 70 0.8156728744506836
35 71 0.9151576161384583
35 72 0.1642526090145111
35 73 0.9158557653427124
35 74 0.5326640605926514
35 76 0.9039832353591919
35 77 0.9078664183616638
35 78 0.6604435443878174
35 79 0.8894098401069641
35 80 0.9034030437469482
35 81 0.12933677434921265
35 82 0.9045307040214539
35 83 0.8954768180847168
35 84 0.9166893362998962
35 85 0.8737204074859619
35 86 0.9046726226806641
35 87 0.4795619249343872
35 88 0.9078356623649597
35 89 0.8981960415840149
35 90 0.910365879535675
35 91 0.8577407598495483
35 92 0.05219899117946625
35 93 0.8435853719711304
35 94 0.9022959470748901
35 95 0.7614759206771851
35 96 0.9175705909729004
35 97 0.44411033391952515
35 98 0.9147883057594299
35 99 0.9060989022254944
35 100 0.9046660661697388
35 101 0.9038788080215454
35 102 0.9197468161582947
35 104 0.914767324924469
35 105 0.8355503678321838
35 106 0.9120901226997375
35 107 0.2762886881828308
35 109 0.9146144390106201
35 110 0.9139161109924316
35 111 0.06466839462518692
35 112 0.9096299409866333
35 113 0.7525866031646729
35 114 0.37885966897010803
35 115 0.6887066960334778
35 116 0.7626217007637024
35 117 0.1548771858215332
35 118 0.3170947730541229
35 119 0.291729599237442
35 120 0.5785061120986938
35 121 0.8991360664367676
35 122 0.25513947010040283
35 123 0.26198726892471313
35 124 0.05173471197485924
35 125 0.18907752633094788
35 126 0.8807993531227112
35 127 0.9084702730178833
35 128 0.9026439189910889
35 129 0.8479191660881042
35 130 0.15520413219928741
35 131 0.9114272594451904
35 132 0.8937276005744934
35 133 0.1624365597963333
35 134 0.5700990557670593
35 135 0.8821406960487366
35 136 0.136877179145813
35 137 0.5582833886146545
35 138 0.906895101070404
35 139 0.9199274182319641
35 140 0.7237663865089417
35 141 0.9110133647918701
35 142 0.7250034213066101
35 143 0.9152764678001404
35 144 0.8829624652862549
35 145 0.16768497228622437
35 146 0.7629967927932739
35 147 0.9026889801025391
35 148 0.8020167946815491
35 149 0.8975589275360107
35 150 0.7940625548362732
35 151 0.8928882479667664
35 152 0.8881340622901917
35 153 0.903895378112793
35 154 0.9297358393669128
35 155 0.2860155701637268
35 156 0.7940475344657898
35 157 0.8992974162101746
35 158 0.8991153240203857
35 159 0.27091163396835327
35 161 0.9124520421028137
35 162 0.43686938285827637
35 163 0.2204163521528244
35 165 0.7253567576408386
35 166 0.9042151570320129
35 167 0.9116238355636597
35 168 0.18874111771583557
35 169 0.057032160460948944
35 170 0.09285754710435867
35 171 0.9040387272834778
35 172 0.886118471622467
35 173 0.7304810285568237
35 174 0.9054661393165588
35 175 0.9113045930862427
35 176 0.6038227677345276
35 177 0.904240608215332
35 178 0.8689186573028564
35 179 0.20860101282596588
35 180 0.9012091755867004
35 181 0.8964522480964661
35 182 0.9022959470748901
35 183 0.4409542977809906
35 185 0.9062544703483582
35 186 0.9082160592079163
35 187 0.8938624858856201
35 188 0.7948536276817322
35 189 0.8946319222450256
35 190 0.9056715369224548
35 191 0.4034704566001892
35 192 0.8981193900108337
35 193 0.8980287909507751
35 194 0.8178152441978455
35 195 0.5557734370231628
35 196 0.9100592732429504
35 197 0.6716942191123962
35 198 0.9225932955741882
35 199 0.6169219613075256
35 200 0.8814160823822021
35 201 0.7319350242614746
35 202 0.3405444622039795
35 203 0.5403742790222168
35 204 0.9077023267745972
35 205 0.9049878120422363
35 206 0.07316393405199051
35 207 0.9026235938072205
35 208 0.2130449265241623
35 209 0.9073632955551147
35 210 0.9142942428588867
35 212 0.8922774195671082
35 213 0.9216057062149048
35 214 0.9161940813064575
35 215 0.6317590475082397
35 216 0.8980672359466553
35 217 0.9216472506523132
35 218 0.7795140147209167
35 219 0.5389539003372192
35 220 0.19665996730327606
35 221 0.39814189076423645
35 222 0.8134962320327759
35 223 0.9122721552848816
35 224 0.505646824836731
35 225 0.8699401617050171
35 226 0.9028100371360779
35 227 0.4867275655269623
35 228 0.9011874794960022
35 229 0.1161915734410286
35 230 0.9076828360557556
35 231 0.0876266360282898
35 232 0.19556346535682678
35 233 0.7423136234283447
35 234 0.29611146450042725
35 235 0.9035652875900269
35 236 0.10712333023548126
35 238 0.8500803709030151
35 239 0.8885952234268188
35 240 0.9053178429603577
35 241 0.9064401984214783
35 242 0.8761172890663147
35 243 0.8830277323722839
35 244 0.16876854002475739
35 245 0.1633276790380478
35 246 0.9034741520881653
35 247 0.8924789428710938
35 248 0.8854759931564331
35 249 0.9000790119171143
35 250 0.34414947032928467
35 251 0.8412039279937744
35 252 0.8755596280097961
35 253 0.6583459973335266
35 254 0.8949756026268005
35 255 0.8749897480010986
36 37 0.9582484364509583
36 38 0.9016599655151367
36 39 0.9407539963722229
36 40 0.9722379446029663
36 41 0.7909287214279175
36 42 0.9528323411941528
36 43 0.45557013154029846
36 44 0.9517841339111328
36 45 0.9599741101264954
36 46 0.929594099521637
36 47 0.9663854837417603
36 48 0.9472911357879639
36 49 0.968467652797699
36 50 0.5946693420410156
36 51 0.9648550152778625
36 52 0.5758498311042786
36 53 0.07922215759754181
36 54 0.8407344818115234
36 55 0.9572518467903137
36 56 0.9637261033058167
36 57 0.9434743523597717
36 58 0.8504807949066162
36 59 0.8230018615722656
36 60 0.11236999928951263
36 61 0.8946480751037598
36 62 0.946739912033081
36 63 0.7636802792549133
36 64 0.9610608816146851
36 65 0.4471588134765625
36 66 0.958341658115387
36 67 0.9628857374191284
36 68 0.9539749026298523
36 69 0.9109653830528259
36 70 0.8576183319091797
36 71 0.9490385055541992
36 72 0.09055846929550171
36 73 0.9659363031387329
36 74 0.6538666486740112
36 75 0.18007436394691467
36 76 0.91317218542099
36 77 0.9710266590118408
36 78 0.7606802582740784
36 79 0.9521463513374329
36 80 0.9537460803985596
36 81 0.2526344060897827
36 82 0.9520172476768494
36 83 0.9533331394195557
36 84 0.929594099521637
36 85 0.9228836297988892
36 86 0.9544742703437805
36 87 0.4468732476234436
36 88 0.9561607241630554
36 89 0.9660221338272095
36 90 0.9621464014053345
36 91 0.9283734560012817
36 92 0.23322372138500214
36 93 0.8969775438308716
36 94 0.9533798694610596
36 95 0.792178213596344
36 96 0.9273461103439331
36 97 0.4265938699245453
36 98 0.9555673599243164
36 99 0.9618811011314392
36 100 0.9250409603118896
36 101 0.9528323411941528
36 102 0.9501376152038574
36 104 0.958341658115387
36 105 0.8915100693702698
36 106 0.9599272608757019
36 107 0.27172034978866577
36 109 0.9572518467903137
36 110 0.9221648573875427
36 111 0.08556970953941345
36 112 0.9451813101768494
36 113 0.7876961827278137
36 114 0.29794323444366455
36 115 0.6419309973716736
36 116 0.8228924870491028
36 117 0.15201199054718018
36 118 0.45969268679618835
36 119 0.3379889130592346
36 120 0.5376914739608765
36 121 0.9534277319908142
36 122 0.27082398533821106
36 123 0.2859800159931183
36 124 0.07334546744823456
36 125 0.3687590956687927
36 126 0.9378774762153625
36 127 0.9528800845146179
36 128 0.9625083804130554
36 129 0.9001980423927307
36 130 0.14669093489646912
36 131 0.9429210424423218
36 132 0.9622293710708618
36 133 0.1535266488790512
36 134 0.5771914124488831
36 135 0.9651203751564026
36 136 0.116432324051857
36 137 0.5257278084754944
36 138 0.9527395367622375
36 139 0.9637725353240967
36 140 0.6797186732292175
36 141 0.9706112742424011
36 142 0.6795016527175903
36 143 0.9413085579872131
36 144 0.9498206377029419
36 145 0.2838026285171509
36 146 0.7197845578193665
36 147 0.9383860230445862
36 148 0.8545435070991516
36 149 0.9602510333061218
36 150 0.7505069375038147
36 151 0.9494009017944336
36 152 0.8510286211967468
36 153 0.9440764784812927
36 154 0.9351905584335327
36 155 0.3153816759586334
36 156 0.818608820438385
36 157 0.9030925631523132
36 158 0.9495882391929626
36 159 0.4697992205619812
36 160 0.10726731270551682
36 161 0.9506386518478394
36 162 0.42431262135505676
36 163 0.22644147276878357
36 164 0.07231960445642471
36 165 0.827369213104248
36 166 0.9661346673965454
36 167 0.9673781394958496
36 168 0.20249490439891815
36 169 0.09702693670988083
36 170 0.10726731270551682
36 171 0.9528800845146179
36 172 0.9406083822250366
36 173 0.7874234914779663
36 174 0.9550684094429016
36 175 0.961422860622406
36 176 0.6754046082496643
36 177 0.9187124371528625
36 178 0.9316871762275696
36 179 0.2546636164188385
36 180 0.9613799452781677
36 181 0.9748954176902771
36 182 0.9554752707481384
36 183 0.37730997800827026
36 185 0.954974353313446
36 186 0.9429702162742615
36 187 0.9510942697525024
36 188 0.8221046924591064
36 189 0.946095883846283
36 190 0.9074411988258362
36 191 0.5373418927192688
36 192 0.926220178604126
36 193 0.9576139450073242
36 194 0.7879172563552856
36 195 0.6478045582771301
36 196 0.9637725353240967
36 197 0.7557113766670227
36 198 0.9517361521720886
36 199 0.721512496471405
36 200 0.933464527130127
36 201 0.8217293620109558
36 202 0.31230470538139343
36 203 0.4732668995857239
36 204 0.9658008813858032
36 205 0.9559770226478577
36 206 0.12101384997367859
36 207 0.9503702521324158
36 208 0.3376636505126953
36 209 0.9619230031967163
36 210 0.9695775508880615
36 212 0.954797625541687
36 213 0.9279086589813232
36 214 0.9567064642906189
36 215 0.7290083169937134
36 216 0.9312256574630737
36 217 0.9643139243125916
36 218 0.855247437953949
36 219 0.47300630807876587
36 220 0.18040598928928375
36 221 0.5715548396110535
36 222 0.9086700081825256
36 223 0.9533798694610596
36 224 0.5056738257408142
36 225 0.9198479056358337
36 226 0.9760798215866089
36 227 0.5212433934211731
36 228 0.9544275999069214
36 229 0.11766243726015091
36 230 0.9554306864738464
36 231 0.2526015341281891
36 232 0.2505561411380768
36 233 0.7300946712493896
36 234 0.27312541007995605
36 235 0.9555208086967468
36 236 0.12294332683086395
36 238 0.9260497093200684
36 239 0.9473387598991394
36 240 0.9682190418243408
36 241 0.9740651845932007
36 242 0.9356980323791504
36 243 0.9457287788391113
36 244 0.1967305988073349
36 245 0.17723838984966278
36 246 0.9368630051612854
36 247 0.9330551624298096
36 248 0.9123918414115906
36 249 0.9586182236671448
36 250 0.2819027006626129
36 251 0.9149267077445984
36 252 0.9205766320228577
36 253 0.7201142311096191
36 254 0.9553026556968689
36 255 0.953815221786499
37 38 0.8942115902900696
37 39 0.9440780282020569
37 40 0.9566190242767334
37 41 0.8117232322692871
37 42 0.9539833068847656
37 43 0.5164324045181274
37 44 0.9602594971656799
37 45 0.9641993641853333
37 46 0.9351365566253662
37 47 0.9664373397827148
37 48 0.9600532054901123
37 49 0.9517570734024048
37 50 0.5813183784484863
37 51 0.971107542514801
37 52 0.5404221415519714
37 53 0.05270463228225708
37 54 0.8401831388473511
37 55 0.962539553642273
37 56 0.9699980020523071
37 57 0.9583947062492371
37 58 0.8846006393432617
37 59 0.8212854862213135
37 60 0.12076146900653839
37 61 0.9027513861656189
37 62 0.9510850310325623
37 63 0.7475084662437439
37 64 0.9642406702041626
37 65 0.45055854320526123
37 66 0.9667380452156067
37 67 0.9598342776298523
37 68 0.9634675979614258
37 69 0.9222723841667175
37 70 0.8615968227386475
37 71 0.9512544870376587
37 72 0.1484643667936325
37 73 0.9680500030517578
37 74 0.6341226100921631
37 75 0.15071514248847961
37 76 0.9329904317855835
37 77 0.9679675102233887
37 78 0.7429141998291016
37 79 0.9512105584144592
37 80 0.9528064131736755
37 81 0.23990876972675323
37 82 0.9616175293922424
37 83 0.9534381031990051
37 84 0.9458237886428833
37 85 0.9176931977272034
37 86 0.95561683177948
37 87 0.47354716062545776
37 88 0.9583333134651184
37 89 0.9577476978302002
37 90 0.9673900604248047
37 91 0.9231752157211304
37 92 0.17455299198627472
37 93 0.9105778932571411
37 94 0.9545280337333679
37 95 0.8042418956756592
37 96 0.9382650852203369
37 97 0.41204527020454407
37 98 0.9702672958374023
37 99 0.9598750472068787
37 100 0.9327834248542786
37 101 0.9539833068847656
37 102 0.9596807360649109
37 104 0.9615405201911926
37 105 0.8974645137786865
37 106 0.96312016248703
37 107 0.28171807527542114
37 109 0.9656612873077393
37 110 0.9439759850502014
37 112 0.9474208950996399
37 113 0.8160460591316223
37 114 0.3709704279899597
37 115 0.683996856212616
37 116 0.8199633955955505
37 117 0.17978663742542267
37 118 0.4115113914012909
37 119 0.3224908411502838
37 120 0.5601356625556946
37 121 0.95561683177948
37 122 0.22953520715236664
37 123 0.2853836119174957
37 124 0.06099375709891319
37 125 0.3226989805698395
37 126 0.9476072192192078
37 127 0.9571624994277954
37 128 0.9615405201911926
37 129 0.9038590788841248
37 130 0.17078250646591187
37 131 0.9494031071662903
37 132 0.9560340642929077
37 133 0.1708841472864151
37 134 0.5742474794387817
37 135 0.9440780282020569
37 136 0.1484643667936325
37 137 0.5400617122650146
37 138 0.9559937119483948
37 139 0.9658991694450378
37 140 0.6942101716995239
37 141 0.9685869812965393
37 142 0.703834593296051
37 143 0.9509683847427368
37 144 0.9446731805801392
37 145 0.261142373085022
37 146 0.7454397082328796
37 147 0.9491839408874512
37 148 0.8656820058822632
37 149 0.9582484364509583
37 150 0.7788994908332825
37 151 0.9474208950996399
37 152 0.8724257349967957
37 153 0.9494842290878296
37 154 0.9513097405433655
37 155 0.31793540716171265
37 156 0.8351089358329773
37 157 0.9188799262046814
37 158 0.9570419788360596
37 159 0.41549399495124817
37 160 0.09731236845254898
37 161 0.9549455046653748
37 162 0.41659826040267944
37 163 0.2124110758304596
37 164 0.07216878235340118
37 165 0.8133390545845032
37 166 0.960999608039856
37 167 0.9736381769180298
37 168 0.18763883411884308
37 169 0.08606629818677902
37 170 0.10704360902309418
37 171 0.9561175107955933
37 172 0.948192298412323
37 173 0.7908102869987488
37 174 0.9624614119529724
37 175 0.9604583382606506
37 176 0.6813540458679199
37 177 0.9373865127563477
37 178 0.9318839907646179
37 179 0.2541325092315674
37 180 0.9614583253860474
37 181 0.9592922329902649
37 182 0.9545280337333679
37 183 0.4134371280670166
37 185 0.9571624994277954
37 186 0.9515530467033386
37 187 0.9501606822013855
37 188 0.8240472078323364
37 189 0.9441227912902832
37 190 0.9186567068099976
37 191 0.5227677226066589
37 192 0.932866632938385
37 193 0.9566612839698792
37 194 0.8260853886604309
37 195 0.6281144618988037
37 196 0.9669333696365356
37 197 0.740881621837616
37 198 0.9581283330917358
37 199 0.6990773677825928
37 200 0.93791264295578
37 201 0.7965513467788696
37 202 0.31801366806030273
37 203 0.49982956051826477
37 204 0.9679275751113892
37 205 0.9686278104782104
37 206 0.11213564872741699
37 207 0.9536629319190979
37 208 0.2905888855457306
37 209 0.9609580039978027
37 210 0.9696184992790222
37 212 0.9507076740264893
37 213 0.9420308470726013
37 214 0.963040292263031
37 215 0.7204112410545349
37 216 0.9453057050704956
37 217 0.9716054797172546
37 218 0.8499515652656555
37 219 0.49824315309524536
37 220 0.19094064831733704
37 221 0.5278512835502625
37 222 0.8887744545936584
37 223 0.9555734992027283
37 224 0.5065981149673462
37 225 0.9233418703079224
37 226 0.9626215100288391
37 227 0.5201563835144043
37 228 0.9639374017715454
37 229 0.10176144540309906
37 230 0.9565778374671936
37 231 0.18182440102100372
37 232 0.23773686587810516
37 233 0.7448226809501648
37 234 0.28938028216362
37 235 0.9577056169509888
37 236 0.12268692255020142
37 238 0.913195013999939
37 239 0.9569303393363953
37 240 0.9630797505378723
37 241 0.964779794216156
37 242 0.936937153339386
37 243 0.9533539414405823
37 244 0.17509649693965912
37 245 0.176868736743927
37 246 0.9391539692878723
37 247 0.9343385696411133
37 248 0.9148558974266052
37 249 0.9628919363021851
37 250 0.32768532633781433
37 251 0.9086291790008545
37 252 0.9219337105751038
37 253 0.7102401852607727
37 254 0.9533103704452515
37 255 0.939064085483551
38 39 0.8883312344551086
38 40 0.8974896669387817
38 41 0.7331377863883972
38 42 0.9024339318275452
38 43 0.43911364674568176
38 44 0.8934878706932068
38 45 0.8965168595314026
38 46 0.8888788223266602
38 47 0.9060912132263184
38 48 0.8901698589324951
38 49 0.8951950669288635
38 50 0.549322247505188
38 51 0.9056268930435181
38 52 0.5392197966575623
38 53 0.05634361505508423
38 54 0.7581318020820618
38 55 0.8955064415931702
38 56 0.9052749872207642
38 57 0.8756211996078491
38 58 0.7996176481246948
38 59 0.7823043465614319
38 60 0.10143528133630753
38 61 0.8608766794204712
38 62 0.8906437754631042
38 63 0.718358039855957
38 64 0.9011332392692566
38 65 0.4145117998123169
38 66 0.8990220427513123
38 67 0.8978427648544312
38 68 0.8938485383987427
38 69 0.8341754078865051
38 70 0.8076454401016235
38 71 0.8857526183128357
38 72 0.12421180307865143
38 73 0.9102168679237366
38 74 0.64024418592453
38 75 0.179712176322937
38 76 0.8522678017616272
38 77 0.9154006838798523
38 78 0.6961938142776489
38 79 0.8945462703704834
38 80 0.8895860910415649
38 81 0.24343223869800568
38 82 0.8838879466056824
38 83 0.8984329104423523
38 84 0.8740260601043701
38 85 0.8600234985351562
38 86 0.8976658582687378
38 87 0.40408653020858765
38 88 0.8986659646034241
38 89 0.9045347571372986
38 90 0.9090628027915955
38 91 0.8857830166816711
38 92 0.2488066852092743
38 93 0.8387725353240967
38 94 0.9008426666259766
38 95 0.7451345920562744
38 96 0.8690789341926575
38 97 0.41372451186180115
38 98 0.8967273831367493
38 99 0.9102760553359985
38 100 0.8708157539367676
38 101 0.8934878706932068
38 102 0.8926589488983154
38 104 0.9056897759437561
38 105 0.8365179300308228
38 106 0.9029989838600159
38 107 0.2635231018066406
38 109 0.8988437056541443
38 110 0.8523015379905701
38 111 0.09128709137439728
38 112 0.8834176659584045
38 113 0.728104829788208
38 114 0.3470110297203064
38 115 0.6048193573951721
38 116 0.7663571238517761
38 117 0.13814374804496765
38 118 0.4591558575630188
38 119 0.3257797658443451
38 120 0.5038532614707947
38 121 0.8987824320793152
38 122 0.2572568356990814
38 123 0.29764673113822937
38 124 0.07824607938528061
38 125 0.3480058014392853
38 126 0.8903803825378418
38 127 0.8880824446678162
38 128 0.9079123139381409
38 129 0.8585083484649658
38 130 0.17605368793010712
38 131 0.8873796463012695
38 132 0.8955472707748413
38 133 0.13858698308467865
38 134 0.5469258427619934
38 135 0.8996332287788391
38 136 0.14491376280784607
38 137 0.46806612610816956
38 138 0.888647198677063
38 139 0.9010284543037415
38 140 0.6478280425071716
38 141 0.90644371509552
38 142 0.6652589440345764
38 143 0.8822070956230164
38 144 0.8891617059707642
38 145 0.23985281586647034
38 146 0.6546552777290344
38 147 0.8738185167312622
38 148 0.7823028564453125
38 149 0.8971962928771973
38 150 0.7017892003059387
38 151 0.881166934967041
38 152 0.7889853119850159
38 153 0.8866121768951416
38 154 0.8738185167312622
38 155 0.26778993010520935
38 156 0.7630059719085693
38 157 0.8406426310539246
38 158 0.8976121544837952
38 159 0.44418177008628845
38 160 0.10403129458427429
38 161 0.8841647505760193
38 162 0.41129085421562195
38 163 0.21258270740509033
38 165 0.7879396677017212
38 166 0.9106072783470154
38 167 0.9059158563613892
38 168 0.2211681306362152
38 169 0.05750546231865883
38 170 0.062418773770332336
38 171 0.9014874696731567
38 172 0.8775984048843384
38 173 0.7620802521705627
38 174 0.8951444625854492
38 175 0.9099679589271545
38 176 0.626139223575592
38 177 0.8491854071617126
38 178 0.8658357858657837
38 179 0.2015683650970459
38 180 0.8986659646034241
38 181 0.9038918018341064
38 182 0.9131370186805725
38 183 0.3893658518791199
38 185 0.8914337158203125
38 186 0.879664421081543
38 187 0.8967909812927246
38 188 0.7362914681434631
38 189 0.8907666206359863
38 190 0.8559674024581909
38 191 0.47051262855529785
38 192 0.862013578414917
38 193 0.8909668922424316
38 194 0.7434719800949097
38 195 0.640440821647644
38 196 0.9010284543037415
38 197 0.7367774844169617
38 198 0.8843529224395752
38 199 0.6653012037277222
38 200 0.8773369789123535
38 201 0.7894983291625977
38 202 0.30937352776527405
38 203 0.47543665766716003
38 204 0.9030616283416748
38 205 0.8923696279525757
38 206 0.11065666377544403
38 207 0.8864310383796692
38 208 0.3205670118331909
38 209 0.9137803912162781
38 210 0.9075464010238647
38 212 0.892951488494873
38 213 0.869745135307312
38 214 0.8948591947555542
38 215 0.6294366121292114
38 216 0.8712634444236755
38 217 0.9038811922073364
38 218 0.8347941637039185
38 219 0.4248216152191162
38 220 0.16913142800331116
38 221 0.5794456601142883
38 222 0.8394905924797058
38 223 0.8952543139457703
38 224 0.5140742659568787
38 225 0.8621161580085754
38 226 0.9003111720085144
38 227 0.5283659100532532
38 228 0.8963720202445984
38 229 0.11715583503246307
38 230 0.8961952328681946
38 231 0.26506152749061584
38 232 0.22347795963287354
38 233 0.6920127272605896
38 234 0.2625967264175415
38 235 0.9077143669128418
38 236 0.15430335700511932
38 238 0.8828258514404297
38 239 0.8948453664779663
38 240 0.9006006121635437
38 241 0.9128548502922058
38 242 0.8811142444610596
38 243 0.884655773639679
38 244 0.1531522125005722
38 245 0.16468313336372375
38 246 0.8973584771156311
38 247 0.8688153028488159
38 248 0.8636471629142761
38 249 0.8941366076469421
38 250 0.2445562779903412
38 251 0.8610895872116089
38 252 0.8571351766586304
38 253 0.6682845950126648
38 254 0.8810775279998779
38 255 0.8981680274009705
39 40 0.9432945847511292
39 41 0.804844081401825
39 42 0.9406049847602844
39 43 0.530203640460968
39 44 0.954406201839447
39 45 0.9469749331474304
39 46 0.9176244735717773
39 47 0.9514742493629456
39 48 0.9369743466377258
39 49 0.9371932148933411
39 50 0.5864741802215576
39 51 0.9520351886749268
39 52 0.4826623797416687
39 53 0.06686308979988098
39 54 0.8112338781356812
39 55 0.9536571502685547
39 56 0.9560933113098145
39 57 0.9362625479698181
39 58 0.8460850715637207
39 59 0.7991587519645691
39 60 0.12256206572055817
39 61 0.8802376985549927
39 62 0.9353352189064026
39 63 0.774795651435852
39 64 0.955467700958252
39 65 0.4880547523498535
39 66 0.958997368812561
39 67 0.9413212537765503
39 68 0.9524074792861938
39 69 0.8879938125610352
39 70 0.8440077304840088
39 71 0.9441492557525635
39 72 0.16378043591976166
39 73 0.9542034864425659
39 74 0.6653410792350769
39 75 0.13531285524368286
39 76 0.9094224572181702
39 77 0.9509129524230957
39 78 0.7184128165245056
39 79 0.937688946723938
39 80 0.9435831904411316
39 81 0.21047085523605347
39 82 0.9406800270080566
39 83 0.9389750361442566
39 84 0.9414870142936707
39 85 0.9070699214935303
39 86 0.9518460631370544
39 87 0.4978494346141815
39 88 0.945135235786438
39 89 0.9423800706863403
39 90 0.9565854668617249
39 91 0.899418294429779
39 92 0.19078299403190613
39 93 0.8983592987060547
39 94 0.9422335624694824
39 95 0.823826253414154
39 96 0.9522549510002136
39 97 0.4436037838459015
39 98 0.9476743340492249
39 99 0.9435123205184937
39 100 0.9532355070114136
39 101 0.9533445835113525
39 102 0.9516603350639343
39 104 0.9484473466873169
39 105 0.8723276257514954
39 106 0.9469013810157776
39 107 0.2680486738681793
39 109 0.9578815698623657
39 110 0.9273933172225952
39 111 0.08666446805000305
39 112 0.9369743466377258
39 113 0.7965054512023926
39 114 0.34881776571273804
39 115 0.6926764249801636
39 116 0.8137235045433044
39 117 0.16536100208759308
39 118 0.3674382269382477
39 119 0.3272992670536041
39 120 0.5280126333236694
39 121 0.9486661553382874
39 122 0.2667740285396576
39 123 0.24018822610378265
39 124 0.08666446805000305
39 125 0.3275104761123657
39 126 0.9423291683197021
39 127 0.9502236843109131
39 128 0.9452823400497437
39 129 0.9038455486297607
39 130 0.14856766164302826
39 131 0.9389073252677917
39 132 0.9479710459709167
39 133 0.16147124767303467
39 134 0.5227625966072083
39 135 0.9270386099815369
39 136 0.1572292149066925
39 137 0.49134525656700134
39 138 0.9393956661224365
39 139 0.9582599997520447
39 140 0.6752042770385742
39 141 0.9558097720146179
39 142 0.6620610356330872
39 143 0.9458446502685547
39 144 0.9287639260292053
39 145 0.21277546882629395
39 146 0.7386395931243896
39 147 0.9298948645591736
39 148 0.8368655443191528
39 149 0.9439321756362915
39 150 0.7495332956314087
39 151 0.9391111135482788
39 152 0.8560370802879333
39 153 0.946528971195221
39 154 0.935288667678833
39 155 0.31289786100387573
39 156 0.8278499841690063
39 157 0.8911077380180359
39 158 0.9479066133499146
39 159 0.43521925806999207
39 161 0.9447150826454163
39 162 0.4620872735977173
39 163 0.23392526805400848
39 164 0.05859587714076042
39 165 0.7742647528648376
39 166 0.9447174072265625
39 167 0.9524515867233276
39 168 0.21973451972007751
39 169 0.09826827049255371
39 170 0.05925799161195755
39 171 0.9428001046180725
39 172 0.9235785603523254
39 173 0.7566656470298767
39 174 0.9418880343437195
39 175 0.9473205208778381
39 176 0.7064487338066101
39 177 0.9073695540428162
39 178 0.9142889380455017
39 179 0.19136126339435577
39 180 0.9472495913505554
39 181 0.9407539963722229
39 182 0.9443556666374207
39 183 0.40211817622184753
39 185 0.9534052610397339
39 186 0.9336209893226624
39 187 0.9355577826499939
39 188 0.8165390491485596
39 189 0.942122757434845
39 190 0.9146161675453186
39 191 0.5188587307929993
39 192 0.9435111880302429
39 193 0.9454862475395203
39 194 0.8257760405540466
39 195 0.6731538772583008
39 196 0.9519625902175903
39 197 0.7290612459182739
39 198 0.9554103016853333
39 199 0.7293272018432617
39 200 0.9183644652366638
39 201 0.7745869755744934
39 202 0.2807971239089966
39 203 0.5072821378707886
39 204 0.9550426602363586
39 205 0.9427282810211182
39 206 0.11380762606859207
39 207 0.9389743208885193
39 208 0.31060898303985596
39 209 0.9456999897956848
39 210 0.9589504599571228
39 212 0.9425181746482849
39 213 0.9289155006408691
39 214 0.9456999897956848
39 215 0.7096059918403625
39 216 0.9518119692802429
39 217 0.9525232315063477
39 218 0.8626246452331543
39 219 0.5240973830223083
39 220 0.12734617292881012
39 221 0.5626875758171082
39 222 0.8700557947158813
39 223 0.9454167485237122
39 224 0.46996670961380005
39 225 0.9019538760185242
39 226 0.9464110732078552
39 227 0.5166398882865906
39 228 0.9422335624694824
39 229 0.1032787412405014
39 230 0.9410994052886963
39 231 0.2180873453617096
39 232 0.1747211515903473
39 233 0.7050748467445374
39 234 0.31418538093566895
39 235 0.9571458697319031
39 236 0.12451623380184174
39 238 0.8924437165260315
39 239 0.9370464086532593
39 240 0.9447174072265625
39 241 0.9497164487838745
39 242 0.9336376190185547
39 243 0.9177833199501038
39 244 0.1238565668463707
39 245 0.17371538281440735
39 246 0.9650040864944458
39 247 0.9198654294013977
39 248 0.9451165199279785
39 249 0.9411724209785461
39 250 0.3388461470603943
39 251 0.8876511454582214
39 252 0.9146161675453186
39 253 0.7080845832824707
39 254 0.934492290019989
39 255 0.9206854104995728
40 41 0.793424129486084
40 42 0.9522311091423035
40 43 0.4903079867362976
40 44 0.951181173324585
40 45 0.9583587646484375
40 46 0.9278382062911987
40 47 0.9627182483673096
40 48 0.9477243423461914
40 49 0.9647248387336731
40 50 0.6025504469871521
40 51 0.9632617831230164
40 52 0.551443338394165
40 54 0.8287864923477173
40 55 0.9556241035461426
40 56 0.9631637930870056
40 57 0.9407207369804382
40 58 0.8483321070671082
40 59 0.8255102634429932
40 60 0.12120416760444641
40 61 0.8949434161186218
40 62 0.9440004825592041
40 63 0.7622207999229431
40 64 0.9594504833221436
40 65 0.4717770218849182
40 66 0.956718921661377
40 67 0.9581172466278076
40 68 0.9575705528259277
40 69 0.9090842604637146
40 70 0.852021336555481
40 71 0.9494783878326416
40 72 0.11661543697118759
40 73 0.9643480181694031
40 74 0.6487457752227783
40 75 0.18035757541656494
40 76 0.9113379716873169
40 77 0.9652882218360901
40 78 0.753757119178772
40 79 0.9525901079177856
40 80 0.9594588875770569
40 81 0.2448693960905075
40 82 0.9566857814788818
40 83 0.9537820219993591
40 84 0.9278382062911987
40 85 0.9232425093650818
40 86 0.9549272060394287
40 87 0.46462658047676086
40 88 0.9555734992027283
40 89 0.9623057842254639
40 90 0.9646991491317749
40 91 0.9211026430130005
40 92 0.22460626065731049
40 93 0.9050429463386536
40 94 0.9527806639671326
40 95 0.7909212708473206
40 96 0.9298796653747559
40 97 0.4341193437576294
40 98 0.9581172466278076
40 99 0.9581636786460876
40 100 0.9340457916259766
40 101 0.9522311091423035
40 102 0.9558380842208862
40 104 0.956718921661377
40 105 0.8929120898246765
40 106 0.9583086371421814
40 107 0.25447574257850647
40 109 0.9608460664749146
40 110 0.9279463291168213
40 111 0.07346081733703613
40 112 0.9445547461509705
40 113 0.7889350056648254
40 114 0.28198549151420593
40 115 0.6489493250846863
40 116 0.8144474029541016
40 117 0.16916786134243011
40 118 0.462672621011734
40 119 0.311795175075531
40 120 0.5330789685249329
40 121 0.9517825245857239
40 122 0.24523961544036865
40 123 0.2584854066371918
40 124 0.08570428937673569
40 125 0.3693390488624573
40 126 0.9393525123596191
40 127 0.9543787240982056
40 128 0.9577622413635254
40 129 0.9027255177497864
40 130 0.11631297320127487
40 131 0.9444039463996887
40 132 0.9658445715904236
40 133 0.16559642553329468
40 134 0.576352596282959
40 135 0.9549663662910461
40 136 0.11013679951429367
40 137 0.5052601099014282
40 138 0.9479253888130188
40 139 0.9621744155883789
40 140 0.685142457485199
40 141 0.9690318703651428
40 142 0.6748270988464355
40 143 0.9438494443893433
40 144 0.9438987970352173
40 145 0.2842489778995514
40 146 0.7277305722236633
40 147 0.9355945587158203
40 148 0.8476351499557495
40 149 0.9586182236671448
40 150 0.7529945373535156
40 151 0.9487809538841248
40 152 0.8546927571296692
40 153 0.942388117313385
40 154 0.9355945587158203
40 155 0.31265443563461304
40 156 0.8101500868797302
40 157 0.9022959470748901
40 158 0.9510816335678101
40 159 0.47053807973861694
40 160 0.09766910970211029
40 161 0.9542378783226013
40 162 0.4501132071018219
40 163 0.23133355379104614
40 164 0.07243335247039795
40 165 0.8052058219909668
40 166 0.9613909721374512
40 167 0.9657841920852661
40 168 0.21730004251003265
40 169 0.09717953205108643
40 170 0.10743601620197296
40 171 0.9512324333190918
40 172 0.9378296732902527
40 173 0.7747814059257507
40 174 0.9534308314323425
40 175 0.9618905186653137
40 176 0.6808977723121643
40 177 0.9223326444625854
40 178 0.9310048818588257
40 179 0.24272233247756958
40 180 0.9566190242767334
40 181 0.9711902737617493
40 182 0.9538300037384033
40 183 0.3655535578727722
40 185 0.9575250744819641
40 186 0.9423356652259827
40 187 0.9462676048278809
40 188 0.8209506273269653
40 189 0.9486437439918518
40 190 0.9055792689323425
40 191 0.540116012096405
40 192 0.9276768565177917
40 193 0.9633128643035889
40 194 0.7941510677337646
40 195 0.6518911123275757
40 196 0.9632123112678528
40 197 0.7435975670814514
40 198 0.9542838931083679
40 199 0.7184457778930664
40 200 0.9306537508964539
40 201 0.8180637359619141
40 202 0.2840697169303894
40 203 0.47006112337112427
40 204 0.9673198461532593
40 205 0.9564306139945984
40 206 0.11254672706127167
40 207 0.9486884474754333
40 208 0.33819469809532166
40 209 0.9603009819984436
40 210 0.9711024165153503
40 212 0.9531397223472595
40 213 0.9261447787284851
40 214 0.955076277256012
40 215 0.7244727611541748
40 216 0.9348343014717102
40 217 0.9627182483673096
40 218 0.8577674627304077
40 219 0.49804508686065674
40 220 0.16973884403705597
40 221 0.5600090622901917
40 222 0.9100990891456604
40 223 0.9506819844245911
40 224 0.5104413628578186
40 225 0.9158623814582825
40 226 0.9661503434181213
40 227 0.5109158754348755
40 228 0.9559286832809448
40 229 0.10213448852300644
40 230 0.9537820219993591
40 231 0.2447037547826767
40 232 0.21803869307041168
40 233 0.7285245060920715
40 234 0.287063866853714
40 235 0.9570236206054688
40 236 0.1303800344467163
40 238 0.9143500328063965
40 239 0.947773277759552
40 240 0.960347056388855
40 241 0.9703966975212097
40 242 0.9339675307273865
40 243 0.9418646097183228
40 244 0.16508758068084717
40 245 0.17179076373577118
40 246 0.9383364319801331
40 247 0.9269599914550781
40 248 0.9204010963439941
40 249 0.9580272436141968
40 250 0.3102703392505646
40 251 0.9075544476509094
40 252 0.9417585730552673
40 253 0.7170453667640686
40 254 0.9504826068878174
40 255 0.943574070930481
41 42 0.7938407063484192
41 43 0.5298646092414856
41 44 0.8176309466362
41 45 0.7988409399986267
41 46 0.79571133852005
41 47 0.8054549694061279
41 48 0.8127526640892029
41 49 0.7837934494018555
41 50 0.46389639377593994
41 51 0.8149352669715881
41 52 0.416166752576828
41 53 0.09463204443454742
41 54 0.7265848517417908
41 55 0.814615786075592
41 56 0.809175431728363
41 57 0.8199766874313354
41 58 0.8107892274856567
41 59 0.6008564233779907
41 60 0.1135772317647934
41 61 0.7385228872299194
41 62 0.7917525172233582
41 63 0.6869468688964844
41 64 0.8116680383682251
41 65 0.3785637319087982
41 66 0.8212360739707947
41 67 0.7942619323730469
41 68 0.8034236431121826
41 69 0.7680366039276123
41 70 0.7510703802108765
41 71 0.7909120321273804
41 72 0.13908015191555023
41 73 0.8141015768051147
41 74 0.5555379390716553
41 76 0.8398752808570862
41 77 0.8046305179595947
41 78 0.6939908266067505
41 79 0.7829512357711792
41 80 0.7950981259346008
41 81 0.11194898933172226
41 82 0.7993170022964478
41 83 0.7892469763755798
41 84 0.8123419880867004
41 85 0.7870550155639648
41 86 0.810094952583313
41 87 0.36857396364212036
41 88 0.8029950261116028
41 89 0.8005061149597168
41 90 0.8157909512519836
41 91 0.7692404389381409
41 92 0.058932334184646606
41 93 0.7672132849693298
41 94 0.8197047710418701
41 95 0.7388060092926025
41 96 0.811565101146698
41 97 0.41147318482398987
41 98 0.8067502975463867
41 99 0.7934333086013794
41 100 0.7859601378440857
41 101 0.8238915205001831
41 102 0.798856794834137
41 104 0.8162588477134705
41 105 0.7388982176780701
41 106 0.8083739280700684
41 107 0.2950672209262848
41 109 0.8133701682090759
41 110 0.805815577507019
41 111 0.05840816721320152
41 112 0.8177930116653442
41 113 0.7449532747268677
41 114 0.3852836787700653
41 115 0.6557181477546692
41 116 0.7942063212394714
41 117 0.15467976033687592
41 118 0.23417916893959045
41 119 0.2904042601585388
41 120 0.45784181356430054
41 121 0.8063445687294006
41 122 0.22600913047790527
41 123 0.16663774847984314
41 125 0.13892319798469543
41 126 0.7782393097877502
41 127 0.8155226111412048
41 128 0.81003737449646
41 129 0.7889068722724915
41 130 0.11681633442640305
41 131 0.7938689589500427
41 132 0.7959293723106384
41 133 0.05642765015363693
41 134 0.3707689642906189
41 135 0.7795345783233643
41 136 0.1313534677028656
41 137 0.5448734164237976
41 138 0.7967685461044312
41 139 0.80586838722229
41 140 0.5210920572280884
41 141 0.8075120449066162
41 142 0.5907759666442871
41 143 0.8107367157936096
41 144 0.8010249733924866
41 145 0.12327507138252258
41 146 0.7378944754600525
41 147 0.7850229144096375
41 148 0.7789308428764343
41 149 0.7909287214279175
41 150 0.6111734509468079
41 151 0.7812505960464478
41 152 0.7558372020721436
41 153 0.8224486112594604
41 154 0.8091970086097717
41 155 0.2960006594657898
41 156 0.7279317378997803
41 157 0.7799839973449707
41 158 0.8005327582359314
41 159 0.1622374951839447
41 161 0.8143350481987
41 162 0.31882360577583313
41 163 0.10278532654047012
41 164 0.08638684451580048
41 165 0.6495416164398193
41 166 0.7955186367034912
41 167 0.8112365007400513
41 168 0.15549631416797638
41 170 0.10483559221029282
41 171 0.8217766284942627
41 172 0.8061778545379639
41 173 0.6681944727897644
41 174 0.8025845289230347
41 175 0.8058965802192688
41 176 0.6341508030891418
41 177 0.7822005748748779
41 178 0.7543227672576904
41 179 0.20607060194015503
41 180 0.8054887652397156
41 181 0.7909287214279175
41 182 0.8009329438209534
41 183 0.4330277144908905
41 185 0.8067670464515686
41 186 0.7917575240135193
41 187 0.7879782319068909
41 188 0.6522455215454102
41 189 0.7900765538215637
41 190 0.7989078164100647
41 191 0.35659047961235046
41 192 0.8021923303604126
41 193 0.7938430905342102
41 194 0.7833228707313538
41 195 0.4408716857433319
41 196 0.8231988549232483
41 197 0.6758414506912231
41 198 0.8159842491149902
41 199 0.5779121518135071
41 200 0.8101242780685425
41 201 0.6016537547111511
41 202 0.3502126634120941
41 203 0.5017253756523132
41 204 0.8054578900337219
41 205 0.811370313167572
41 206 0.10325203090906143
41 207 0.8031224608421326
41 208 0.08510933816432953
41 209 0.8125470280647278
41 210 0.8186246156692505
41 212 0.7888177633285522
41 213 0.8239324688911438
41 214 0.8137933015823364
41 215 0.6370137333869934
41 216 0.8246827721595764
41 217 0.8153530955314636
41 218 0.6600498557090759
41 219 0.3742607831954956
41 220 0.1044837087392807
41 221 0.45798084139823914
41 222 0.6827640533447266
41 223 0.8034358024597168
41 224 0.31978315114974976
41 225 0.7631800770759583
41 226 0.7930393218994141
41 227 0.4453709125518799
41 228 0.795927107334137
41 229 0.08432971686124802
41 230 0.7930052876472473
41 231 0.06430444866418839
41 232 0.1471932828426361
41 233 0.5932934284210205
41 234 0.16111229360103607
41 235 0.808844804763794
41 238 0.7544514536857605
41 239 0.808113157749176
41 240 0.8054780960083008
41 241 0.8087686896324158
41 242 0.7688997387886047
41 243 0.7926956415176392
41 244 0.12702573835849762
41 245 0.08878323435783386
41 246 0.7875595688819885
41 247 0.7975783944129944
41 248 0.7879963517189026
41 249 0.8046872615814209
41 250 0.3071337044239044
41 251 0.7789494395256042
41 252 0.7505288124084473
41 253 0.5044203996658325
41 254 0.7992889285087585
41 255 0.7752647995948792
42 43 0.50458163022995
42 44 0.950630247592926
42 45 0.965115487575531
42 46 0.9487163424491882
42 47 0.9652997255325317
42 48 0.9492791295051575
42 49 0.9483714699745178
42 50 0.5385841727256775
42 51 0.9627301692962646
42 52 0.5535418391227722
42 53 0.07938841730356216
42 54 0.8219795823097229
42 55 0.9592607021331787
42 56 0.9605507850646973
42 57 0.9433345198631287
42 58 0.8731945157051086
42 59 0.836875319480896
42 60 0.08661986887454987
42 61 0.9209966659545898
42 62 0.9487267732620239
42 63 0.7399953603744507
42 64 0.9599543213844299
42 65 0.46767428517341614
42 66 0.9572213292121887
42 67 0.9533820152282715
42 68 0.9517841339111328
42 69 0.9029305577278137
42 70 0.8802666068077087
42 71 0.9541897177696228
42 72 0.1490868777036667
42 73 0.9648544192314148
42 74 0.6198621392250061
42 75 0.16881020367145538
42 76 0.9139979481697083
42 77 0.967872142791748
42 78 0.7257198095321655
42 79 0.9457101225852966
42 80 0.9473177194595337
42 81 0.22049817442893982
42 82 0.9444961547851562
42 83 0.9574358463287354
42 84 0.9293985962867737
42 85 0.9237273335456848
42 86 0.9543797969818115
42 87 0.4520759582519531
42 88 0.9665356874465942
42 89 0.9596680998802185
42 90 0.9610453248023987
42 91 0.9183105230331421
42 92 0.23371317982673645
42 93 0.8933115005493164
42 94 0.9574804306030273
42 95 0.7788153886795044
42 96 0.9271411895751953
42 97 0.4457774758338928
42 98 0.9523343443870544
42 99 0.9607599973678589
42 100 0.9226656556129456
42 101 0.9527311325073242
42 102 0.9542357921600342
42 104 0.9655722379684448
42 105 0.8844135999679565
42 106 0.9650717973709106
42 107 0.2970442473888397
42 109 0.9550809264183044
42 110 0.9208500385284424
42 111 0.08574929088354111
42 112 0.9513933062553406
42 113 0.7805648446083069
42 114 0.36978667974472046
42 115 0.6402722597122192
42 116 0.810002863407135
42 117 0.16361479461193085
42 118 0.46065741777420044
42 119 0.33869820833206177
42 120 0.5661249756813049
42 121 0.9554286003112793
42 122 0.2825454771518707
42 123 0.2865801751613617
42 124 0.08574929088354111
42 125 0.3581627309322357
42 126 0.9334450364112854
42 127 0.9527812004089355
42 128 0.9624406099319458
42 129 0.8931887149810791
42 130 0.15312373638153076
42 131 0.9448999166488647
42 132 0.9484758377075195
42 133 0.17160063982009888
42 134 0.5993719696998596
42 135 0.9448515176773071
42 136 0.1555688977241516
42 137 0.5229573845863342
42 138 0.9536862969398499
42 139 0.9657951593399048
42 140 0.7189059257507324
42 141 0.9674689769744873
42 142 0.7254608869552612
42 143 0.9422230124473572
42 144 0.9401547312736511
42 145 0.27701127529144287
42 146 0.7417477369308472
42 147 0.932883620262146
42 148 0.8398234844207764
42 149 0.9528323411941528
42 150 0.7900131344795227
42 151 0.9450507164001465
42 152 0.8853914737701416
42 153 0.9428830146789551
42 154 0.9446247816085815
42 155 0.28056928515434265
42 156 0.8105754852294922
42 157 0.9160783886909485
42 158 0.9484230875968933
42 159 0.4440106749534607
42 160 0.10749242454767227
42 161 0.9484230875968933
42 162 0.4549216330051422
42 163 0.22237837314605713
42 164 0.0579771026968956
42 165 0.8216918110847473
42 166 0.9608513116836548
42 167 0.9610961675643921
42 168 0.21741412580013275
42 169 0.0756237655878067
42 170 0.09772038459777832
42 171 0.9569784998893738
42 172 0.936191976070404
42 173 0.804226279258728
42 174 0.9602141976356506
42 175 0.9592607021331787
42 176 0.6472664475440979
42 177 0.9271698594093323
42 178 0.9357912540435791
42 179 0.2305014729499817
42 180 0.9539833068847656
42 181 0.9559770226478577
42 182 0.962729811668396
42 183 0.4151706099510193
42 185 0.950682520866394
42 186 0.9438897967338562
42 187 0.9509817361831665
42 188 0.8189334869384766
42 189 0.9502024054527283
42 190 0.9060547947883606
42 191 0.4786396324634552
42 192 0.9238569140434265
42 193 0.9512335062026978
42 194 0.7895708084106445
42 195 0.6568374037742615
42 196 0.9626796841621399
42 197 0.7453190088272095
42 198 0.9505788683891296
42 199 0.6837927103042603
42 200 0.9343532919883728
42 201 0.8296545147895813
42 202 0.32892748713493347
42 203 0.527614414691925
42 204 0.9605507850646973
42 205 0.9495798349380493
42 206 0.11260582506656647
42 207 0.9428304433822632
42 208 0.32905930280685425
42 209 0.9670782089233398
42 210 0.9685048460960388
42 212 0.9462639689445496
42 213 0.9330809116363525
42 214 0.9555777311325073
42 215 0.6822147369384766
42 216 0.9278168082237244
42 217 0.962185800075531
42 218 0.8417589664459229
42 219 0.49425533413887024
42 220 0.16434964537620544
42 221 0.5247282981872559
42 222 0.8766844868659973
42 223 0.951181173324585
42 224 0.5266069769859314
42 225 0.9250392913818359
42 226 0.9572726488113403
42 227 0.5483612418174744
42 228 0.950131356716156
42 229 0.12577000260353088
42 230 0.9542828798294067
42 231 0.2531316578388214
42 232 0.2510819733142853
42 233 0.7629045844078064
42 234 0.28721457719802856
42 235 0.9554286003112793
42 236 0.1449427604675293
42 238 0.9247024059295654
42 239 0.9440469741821289
42 240 0.9577181935310364
42 241 0.9605000019073486
42 242 0.9344580173492432
42 243 0.9316505789756775
42 244 0.19714346528053284
42 245 0.14896349608898163
42 246 0.9356322288513184
42 247 0.9231229424476624
42 248 0.914306640625
42 249 0.950131356716156
42 250 0.2793899476528168
42 251 0.9124389886856079
42 252 0.9093455672264099
42 253 0.7146194577217102
42 254 0.9457101225852966
42 255 0.9483413696289062
43 44 0.5246047377586365
43 45 0.5085996389389038
43 46 0.5216655135154724
43 47 0.5005731582641602
43 48 0.5138372778892517
43 49 0.4760495126247406
43 50 0.24175898730754852
43 51 0.5022941827774048
43 54 0.4578622281551361
43 55 0.5198789834976196
43 56 0.517197847366333
43 57 0.5111684799194336
43 58 0.507544755935669
43 59 0.39128759503364563
43 61 0.4940278232097626
43 62 0.49596571922302246
43 63 0.43890252709388733
43 64 0.5199825763702393
43 65 0.43952006101608276
43 66 0.5213293433189392
43 67 0.5012646913528442
43 68 0.5235060453414917
43 69 0.46557796001434326
43 70 0.44819241762161255
43 71 0.5239801406860352
43 72 0.1606285274028778
43 73 0.5136334300041199
43 74 0.31371957063674927
43 76 0.5301627516746521
43 77 0.49489134550094604
43 78 0.27615687251091003
43 79 0.486349880695343
43 80 0.5041705965995789
43 82 0.514110803604126
43 83 0.4507560729980469
43 84 0.5339399576187134
43 85 0.5167810320854187
43 86 0.5177825689315796
43 87 0.4227432608604431
43 88 0.49449899792671204
43 89 0.48728519678115845
43 90 0.5174641013145447
43 91 0.47248414158821106
43 93 0.5309438109397888
43 94 0.5183255672454834
43 95 0.5179307460784912
43 96 0.5351147055625916
43 97 0.20045143365859985
43 98 0.5232324600219727
43 99 0.49675172567367554
43 100 0.538948655128479
43 101 0.5206000804901123
43 102 0.5234277248382568
43 104 0.5213293433189392
43 105 0.41665905714035034
43 106 0.4991826117038727
43 107 0.1482969969511032
43 109 0.5218709111213684
43 110 0.5307266712188721
43 112 0.5239124894142151
43 113 0.4449378550052643
43 114 0.2401835024356842
43 115 0.5901876091957092
43 116 0.4527592360973358
43 117 0.12905463576316833
43 119 0.23219867050647736
43 120 0.2602441608905792
43 121 0.5177825689315796
43 122 0.06378007680177689
43 124 0.09340289235115051
43 125 0.05418482422828674
43 126 0.5226146578788757
43 127 0.5220542550086975
43 128 0.4835229814052582
43 129 0.5109901428222656
43 131 0.5175065994262695
43 132 0.5051124095916748
43 133 0.19175100326538086
43 134 0.1698792427778244
43 135 0.4553275406360626
43 136 0.09884832799434662
43 137 0.3507470190525055
43 138 0.5076515674591064
43 139 0.5146870017051697
43 140 0.4457184076309204
43 141 0.5034984946250916
43 142 0.3642018139362335
43 143 0.5278968214988708
43 144 0.4242900311946869
43 146 0.6185888051986694
43 147 0.5066210627555847
43 148 0.4631728231906891
43 149 0.49553239345550537
43 150 0.46873027086257935
43 151 0.5118222236633301
43 152 0.552227258682251
43 153 0.5143848061561584
43 154 0.5310364961624146
43 155 0.09835775941610336
43 156 0.4809611737728119
43 157 0.5010358095169067
43 158 0.5196906924247742
43 159 0.05954374372959137
43 161 0.5096580386161804
43 162 0.4531945288181305
43 163 0.19032110273838043
43 164 0.08288683742284775
43 165 0.31797200441360474
43 166 0.47581058740615845
43 167 0.5129708647727966
43 168 0.17498333752155304
43 171 0.5220542550086975
43 172 0.4669514000415802
43 173 0.23825490474700928
43 174 0.5029990077018738
43 175 0.4959765374660492
43 176 0.38592007756233215
43 177 0.5019990801811218
43 178 0.4464626610279083
43 180 0.5104506015777588
43 181 0.47954750061035156
43 182 0.49431049823760986
43 183 0.1884278506040573
43 185 0.5180538296699524
43 186 0.5108953714370728
43 187 0.47831103205680847
43 188 0.4736814498901367
43 189 0.51346355676651
43 190 0.5436452627182007
43 191 0.2354532927274704
43 192 0.5316000580787659
43 193 0.511785089969635
43 194 0.585837185382843
43 195 0.2866869866847992
43 196 0.5067687630653381
43 197 0.2739969491958618
43 198 0.5251566171646118
43 199 0.29380902647972107
43 200 0.4916790723800659
43 201 0.28840237855911255
43 202 0.07913599908351898
43 203 0.3239452838897705
43 204 0.5112530589103699
43 205 0.5105885863304138
43 207 0.5088759660720825
43 208 0.06509217619895935
43 209 0.49623459577560425
43 210 0.5153455138206482
43 212 0.486092746257782
43 213 0.5266238451004028
43 214 0.5101849436759949
43 215 0.41993236541748047
43 216 0.5356921553611755
43 217 0.5164015293121338
43 218 0.4840567409992218
43 219 0.420877605676651
43 221 0.20343776047229767
43 222 0.4694679081439972
43 223 0.5143230557441711
43 224 0.20076334476470947
43 225 0.43720075488090515
43 226 0.48103442788124084
43 227 0.13464683294296265
43 228 0.5183255672454834
43 230 0.49082329869270325
43 233 0.41216611862182617
43 234 0.22543609142303467
43 235 0.5237800478935242
43 236 0.0552578940987587
43 238 0.4202795624732971
43 239 0.515304446220398
43 240 0.4797922670841217
43 241 0.47012338042259216
43 242 0.5048602819442749
43 243 0.4735758900642395
43 245 0.06552779674530029
43 246 0.5322059988975525
43 247 0.4903954565525055
43 248 0.5370648503303528
43 249 0.5003142356872559
43 250 0.2603687047958374
43 251 0.4474256634712219
43 252 0.512281060218811
43 253 0.3258609473705292
43 254 0.4963984191417694
43 255 0.4498956799507141
44 45 0.9599042534828186
44 46 0.9336914420127869
44 47 0.9632237553596497
44 48 0.9471648931503296
44 49 0.9473177194595337
44 50 0.5715941786766052
44 51 0.9627301692962646
44 52 0.5046998858451843
44 53 0.07938841730356216
44 54 0.8304286599159241
44 55 0.9623955488204956
44 56 0.9626299738883972
44 57 0.9549936652183533
44 58 0.8836588859558105
44 59 0.8077244162559509
44 60 0.12126781046390533
44 61 0.8965256810188293
44 62 0.9529574513435364
44 63 0.7519736289978027
44 64 0.962036669254303
44 65 0.46767428517341614
44 66 0.9780985116958618
44 67 0.9523343443870544
44 68 0.9601699113845825
44 69 0.910666823387146
44 70 0.8582599759101868
44 71 0.9510301947593689
44 72 0.16205093264579773
44 73 0.9648544192314148
44 74 0.6260145306587219
44 75 0.08149457722902298
44 76 0.9369023442268372
44 77 0.9616411924362183
44 78 0.720304012298584
44 79 0.9457101225852966
44 80 0.9515327215194702
44 81 0.19599837064743042
44 82 0.9529574513435364
44 83 0.9500789642333984
44 84 0.9508627653121948
44 85 0.9226341843605042
44 86 0.9554286003112793
44 87 0.48406246304512024
44 88 0.9539833068847656
44 89 0.9523343443870544
44 90 0.9631255269050598
44 91 0.9106670618057251
44 92 0.12135107815265656
44 93 0.8977502584457397
44 94 0.9543308019638062
44 95 0.8101181983947754
44 96 0.9475769996643066
44 97 0.4549216330051422
44 98 0.9586203694343567
44 99 0.9534339308738708
44 100 0.9464067816734314
44 101 0.9569328427314758
44 102 0.9542357921600342
44 104 0.9613967537879944
44 105 0.8832926750183105
44 106 0.9588118195533752
44 107 0.28289929032325745
44 109 0.967620313167572
44 110 0.9436005353927612
44 111 0.08574929088354111
44 112 0.9535075426101685
44 113 0.7931140661239624
44 114 0.37800419330596924
44 115 0.6958827376365662
44 116 0.819747269153595
44 117 0.18618234992027283
44 118 0.3883974254131317
44 119 0.3416692316532135
44 120 0.5752266645431519
44 121 0.9533310532569885
44 122 0.27511003613471985
44 123 0.23415698111057281
44 124 0.08574929088354111
44 125 0.29562637209892273
44 126 0.9387789964675903
44 127 0.961175799369812
44 128 0.9561774730682373
44 129 0.8987503051757812
44 130 0.14087384939193726
44 131 0.9480814337730408
44 132 0.9505788683891296
44 133 0.17160063982009888
44 134 0.5714129209518433
44 135 0.9395433664321899
44 136 0.1555688977241516
44 137 0.5365155339241028
44 138 0.9526336789131165
44 139 0.9626796841621399
44 140 0.7000255584716797
44 141 0.9643615484237671
44 142 0.7010394930839539
44 143 0.9496504068374634
44 144 0.9401547312736511
44 145 0.2400764375925064
44 146 0.7622002959251404
44 147 0.953163743019104
44 148 0.8480802178382874
44 149 0.9517841339111328
44 150 0.775625467300415
44 151 0.9492791295051575
44 152 0.8877183794975281
44 153 0.9460577368736267
44 154 0.9552984833717346
44 155 0.30314379930496216
44 156 0.8325158357620239
44 157 0.9105331301689148
44 158 0.9473704695701599
44 159 0.39046162366867065
44 160 0.05863222852349281
44 161 0.9568442106246948
44 162 0.44806352257728577
44 163 0.22691670060157776
44 164 0.07247138023376465
44 165 0.7932723760604858
44 166 0.956673800945282
44 167 0.9631742238998413
44 168 0.2029198557138443
44 169 0.0756237655878067
44 170 0.09772038459777832
44 171 0.9548798203468323
44 172 0.9351268410682678
44 173 0.7751882672309875
44 174 0.9528842568397522
44 175 0.9582157731056213
44 176 0.6723886132240295
44 177 0.93043452501297
44 178 0.9261217713356018
44 179 0.23461757600307465
44 180 0.9560753703117371
44 181 0.9517841339111328
44 182 0.9564306139945984
44 183 0.425055593252182
44 185 0.9538305401802063
44 186 0.946008563041687
44 187 0.9478187561035156
44 188 0.8323987722396851
44 189 0.943839430809021
44 190 0.9356715679168701
44 191 0.5095195770263672
44 192 0.9432385563850403
44 193 0.9522823095321655
44 194 0.827050507068634
44 195 0.6353520750999451
44 196 0.9616411924362183
44 197 0.7360025644302368
44 198 0.9621456265449524
44 199 0.7020085453987122
44 200 0.9311425089836121
44 201 0.7949305772781372
44 202 0.3257339894771576
44 203 0.5295904874801636
44 204 0.9605507850646973
44 205 0.9558823704719543
44 206 0.12126781046390533
44 207 0.9513053894042969
44 208 0.29180729389190674
44 209 0.9555777311325073
44 210 0.9705765247344971
44 212 0.9483714699745178
44 213 0.9384558200836182
44 214 0.9639416933059692
44 215 0.7077978253364563
44 216 0.9481965899467468
44 217 0.9684135317802429
44 218 0.8476371765136719
44 219 0.5185629725456238
44 220 0.16982796788215637
44 221 0.5265070199966431
44 222 0.8766844868659973
44 223 0.9553806781768799
44 224 0.5107093453407288
44 225 0.9174303412437439
44 226 0.9572726488113403
44 227 0.5241961479187012
44 228 0.9522311091423035
44 229 0.11004874855279922
44 230 0.9500789642333984
44 231 0.14523945748806
44 232 0.22226928174495697
44 233 0.7465857863426208
44 234 0.310867577791214
44 235 0.9606724381446838
44 236 0.10870707035064697
44 238 0.9071516990661621
44 239 0.9440469741821289
44 240 0.9556293487548828
44 241 0.9605000019073486
44 242 0.9365938901901245
44 243 0.9295088052749634
44 244 0.1705024540424347
44 245 0.16042223572731018
44 246 0.9505511522293091
44 247 0.9447417259216309
44 248 0.9164991974830627
44 249 0.9522311091423035
44 250 0.33837229013442993
44 251 0.9003171920776367
44 252 0.9159270524978638
44 253 0.7146194577217102
44 254 0.9478187561035156
44 255 0.9323220252990723
45 46 0.9434590339660645
45 47 0.9732317924499512
45 48 0.9513276815414429
45 49 0.9566702842712402
45 50 0.5481812953948975
45 51 0.9717037081718445
45 52 0.5635907649993896
45 53 0.06564190238714218
45 54 0.8371366262435913
45 55 0.9652701616287231
45 56 0.9685437083244324
45 57 0.9538679122924805
45 58 0.874471127986908
45 59 0.8412056565284729
45 60 0.09453997015953064
45 61 0.9204473495483398
45 62 0.9581307172775269
45 63 0.7408363223075867
45 64 0.9669426679611206
45 65 0.45108309388160706
45 66 0.9663398265838623
45 67 0.9657094478607178
45 68 0.9610141515731812
45 69 0.9145419001579285
45 70 0.8837556838989258
45 71 0.9634799957275391
45 72 0.1607891470193863
45 73 0.9717379212379456
45 74 0.6287710070610046
45 75 0.17904722690582275
45 76 0.9220320582389832
45 77 0.9706400036811829
45 78 0.7254428863525391
45 79 0.9592685103416443
45 80 0.9566702842712402
45 81 0.2228328436613083
45 82 0.9528835415840149
45 83 0.9572804570198059
45 84 0.9391996264457703
45 85 0.9230428338050842
45 86 0.9625577926635742
45 87 0.46548259258270264
45 88 0.9683509469032288
45 89 0.9636304378509521
45 90 0.9680102467536926
45 91 0.9209111332893372
45 92 0.21405544877052307
45 93 0.90287184715271
45 94 0.9583587646484375
45 95 0.796356201171875
45 96 0.9337957501411438
45 97 0.44003826379776
45 98 0.9615514278411865
45 99 0.9615867137908936
45 100 0.9326133728027344
45 101 0.9578197598457336
45 102 0.9562008380889893
45 104 0.9673755764961243
45 105 0.8930980563163757
45 106 0.9689446091651917
45 107 0.29473140835762024
45 109 0.9642333984375
45 110 0.9298039078712463
45 111 0.08508162200450897
45 112 0.9555231928825378
45 113 0.7931645512580872
45 114 0.3696252405643463
45 115 0.6621299982070923
45 116 0.8194072842597961
45 117 0.18473267555236816
45 118 0.4458679258823395
45 119 0.3390088975429535
45 120 0.5725538730621338
45 121 0.9615171551704407
45 122 0.28034546971321106
45 123 0.29128414392471313
45 124 0.08508162200450897
45 125 0.36101484298706055
45 126 0.9431127309799194
45 127 0.9630621671676636
45 128 0.9642683863639832
45 129 0.9005815982818604
45 130 0.1640859842300415
45 131 0.9533261656761169
45 132 0.9567407965660095
45 133 0.17613568902015686
45 134 0.5964389443397522
45 135 0.9469749331474304
45 136 0.1607891470193863
45 137 0.538103461265564
45 138 0.9587938785552979
45 139 0.9706400036811829
45 140 0.7176313400268555
45 141 0.9732969999313354
45 142 0.7240883708000183
45 143 0.9485729336738586
45 144 0.9486095905303955
45 145 0.28218382596969604
45 146 0.7522069811820984
45 147 0.9499784111976624
45 148 0.8508396148681641
45 149 0.9651743769645691
45 150 0.7968396544456482
45 151 0.9586697220802307
45 152 0.8784975409507751
45 153 0.9502413272857666
45 154 0.9499784111976624
45 155 0.28798413276672363
45 156 0.8248242735862732
45 157 0.9221506118774414
45 158 0.9556605815887451
45 159 0.4405534565448761
45 160 0.10665546357631683
45 161 0.9587938785552979
45 162 0.4332335591316223
45 163 0.22514984011650085
45 164 0.05752567946910858
45 165 0.8287799954414368
45 166 0.9668413996696472
45 167 0.9690768122673035
45 168 0.19175226986408234
45 169 0.09647350013256073
45 170 0.10665546357631683
45 171 0.9641032814979553
45 172 0.950037956237793
45 173 0.8067331314086914
45 174 0.9662443399429321
45 175 0.9631965160369873
45 176 0.6568893790245056
45 177 0.9469445943832397
45 178 0.9444952607154846
45 179 0.24912697076797485
45 180 0.9621236324310303
45 181 0.9610141515731812
45 182 0.9583587646484375
45 183 0.4143899977207184
45 185 0.9588975310325623
45 186 0.9565115571022034
45 187 0.9613606929779053
45 188 0.8332050442695618
45 189 0.9512217044830322
45 190 0.9218559861183167
45 191 0.505552351474762
45 192 0.9348258376121521
45 193 0.9594359993934631
45 194 0.8020167946815491
45 195 0.6395413279533386
45 196 0.9696096181869507
45 197 0.7408363223075867
45 198 0.9619575142860413
45 199 0.7021036744117737
45 200 0.9398214817047119
45 201 0.8268861174583435
45 202 0.3263663649559021
45 203 0.5117420554161072
45 204 0.9685437083244324
45 205 0.9609465003013611
45 206 0.12032359093427658
45 207 0.9491537809371948
45 208 0.3264971375465393
45 209 0.9636975526809692
45 210 0.9732969999313354
45 212 0.9556247591972351
45 213 0.9396815896034241
45 214 0.9647349715232849
45 215 0.6910049319267273
45 216 0.9376208782196045
45 217 0.9711719751358032
45 218 0.8527020215988159
45 219 0.504476010799408
45 220 0.1902482807636261
45 221 0.5382915139198303
45 222 0.8877936601638794
45 223 0.9646089673042297
45 224 0.5244783163070679
45 225 0.93617182970047
45 226 0.965338945388794
45 227 0.5367140173912048
45 228 0.9604421854019165
45 229 0.1325901299715042
45 230 0.9583232402801514
45 231 0.24292592704296112
45 232 0.25321102142333984
45 233 0.7664096355438232
45 234 0.30844709277153015
45 235 0.9615171551704407
45 236 0.13662348687648773
45 238 0.9218559861183167
45 239 0.9524127244949341
45 240 0.9637326002120972
45 241 0.9674766063690186
45 242 0.9420169591903687
45 243 0.9403343200683594
45 244 0.195608451962471
45 245 0.18191216886043549
45 246 0.9431499242782593
45 247 0.9320231080055237
45 248 0.9158896207809448
45 249 0.9594005346298218
45 250 0.3264971375465393
45 251 0.9129881858825684
45 252 0.9153256416320801
45 253 0.7229582667350769
45 254 0.9561302065849304
45 255 0.9420169591903687
46 47 0.9480642676353455
46 48 0.9417922496795654
46 49 0.9237284064292908
46 50 0.4721658229827881
46 51 0.9454585909843445
46 52 0.5359793901443481
46 53 0.08111070841550827
46 54 0.791716992855072
46 55 0.945907711982727
46 56 0.9389051198959351
46 57 0.9334778785705566
46 58 0.8933258652687073
46 59 0.822765588760376
46 60 0.10619884729385376
46 61 0.9262033700942993
46 62 0.9368905425071716
46 63 0.6948581337928772
46 64 0.9424849152565002
46 65 0.4467063546180725
46 66 0.9427929520606995
46 67 0.9312491416931152
46 68 0.929594099521637
46 69 0.8829988241195679
46 70 0.8934467434883118
46 71 0.9383050799369812
46 72 0.1523212194442749
46 73 0.9529621601104736
46 74 0.6207377314567566
46 75 0.13084116578102112
46 76 0.9215686917304993
46 77 0.9443067908287048
46 78 0.699964165687561
46 79 0.9242170453071594
46 80 0.9280348420143127
46 81 0.20025046169757843
46 82 0.9206814169883728
46 83 0.9288133382797241
46 84 0.9188596606254578
46 85 0.9057930111885071
46 86 0.9322237372398376
46 87 0.4444539546966553
46 88 0.9426175951957703
46 89 0.9355306625366211
46 90 0.9415137767791748
46 91 0.9014174938201904
46 92 0.2295994758605957
46 93 0.8673402070999146
46 94 0.941782534122467
46 95 0.7598915696144104
46 96 0.9142878651618958
46 97 0.4414345920085907
46 98 0.9344602823257446
46 99 0.9356239438056946
46 100 0.8985803723335266
46 101 0.9315450191497803
46 102 0.9319413304328918
46 104 0.9598570466041565
46 105 0.8623715043067932
46 106 0.9433702826499939
46 107 0.30348849296569824
46 109 0.9330962896347046
46 110 0.8965532183647156
46 111 0.05006261542439461
46 112 0.9342319965362549
46 113 0.7692914605140686
46 114 0.39180195331573486
46 115 0.6572337746620178
46 116 0.8064193725585938
46 117 0.17869290709495544
46 118 0.44527289271354675
46 119 0.3308686316013336
46 120 0.5691075921058655
46 121 0.9386528134346008
46 122 0.2696833312511444
46 123 0.3035094738006592
46 124 0.07509391754865646
46 125 0.27880600094795227
46 126 0.9100980758666992
46 127 0.9316400289535522
46 128 0.9385269284248352
46 129 0.878472626209259
46 130 0.1689613163471222
46 131 0.9263929724693298
46 132 0.9260790348052979
46 133 0.16927778720855713
46 134 0.6016629338264465
46 135 0.9187091588973999
46 136 0.15894387662410736
46 137 0.5402393341064453
46 138 0.9356591701507568
46 139 0.9421848058700562
46 140 0.7315345406532288
46 141 0.9440088272094727
46 142 0.7470703125
46 143 0.9225529432296753
46 144 0.9204828143119812
46 145 0.2150958627462387
46 146 0.7299778461456299
46 147 0.9105914831161499
46 148 0.8206844925880432
46 149 0.9317360520362854
46 150 0.7977975606918335
46 151 0.9201915264129639
46 152 0.879636824131012
46 153 0.9341462850570679
46 154 0.9247683882713318
46 155 0.23393771052360535
46 156 0.8107255101203918
46 157 0.8917608857154846
46 158 0.9292063117027283
46 159 0.3442217707633972
46 160 0.10982441902160645
46 161 0.9249044060707092
46 162 0.4577840268611908
46 163 0.1947452276945114
46 164 0.05923488363623619
46 165 0.8029074668884277
46 166 0.9368799924850464
46 167 0.9416072368621826
46 168 0.19744962453842163
46 169 0.055188849568367004
46 170 0.07987230271100998
46 171 0.9445050954818726
46 172 0.9205924868583679
46 173 0.8074845671653748
46 174 0.9457407593727112
46 175 0.9384344220161438
46 176 0.6280921101570129
46 177 0.922823965549469
46 178 0.9132826328277588
46 179 0.19765353202819824
46 180 0.9319303035736084
46 181 0.9306650161743164
46 182 0.9364193081855774
46 183 0.41912779211997986
46 185 0.9305679798126221
46 186 0.9189086556434631
46 187 0.9263713359832764
46 188 0.7879236340522766
46 189 0.9231425523757935
46 190 0.9189868569374084
46 191 0.4042331278324127
46 192 0.9064956307411194
46 193 0.9290091395378113
46 194 0.7926594614982605
46 195 0.6115046739578247
46 196 0.9432458281517029
46 197 0.7465305328369141
46 198 0.9293020367622375
46 199 0.6585420370101929
46 200 0.9240055680274963
46 201 0.7931705117225647
46 202 0.3360633850097656
46 203 0.5410796403884888
46 204 0.9389051198959351
46 205 0.9293985962867737
46 206 0.11504875123500824
46 207 0.9189086556434631
46 208 0.2505626976490021
46 209 0.941058874130249
46 210 0.9429505467414856
46 212 0.9237284064292908
46 213 0.9511270523071289
46 214 0.9431951642036438
46 215 0.6302177309989929
46 216 0.9041097164154053
46 217 0.9544271230697632
46 218 0.82999187707901
46 219 0.47393423318862915
46 220 0.19590097665786743
46 221 0.5161213874816895
46 222 0.8506877422332764
46 223 0.9353466629981995
46 224 0.5360010862350464
46 225 0.9095689058303833
46 226 0.9354240894317627
46 227 0.5450641512870789
46 228 0.9278382062911987
46 229 0.13652966916561127
46 230 0.9309608340263367
46 231 0.23318485915660858
46 232 0.2607344388961792
46 233 0.7627825736999512
46 234 0.2589225769042969
46 235 0.9354382157325745
46 236 0.14808721840381622
46 238 0.906658947467804
46 239 0.9267663955688477
46 240 0.9358128905296326
46 241 0.9377461671829224
46 242 0.9089034795761108
46 243 0.9113807082176208
46 244 0.201420396566391
46 245 0.1873171627521515
46 246 0.925445020198822
46 247 0.9133310317993164
46 248 0.891579270362854
46 249 0.9289107918739319
46 250 0.313996285200119
46 251 0.8917019367218018
46 252 0.8820032477378845
46 253 0.6742898225784302
46 254 0.9242170453071594
46 255 0.9176324009895325
47 48 0.9578623175621033
47 49 0.958984911441803
47 50 0.5648120641708374
47 51 0.9748848080635071
47 52 0.5648488998413086
47 53 0.07844645529985428
47 54 0.8432366251945496
47 55 0.9726600050926208
47 56 0.9738070368766785
47 57 0.956230640411377
47 58 0.870876133441925
47 59 0.8401479125022888
47 60 0.09415131062269211
47 61 0.9122669696807861
47 62 0.9583722949028015
47 63 0.752257227897644
47 64 0.9773709177970886
47 65 0.45567694306373596
47 66 0.9706190228462219
47 67 0.9679509997367859
47 68 0.9643139243125916
47 69 0.9206108450889587
47 70 0.8881340622901917
47 71 0.9636819362640381
47 72 0.15372303128242493
47 73 0.9810560345649719
47 74 0.6520238518714905
47 75 0.16680721938610077
47 76 0.9311745166778564
47 77 0.9758852124214172
47 78 0.7438668012619019
47 79 0.9615756869316101
47 80 0.958984911441803
47 81 0.23805616796016693
47 82 0.9552369117736816
47 83 0.9647685885429382
47 84 0.9438223838806152
47 85 0.9311304092407227
47 86 0.9648186564445496
47 87 0.4593547582626343
47 88 0.9716054797172546
47 89 0.9700214266777039
47 90 0.9722528457641602
47 91 0.9268360137939453
47 92 0.23094011843204498
47 93 0.909028947353363
47 94 0.9647931456565857
47 95 0.8054549694061279
47 96 0.9384592771530151
47 97 0.44048821926116943
47 98 0.9648452401161194
47 99 0.9659067988395691
47 100 0.9351774454116821
47 101 0.9642617106437683
47 102 0.960586667060852
47 104 0.9757763743400574
47 105 0.9016104340553284
47 106 0.9701159596443176
47 107 0.2935197651386261
47 109 0.9674972891807556
47 110 0.9313339591026306
47 111 0.08473184704780579
47 112 0.9599514603614807
47 113 0.8035441637039185
47 114 0.36810576915740967
47 115 0.669804036617279
47 116 0.8328890800476074
47 117 0.17282335460186005
47 118 0.4507289230823517
47 119 0.34642261266708374
47 120 0.5666027069091797
47 121 0.9668912887573242
47 122 0.2791929841041565
47 123 0.2969934642314911
47 124 0.07262729853391647
47 125 0.3567218780517578
47 126 0.947668731212616
47 127 0.9632503986358643
47 128 0.9695875644683838
47 129 0.9089695811271667
47 130 0.16946369409561157
47 131 0.9535987377166748
47 132 0.961120069026947
47 133 0.16956454515457153
47 134 0.5836267471313477
47 135 0.9546213150024414
47 136 0.1601281613111496
47 137 0.5358912944793701
47 138 0.9683741927146912
47 139 0.973832905292511
47 140 0.7046354413032532
47 141 0.9805548191070557
47 142 0.7168530821800232
47 143 0.9520127177238464
47 144 0.9583253264427185
47 145 0.25547611713409424
47 146 0.7369887232780457
47 147 0.9492371678352356
47 148 0.858997106552124
47 149 0.9663854837417603
47 150 0.7819318175315857
47 151 0.9568178057670593
47 152 0.8737364411354065
47 153 0.9599286317825317
47 154 0.946073055267334
47 155 0.2995469272136688
47 156 0.8395001292228699
47 157 0.9117842316627502
47 158 0.960053026676178
47 159 0.4453565180301666
47 160 0.10621700435876846
47 161 0.960053026676178
47 162 0.44048821926116943
47 163 0.17489492893218994
47 164 0.07161149382591248
47 165 0.8302566409111023
47 166 0.9721548557281494
47 167 0.9733064770698547
47 168 0.18618986010551453
47 169 0.08540168404579163
47 170 0.10621700435876846
47 171 0.9673978686332703
47 172 0.9524469375610352
47 173 0.8171396255493164
47 174 0.9705496430397034
47 175 0.9674972891807556
47 176 0.6790130734443665
47 177 0.932298481464386
47 178 0.948043942451477
47 179 0.23996829986572266
47 180 0.9685045480728149
47 181 0.9684571027755737
47 182 0.9627182483673096
47 183 0.4175702631473541
47 185 0.9642873406410217
47 186 0.9546729326248169
47 187 0.9626175165176392
47 188 0.8285700678825378
47 189 0.9525508284568787
47 190 0.9256534576416016
47 191 0.5072882175445557
47 192 0.9373667240142822
47 193 0.9637823104858398
47 194 0.8073613047599792
47 195 0.6535932421684265
47 196 0.9769113659858704
47 197 0.7601479887962341
47 198 0.961120069026947
47 199 0.7186015844345093
47 200 0.9549943208694458
47 201 0.8234868049621582
47 202 0.32502466440200806
47 203 0.5115909576416016
47 204 0.9727797508239746
47 205 0.9632237553596497
47 206 0.11982893943786621
47 207 0.9546729326248169
47 208 0.3128848969936371
47 209 0.9700667262077332
47 210 0.9764606356620789
47 212 0.958984911441803
47 213 0.9464408159255981
47 214 0.9721328616142273
47 215 0.702208399772644
47 216 0.9422455430030823
47 217 0.9764102697372437
47 218 0.857328474521637
47 219 0.4943956732749939
47 220 0.189466193318367
47 221 0.5729889273643494
47 222 0.8919582962989807
47 223 0.9627182483673096
47 224 0.5164313912391663
47 225 0.9430643320083618
47 226 0.9716745018959045
47 227 0.5510388016700745
47 228 0.9637556672096252
47 229 0.13204506039619446
47 230 0.9699610471725464
47 231 0.2501281797885895
47 232 0.2521700859069824
47 233 0.751164972782135
47 234 0.2938234508037567
47 235 0.9658549427986145
47 236 0.14322298765182495
47 238 0.931073009967804
47 239 0.9589318633079529
47 240 0.9721548557281494
47 241 0.971725583076477
47 242 0.9455312490463257
47 243 0.9438756704330444
47 244 0.19480431079864502
47 245 0.18116432428359985
47 246 0.9498026371002197
47 247 0.939940869808197
47 248 0.921873927116394
47 249 0.9627182483673096
47 250 0.3128848969936371
47 251 0.9233906865119934
47 252 0.9191500544548035
47 253 0.7255245447158813
47 254 0.9605339169502258
47 255 0.9518629908561707
48 49 0.9406198263168335
48 50 0.5367658138275146
48 51 0.9636356234550476
48 52 0.5534229278564453
48 53 0.053262364119291306
48 54 0.8102038502693176
48 55 0.9558998942375183
48 56 0.9562008380889893
48 57 0.9418699741363525
48 58 0.8822606205940247
48 59 0.8116413354873657
48 60 0.11332230269908905
48 61 0.9156627058982849
48 62 0.940926194190979
48 63 0.7259522080421448
48 64 0.9524409174919128
48 65 0.4487592875957489
48 66 0.9549077749252319
48 67 0.9478504061698914
48 68 0.9504557847976685
48 69 0.8986658453941345
48 70 0.8765426278114319
48 71 0.9454224705696106
48 72 0.15003547072410583
48 73 0.9605639576911926
48 74 0.636189341545105
48 75 0.15816813707351685
48 76 0.9373754858970642
48 77 0.9593990445137024
48 78 0.7344251275062561
48 79 0.9421783685684204
48 80 0.944861650466919
48 81 0.2465568333864212
48 82 0.9430549144744873
48 83 0.9434321522712708
48 84 0.9255917072296143
48 85 0.9065021872520447
48 86 0.946731448173523
48 87 0.4356383681297302
48 88 0.9516316652297974
48 89 0.9489047527313232
48 90 0.9598332047462463
48 91 0.9208568930625916
48 92 0.2216309905052185
48 93 0.8934114575386047
48 94 0.953007161617279
48 95 0.7837707996368408
48 96 0.9297930598258972
48 97 0.42560794949531555
48 98 0.9562851190567017
48 99 0.951074481010437
48 100 0.9241922497749329
48 101 0.9439936280250549
48 102 0.9539546370506287
48 104 0.9570087790489197
48 105 0.8844005465507507
48 106 0.959662675857544
48 107 0.2918168008327484
48 109 0.9516935348510742
48 110 0.9245287179946899
48 112 0.9393616914749146
48 113 0.8057379722595215
48 114 0.3721395432949066
48 115 0.6685468554496765
48 116 0.8200598955154419
48 117 0.18168918788433075
48 118 0.44540852308273315
48 119 0.310953825712204
48 120 0.5642313361167908
48 121 0.9456760287284851
48 122 0.21699877083301544
48 123 0.29543784260749817
48 124 0.07396704703569412
48 125 0.2946467101573944
48 126 0.9286484718322754
48 127 0.9482836127281189
48 128 0.9580593109130859
48 129 0.8977524638175964
48 130 0.16642585396766663
48 131 0.9338361620903015
48 132 0.9471032023429871
48 133 0.1310081034898758
48 134 0.578565776348114
48 135 0.9327007532119751
48 136 0.13698890805244446
48 137 0.5360308289527893
48 138 0.9449236989021301
48 139 0.9552186131477356
48 140 0.7074028253555298
48 141 0.9600732326507568
48 142 0.7228482961654663
48 143 0.9375398755073547
48 144 0.9386699795722961
48 145 0.23416998982429504
48 146 0.742350697517395
48 147 0.9280776977539062
48 148 0.8582244515419006
48 149 0.9483460187911987
48 150 0.7845094203948975
48 151 0.9372340440750122
48 152 0.8676077723503113
48 153 0.9478173851966858
48 154 0.9398935437202454
48 155 0.2953362762928009
48 156 0.8255463242530823
48 157 0.9073976874351501
48 158 0.9470424056053162
48 159 0.4019276201725006
48 160 0.08850793540477753
48 161 0.9428050518035889
48 162 0.42560794949531555
48 163 0.1872556060552597
48 164 0.05834599956870079
48 165 0.8144851326942444
48 166 0.9543524384498596
48 167 0.964074432849884
48 168 0.20907314121723175
48 169 0.06523279845714569
48 170 0.10817637294530869
48 171 0.9461715817451477
48 172 0.9442923665046692
48 173 0.797908365726471
48 174 0.9652699828147888
48 175 0.9548482894897461
48 176 0.6677438616752625
48 177 0.9297837615013123
48 178 0.9244458675384521
48 179 0.21954123675823212
48 180 0.9474208950996399
48 181 0.9504557847976685
48 182 0.9498374462127686
48 183 0.41283825039863586
48 185 0.9493395686149597
48 186 0.9371023178100586
48 187 0.940056324005127
48 188 0.7933465242385864
48 189 0.9338361620903015
48 190 0.9085080623626709
48 191 0.4583777189254761
48 192 0.9275680184364319
48 193 0.9477869868278503
48 194 0.8071672320365906
48 195 0.6146837472915649
48 196 0.9625343680381775
48 197 0.7514007091522217
48 198 0.9439285397529602
48 199 0.6895536184310913
48 200 0.9370670318603516
48 201 0.797492504119873
48 202 0.3181651830673218
48 203 0.5130735635757446
48 204 0.9582932591438293
48 205 0.9524503946304321
48 206 0.10460519790649414
48 207 0.9381684064865112
48 208 0.24992679059505463
48 209 0.962709903717041
48 210 0.9611156582832336
48 212 0.9395594000816345
48 213 0.9357724189758301
48 214 0.9511364102363586
48 215 0.6736825108528137
48 216 0.9272435903549194
48 217 0.967263400554657
48 218 0.8341004848480225
48 219 0.4668222963809967
48 220 0.18744806945323944
48 221 0.5191167593002319
48 222 0.8743040561676025
48 223 0.9434981942176819
48 224 0.5219582915306091
48 225 0.9167041778564453
48 226 0.9507704973220825
48 227 0.5443676114082336
48 228 0.9487809538841248
48 229 0.12657023966312408
48 230 0.9466051459312439
48 231 0.23386172950267792
48 232 0.24025267362594604
48 233 0.7485989928245544
48 234 0.22443266212940216
48 235 0.9520087242126465
48 236 0.13127849996089935
48 238 0.9074041843414307
48 239 0.9543045163154602
48 240 0.9554034471511841
48 241 0.9571861028671265
48 242 0.9253572225570679
48 243 0.9397336840629578
48 244 0.1769494116306305
48 245 0.1729745864868164
48 246 0.9351508617401123
48 247 0.9224696159362793
48 248 0.9057816863059998
48 249 0.9466677904129028
48 250 0.30928441882133484
48 251 0.9104815721511841
48 252 0.9118197560310364
48 253 0.6825029253959656
48 254 0.940056324005127
48 255 0.935029923915863
49 50 0.5995470285415649
49 51 0.9595341682434082
49 52 0.5607385039329529
49 53 0.06636648625135422
49 54 0.8318471908569336
49 55 0.9528636932373047
49 56 0.9583778977394104
49 57 0.9378150701522827
49 58 0.8444666266441345
49 59 0.8078449368476868
49 60 0.1216517761349678
49 61 0.8893217444419861
49 62 0.943242609500885
49 63 0.7703762650489807
49 64 0.9556825160980225
49 65 0.4669729769229889
49 66 0.9529218673706055
49 67 0.9574516415596008
49 68 0.9495399594306946
49 69 0.8969200253486633
49 70 0.8505202531814575
49 71 0.9455891847610474
49 72 0.11704609543085098
49 73 0.9606318473815918
49 74 0.6511415243148804
49 75 0.18102364242076874
49 76 0.9070445895195007
49 77 0.9615606069564819
49 78 0.7551825046539307
49 79 0.9476468563079834
49 80 0.948202908039093
49 81 0.24167747795581818
49 82 0.9506696462631226
49 83 0.9467613697052002
49 84 0.9237284064292908
49 85 0.9167823791503906
49 86 0.9521411061286926
49 87 0.46420323848724365
49 88 0.9528064131736755
49 89 0.9574516415596008
49 90 0.9567845463752747
49 91 0.9135504364967346
49 92 0.22994446754455566
49 93 0.8972530961036682
49 94 0.951033353805542
49 95 0.7913299798965454
49 96 0.9225238561630249
49 97 0.43801578879356384
49 98 0.9490437507629395
49 99 0.9564527273178101
49 100 0.925586998462677
49 101 0.9473177194595337
49 102 0.9488138556480408
49 104 0.9529218673706055
49 105 0.8849648833274841
49 106 0.9534747004508972
49 107 0.25541552901268005
49 109 0.9518154263496399
49 110 0.9226789474487305
49 111 0.08602079749107361
49 112 0.94380122423172
49 113 0.7805184125900269
49 114 0.29127037525177
49 115 0.6422994136810303
49 116 0.8211208581924438
49 117 0.15847307443618774
49 118 0.46211597323417664
49 119 0.33679017424583435
49 120 0.5386998057365417
49 121 0.9500369429588318
49 122 0.275981068611145
49 123 0.2769697308540344
49 124 0.07373210787773132
49 125 0.3707030117511749
49 126 0.9385408163070679
49 127 0.9515873789787292
49 128 0.9560633897781372
49 129 0.8915534019470215
49 130 0.12288685888051987
49 131 0.9383170008659363
49 132 0.9588629007339478
49 133 0.17807996273040771
49 134 0.576728105545044
49 135 0.9552980661392212
49 136 0.08453328907489777
49 137 0.5207271575927734
49 138 0.9450902938842773
49 139 0.9605188369750977
49 140 0.667275607585907
49 141 0.9632584452629089
49 142 0.6657903790473938
49 143 0.9356264472007751
49 144 0.9399416446685791
49 145 0.2852987051010132
49 146 0.7317858338356018
49 147 0.9358373880386353
49 148 0.844849169254303
49 149 0.9505914449691772
49 150 0.7426542639732361
49 151 0.9459220767021179
49 152 0.8461776971817017
49 153 0.9384374022483826
49 154 0.9347666501998901
49 155 0.3170442283153534
49 156 0.8155875205993652
49 157 0.8956151008605957
49 158 0.9440343379974365
49 159 0.4722757637500763
49 160 0.10783277451992035
49 161 0.9482582211494446
49 162 0.4357225298881531
49 163 0.23218786716461182
49 164 0.05816067382693291
49 165 0.8131375908851624
49 166 0.9576073288917542
49 167 0.9578853249549866
49 168 0.20356236398220062
49 169 0.09753841161727905
49 170 0.10783277451992035
49 171 0.9473767876625061
49 172 0.9370192885398865
49 173 0.7751096487045288
49 174 0.9506491422653198
49 175 0.9581049680709839
49 176 0.6760000586509705
49 177 0.9148221611976624
49 178 0.9279763102531433
49 179 0.23948955535888672
49 180 0.9559544920921326
49 181 0.9632099270820618
49 182 0.9541928768157959
49 183 0.3768198788166046
49 185 0.9557979106903076
49 186 0.9405021071434021
49 187 0.9455316066741943
49 188 0.8313503861427307
49 189 0.9415085911750793
49 190 0.9012208580970764
49 191 0.5382384657859802
49 192 0.9213812947273254
49 193 0.9489848613739014
49 194 0.7832977771759033
49 195 0.6542985439300537
49 196 0.9584352374076843
49 197 0.7490140199661255
49 198 0.9451497793197632
49 199 0.7281271815299988
49 200 0.9276486039161682
49 201 0.8198407292366028
49 202 0.31715458631515503
49 203 0.4797264337539673
49 204 0.9604636430740356
49 205 0.9473177194595337
49 206 0.09558354318141937
49 207 0.943690299987793
49 208 0.3394436538219452
49 209 0.9554569721221924
49 210 0.9653366208076477
49 212 0.9513742327690125
49 213 0.9220162630081177
49 214 0.9523105621337891
49 215 0.7271482348442078
49 216 0.9286024570465088
49 217 0.958984911441803
49 218 0.8562177419662476
49 219 0.5019164085388184
49 220 0.14288733899593353
49 221 0.5692146420478821
49 222 0.8953267931938171
49 223 0.9468205571174622
49 224 0.4943850040435791
49 225 0.9148828983306885
49 226 0.96762615442276
49 227 0.531450092792511
49 228 0.9478737115859985
49 229 0.12616822123527527
49 230 0.9520328640937805
49 231 0.2539331316947937
49 232 0.24774780869483948
49 233 0.7257580757141113
49 234 0.29490339756011963
49 235 0.9521411061286926
49 236 0.13086152076721191
49 238 0.9166263341903687
49 239 0.9417394399642944
49 240 0.9576073288917542
49 241 0.9624972343444824
49 242 0.9342026710510254
49 243 0.9346004128456116
49 244 0.19776766002178192
49 245 0.15518265962600708
49 246 0.9332495331764221
49 247 0.9303832054138184
49 248 0.9139022827148438
49 249 0.9531397223472595
49 250 0.2958453893661499
49 251 0.9042732119560242
49 252 0.9210278391838074
49 253 0.7196933031082153
49 254 0.942358672618866
49 255 0.9406306147575378
50 51 0.5628067851066589
50 52 0.38297271728515625
50 54 0.5410184264183044
50 55 0.551332414150238
50 56 0.5983516573905945
50 57 0.5066434144973755
50 58 0.33846405148506165
50 59 0.4118359386920929
50 60 0.12894035875797272
50 61 0.4157813489437103
50 62 0.5615424513816833
50 63 0.7242340445518494
50 64 0.5648359060287476
50 65 0.5036883354187012
50 66 0.5559397339820862
50 67 0.5822287797927856
50 68 0.5860006809234619
50 69 0.47891944646835327
50 70 0.3180076777935028
50 71 0.5330364108085632
50 72 0.07504787296056747
50 73 0.560516893863678
50 74 0.6360025405883789
50 75 0.22144067287445068
50 76 0.4780528247356415
50 77 0.5788429975509644
50 78 0.638231098651886
50 79 0.5684759020805359
50 80 0.5908326506614685
50 81 0.2836543023586273
50 82 0.5860334038734436
50 83 0.5666797757148743
50 84 0.5431682467460632
50 85 0.500836193561554
50 86 0.5793688893318176
50 87 0.4091309905052185
50 88 0.5692076086997986
50 89 0.585694432258606
50 90 0.5848973393440247
50 91 0.5616720914840698
50 92 0.20071159303188324
50 93 0.6368913054466248
50 94 0.5608754754066467
50 95 0.6067930459976196
50 96 0.5585950613021851
50 97 0.26089242100715637
50 98 0.5770303010940552
50 99 0.5729663372039795
50 100 0.5729439854621887
50 101 0.5889678597450256
50 102 0.5724969506263733
50 104 0.540401041507721
50 105 0.6155244708061218
50 106 0.5642797946929932
50 109 0.5945402979850769
50 110 0.5536780953407288
50 111 0.08104409277439117
50 112 0.5594953298568726
50 113 0.5417363047599792
50 114 0.16762858629226685
50 115 0.32316720485687256
50 116 0.5802114009857178
50 117 0.05598925054073334
50 118 0.3286695182323456
50 119 0.14250656962394714
50 120 0.09634534269571304
50 121 0.5689610242843628
50 122 0.1660226434469223
50 124 0.14182715117931366
50 125 0.3244051933288574
50 126 0.601677656173706
50 127 0.5623169541358948
50 128 0.5490336418151855
50 129 0.5795182585716248
50 131 0.5683056116104126
50 132 0.6052402853965759
50 133 0.05872201919555664
50 134 0.12716975808143616
50 135 0.5882300734519958
50 137 0.18260230123996735
50 138 0.522308886051178
50 139 0.5736901164054871
50 140 0.07446589320898056
50 141 0.5893556475639343
50 143 0.5598352551460266
50 144 0.5750139951705933
50 145 0.2687928378582001
50 146 0.4465307295322418
50 147 0.5455108880996704
50 148 0.542352557182312
50 149 0.5755982995033264
50 150 0.12331078201532364
50 151 0.5892184972763062
50 152 0.37139567732810974
50 153 0.5583411455154419
50 154 0.55257248878479
50 155 0.4640544652938843
50 156 0.43748220801353455
50 157 0.4861019253730774
50 158 0.5832449197769165
50 159 0.5609352588653564
50 161 0.5971732139587402
50 162 0.36676180362701416
50 163 0.34528931975364685
50 164 0.09589266031980515
50 165 0.3576467037200928
50 166 0.5717751383781433
50 167 0.5808589458465576
50 168 0.3116511404514313
50 169 0.10721125453710556
50 170 0.09697622805833817
50 171 0.5432260036468506
50 172 0.5584240555763245
50 173 0.29860955476760864
50 174 0.5386268496513367
50 175 0.584170401096344
50 176 0.691710352897644
50 177 0.4769737124443054
50 178 0.5117786526679993
50 179 0.2723168730735779
50 180 0.5899689793586731
50 181 0.5946693420410156
50 182 0.579976499080658
50 183 0.12670911848545074
50 185 0.5952923893928528
50 186 0.5676981210708618
50 187 0.5632445216178894
50 188 0.4737696349620819
50 189 0.58409184217453
50 190 0.46808308362960815
50 191 0.7597361207008362
50 192 0.573458731174469
50 193 0.5932459831237793
50 194 0.47939205169677734
50 195 0.6066536903381348
50 196 0.5857135653495789
50 197 0.5525311231613159
50 198 0.5634995102882385
50 199 0.674413800239563
50 200 0.5169024467468262
50 201 0.4697161912918091
50 202 0.08451070636510849
50 203 0.16015124320983887
50 204 0.5949128866195679
50 205 0.5820183753967285
50 207 0.5764589309692383
50 208 0.3748176097869873
50 209 0.5740989446640015
50 210 0.5944953560829163
50 212 0.604775607585907
50 213 0.4800563454627991
50 214 0.5568068027496338
50 215 0.7404901385307312
50 216 0.6031896471977234
50 217 0.561378538608551
50 218 0.5872331261634827
50 219 0.2680281400680542
50 221 0.6001661419868469
50 222 0.5680467486381531
50 223 0.543510913848877
50 224 0.05587512254714966
50 225 0.48902198672294617
50 226 0.5967575311660767
50 227 0.325896292924881
50 228 0.5817129611968994
50 230 0.5684180855751038
50 231 0.13726994395256042
50 233 0.1349545270204544
50 234 0.2459060102701187
50 235 0.5793688893318176
50 238 0.4971114993095398
50 239 0.5711269974708557
50 240 0.595958948135376
50 241 0.595525860786438
50 242 0.6040970087051392
50 243 0.5774045586585999
50 246 0.5534381866455078
50 247 0.529202938079834
50 248 0.5874888896942139
50 249 0.5851858854293823
50 250 0.1386311650276184
50 251 0.5504390597343445
50 252 0.5660539269447327
50 253 0.34531840682029724
50 254 0.5684759020805359
50 255 0.5793678760528564
51 52 0.5717057585716248
51 53 0.06533854454755783
51 54 0.8404204249382019
51 55 0.9711295366287231
51 56 0.974334716796875
51 57 0.96202152967453
51 58 0.8876547813415527
51 59 0.8349189758300781
51 60 0.11976753175258636
51 61 0.9172922372817993
51 62 0.958925724029541
51 63 0.749242901802063
51 64 0.9737851619720459
51 65 0.4339602291584015
51 66 0.9690907001495361
51 67 0.9664201736450195
51 68 0.9648550152778625
51 69 0.9245050549507141
51 70 0.8842472434043884
51 71 0.9600675702095032
51 72 0.14724242687225342
51 73 0.9774826169013977
51 74 0.6471325159072876
51 75 0.17821979522705078
51 76 0.9436237215995789
51 77 0.980513334274292
51 78 0.7461600303649902
51 79 0.9600417017936707
51 80 0.9605748653411865
51 81 0.25406530499458313
51 82 0.9568365812301636
51 83 0.9621982574462891
51 84 0.9422788023948669
51 85 0.9274142980575562
51 86 0.9643242359161377
51 87 0.4380587935447693
51 88 0.966975212097168
51 89 0.9664201736450195
51 90 0.9768906831741333
51 91 0.9360668063163757
51 92 0.23082175850868225
51 93 0.9085630774497986
51 94 0.9653355479240417
51 95 0.807515561580658
51 96 0.9432898163795471
51 97 0.435746967792511
51 98 0.9705590009689331
51 99 0.9685128331184387
51 100 0.935763955116272
51 101 0.9627301692962646
51 102 0.9611335396766663
51 104 0.9701216220855713
51 105 0.9011484384536743
51 106 0.9716796278953552
51 107 0.2933693528175354
51 109 0.968033492565155
51 110 0.9329966306686401
51 112 0.9573714733123779
51 113 0.8167658448219299
51 114 0.3787381947040558
51 115 0.6857890486717224
51 116 0.8348682522773743
51 117 0.18387895822525024
51 118 0.4393470287322998
51 119 0.34037652611732483
51 120 0.5609188675880432
51 121 0.9663957953453064
51 122 0.22764597833156586
51 123 0.2968412935733795
51 124 0.060491736978292465
51 125 0.33407992124557495
51 126 0.9471830725669861
51 127 0.963793158531189
51 128 0.9794001579284668
51 129 0.9172922372817993
51 130 0.16937686502933502
51 131 0.9531100392341614
51 132 0.9616660475730896
51 133 0.16363359987735748
51 134 0.5816018581390381
51 135 0.9541321396827698
51 136 0.15364424884319305
51 137 0.5356166362762451
51 138 0.9668383598327637
51 139 0.9743594527244568
51 140 0.7057087421417236
51 141 0.9769832491874695
51 142 0.7193233370780945
51 143 0.9525727033615112
51 144 0.9609746932983398
51 145 0.24440187215805054
51 146 0.7379575967788696
51 147 0.9476965665817261
51 148 0.8690413236618042
51 149 0.967960774898529
51 150 0.7879900336265564
51 151 0.956327497959137
51 152 0.8709904551506042
51 153 0.9583916068077087
51 154 0.9466423988342285
51 155 0.30576351284980774
51 156 0.841477632522583
51 157 0.9178889989852905
51 158 0.964759111404419
51 159 0.4252958595752716
51 160 0.10616257041692734
51 161 0.9606006145477295
51 162 0.4109116494655609
51 163 0.1523943692445755
51 165 0.838373601436615
51 166 0.9706252217292786
51 167 0.981016993522644
51 168 0.17177949845790863
51 169 0.07468818128108978
51 170 0.10616257041692734
51 171 0.9669021368026733
51 172 0.958270251750946
51 173 0.8142271637916565
51 174 0.9824624061584473
51 175 0.9711295366287231
51 176 0.6757460832595825
51 177 0.9425684213638306
51 178 0.9401304721832275
51 179 0.252040833234787
51 180 0.966975212097168
51 181 0.9658902287483215
51 182 0.9632617831230164
51 183 0.41247496008872986
51 185 0.963793158531189
51 186 0.9552299976348877
51 187 0.961082935333252
51 188 0.8196826577186584
51 189 0.9531100392341614
51 190 0.9240958094596863
51 191 0.49368539452552795
51 192 0.9379497170448303
51 193 0.9643242359161377
51 194 0.8168184757232666
51 195 0.6396172046661377
51 196 0.9743594527244568
51 197 0.75844407081604
51 198 0.9616660475730896
51 199 0.7085461616516113
51 200 0.9650753140449524
51 201 0.808367133140564
51 202 0.3248580992221832
51 203 0.5015705823898315
51 204 0.9733080267906189
51 205 0.9679173231124878
51 206 0.11121270805597305
51 207 0.9562762379646301
51 208 0.2728675305843353
51 209 0.9706021547317505
51 210 0.9769832491874695
51 212 0.9595341682434082
51 213 0.9502025246620178
51 214 0.9757649302482605
51 215 0.7018485069274902
51 216 0.9417626857757568
51 217 0.9841108322143555
51 218 0.8580502867698669
51 219 0.4761371314525604
51 220 0.1893690973520279
51 221 0.5639116764068604
51 222 0.8948485851287842
51 223 0.9684461951255798
51 224 0.5122414827346802
51 225 0.9350662231445312
51 226 0.9701467752456665
51 227 0.541577160358429
51 228 0.9653355479240417
51 229 0.12421401590108871
51 230 0.9632362127304077
51 231 0.25
51 232 0.252040833234787
51 233 0.756152331829071
51 234 0.2569637894630432
51 235 0.9643242359161377
51 236 0.14314958453178406
51 238 0.9316791892051697
51 239 0.9636550545692444
51 240 0.9695937633514404
51 241 0.9722553491592407
51 242 0.9461014270782471
51 243 0.9539681673049927
51 244 0.19470447301864624
51 245 0.18107149004936218
51 246 0.94826340675354
51 247 0.9415942430496216
51 248 0.9203187823295593
51 249 0.9684461951255798
51 250 0.3157905042171478
51 251 0.9272708892822266
51 252 0.919762372970581
51 253 0.7196172475814819
51 254 0.9590004682540894
51 255 0.9471561908721924
52 53 0.06835859268903732
52 54 0.5487616658210754
52 55 0.534461498260498
52 56 0.5496076345443726
52 57 0.5220447778701782
52 58 0.46854665875434875
52 59 0.5438521504402161
52 61 0.544016420841217
52 62 0.5391460061073303
52 63 0.426317423582077
52 64 0.545078694820404
52 65 0.11238083243370056
52 66 0.5141324400901794
52 67 0.579157292842865
52 68 0.5198895335197449
52 69 0.5157836675643921
52 70 0.5126249194145203
52 71 0.5078442096710205
52 73 0.5407800674438477
52 74 0.4317611753940582
52 75 0.31076228618621826
52 76 0.5052652955055237
52 77 0.5740808248519897
52 78 0.5199661254882812
52 79 0.5628507733345032
52 80 0.5298888683319092
52 81 0.35159868001937866
52 82 0.5318602919578552
52 83 0.5683120489120483
52 84 0.45835477113723755
52 85 0.5082961320877075
52 86 0.5418350100517273
52 87 0.08079122006893158
52 88 0.5710460543632507
52 89 0.579157292842865
52 90 0.5552639961242676
52 91 0.5735342502593994
52 92 0.3560439944267273
52 93 0.4854077398777008
52 94 0.5586753487586975
52 95 0.39029112458229065
52 96 0.45010191202163696
52 97 0.14960050582885742
52 98 0.5376600623130798
52 99 0.5659366250038147
52 100 0.423720121383667
52 101 0.5264073610305786
52 102 0.5091206431388855
52 104 0.5321090817451477
52 105 0.5733249187469482
52 106 0.5695647597312927
52 107 0.3288528323173523
52 108 0.0789337009191513
52 109 0.5146666169166565
52 110 0.4589560329914093
52 112 0.524295449256897
52 113 0.4992252588272095
52 114 0.3066174387931824
52 115 0.1320052444934845
52 116 0.5432886481285095
52 118 0.5677626132965088
52 119 0.26094210147857666
52 120 0.28840693831443787
52 121 0.5328044295310974
52 122 0.14085212349891663
52 123 0.22870826721191406
52 125 0.35245877504348755
52 126 0.5088928937911987
52 127 0.513205885887146
52 128 0.5770507454872131
52 129 0.5152831673622131
52 130 0.1265755146741867
52 131 0.5314556360244751
52 132 0.537826418876648
52 134 0.3731555938720703
52 135 0.5832170248031616
52 136 0.10046620666980743
52 137 0.4169447124004364
52 138 0.5492700338363647
52 139 0.5311589241027832
52 140 0.30013322830200195
52 141 0.5654775500297546
52 142 0.4032517075538635
52 143 0.5006765127182007
52 144 0.5841060280799866
52 145 0.324393630027771
52 146 0.39918312430381775
52 147 0.5165214538574219
52 148 0.5240753293037415
52 149 0.5686291456222534
52 150 0.3603987693786621
52 151 0.5552433729171753
52 152 0.3927106559276581
52 153 0.5266764760017395
52 154 0.5128450989723206
52 155 0.23881150782108307
52 156 0.41562625765800476
52 157 0.49658307433128357
52 158 0.5510828495025635
52 159 0.42266759276390076
52 160 0.18511594831943512
52 161 0.5093891024589539
52 162 0.08267396688461304
52 163 0.054709210991859436
52 165 0.6405009627342224
52 166 0.5683572292327881
52 167 0.5654290914535522
52 168 0.08320343494415283
52 169 0.09302426129579544
52 170 0.1682872325181961
52 171 0.5547683238983154
52 172 0.5832692980766296
52 173 0.6000865697860718
52 174 0.5770516991615295
52 175 0.5614544749259949
52 176 0.37410393357276917
52 177 0.5284875631332397
52 178 0.5587708353996277
52 179 0.38986510038375854
52 180 0.5584362149238586
52 181 0.5794601440429688
52 182 0.551443338394165
52 183 0.2468375712633133
52 184 0.0789337009191513
52 185 0.5312764644622803
52 186 0.5162927508354187
52 187 0.5682977437973022
52 188 0.3604828119277954
52 189 0.5442398190498352
52 190 0.4231441617012024
52 191 0.34234198927879333
52 192 0.45987001061439514
52 193 0.5346105098724365
52 194 0.32917845249176025
52 195 0.31714749336242676
52 196 0.5687155723571777
52 197 0.5638391375541687
52 198 0.5142852067947388
52 199 0.41504865884780884
52 200 0.5732224583625793
52 201 0.5851776003837585
52 202 0.35747218132019043
52 203 0.20078134536743164
52 204 0.5549783706665039
52 205 0.5517328381538391
52 206 0.1491706818342209
52 207 0.5400093197822571
52 208 0.2245347499847412
52 209 0.56534743309021
52 210 0.5601260662078857
52 212 0.5407769680023193
52 213 0.49058178067207336
52 214 0.5527441501617432
52 215 0.3818303048610687
52 216 0.46918678283691406
52 217 0.5594863891601562
52 218 0.45351192355155945
52 220 0.11321258544921875
52 221 0.4625464975833893
52 222 0.5214136242866516
52 223 0.5333632230758667
52 224 0.2737768292427063
52 225 0.569075882434845
52 226 0.5728614926338196
52 227 0.4353610873222351
52 228 0.5695234537124634
52 229 0.14890719950199127
52 230 0.5538328289985657
52 231 0.4001940190792084
52 232 0.3331574499607086
52 233 0.43559837341308594
52 235 0.5219677090644836
52 236 0.12480514496564865
52 238 0.5874903798103333
52 239 0.5692019462585449
52 240 0.5719544291496277
52 241 0.573471188545227
52 242 0.5223191976547241
52 243 0.5772236585617065
52 244 0.30280324816703796
52 245 0.0789337009191513
52 246 0.4514521360397339
52 247 0.5137794613838196
52 248 0.4304538667201996
52 249 0.5622913837432861
52 251 0.6015873551368713
52 252 0.4514797031879425
52 253 0.3378303050994873
52 254 0.5755603313446045
52 255 0.59036785364151
53 54 0.07601980119943619
53 55 0.05264981463551521
53 56 0.07856741547584534
53 57 0.0667557343840599
53 58 0.08787495642900467
53 61 0.07005523145198822
53 62 0.07993607223033905
53 63 0.08382374048233032
53 64 0.06557412445545197
53 65 0.08219949156045914
53 66 0.07889275252819061
53 70 0.07294802367687225
53 71 0.07959771901369095
53 73 0.0783260390162468
53 76 0.06869324296712875
53 77 0.06540559232234955
53 78 0.0852740928530693
53 79 0.05312127247452736
53 80 0.053093187510967255
53 83 0.07943014800548553
53 84 0.08111070841550827
53 85 0.08261923491954803
53 86 0.07926362752914429
53 87 0.053721535950899124
53 88 0.07905694842338562
53 89 0.0791807547211647
53 92 0.05661385506391525
53 94 0.07934675365686417
53 95 0.07886003702878952
53 96 0.05419278144836426
53 97 0.17277368903160095
53 99 0.07909814268350601
53 100 0.054372724145650864
53 101 0.07938841730356216
53 102 0.05300920084118843
53 104 0.07889275252819061
53 105 0.05647825449705124
53 106 0.0788518637418747
53 107 0.13363061845302582
53 109 0.06581226736307144
53 111 0.15430335700511932
53 112 0.07989354431629181
53 114 0.06900656223297119
53 116 0.07671455293893814
53 119 0.11227217316627502
53 120 0.11464755237102509
53 121 0.05284241959452629
53 122 0.23414646089076996
53 127 0.07930515706539154
53 128 0.07889275252819061
53 131 0.08014974743127823
53 134 0.08804509043693542
53 135 0.08023570477962494
53 136 0.08164966106414795
53 138 0.05303715169429779
53 139 0.07848671078681946
53 141 0.07828603684902191
53 142 0.0723811537027359
53 143 0.06682724505662918
53 144 0.08010687679052353
53 146 0.06870054453611374
53 147 0.05377976596355438
53 151 0.07989354431629181
53 152 0.07327630370855331
53 153 0.06664890050888062
53 154 0.06722471117973328
53 156 0.07676879316568375
53 157 0.08381981402635574
53 161 0.07955572009086609
53 166 0.0789337083697319
53 168 0.06085805967450142
53 171 0.07930515706539154
53 172 0.05366348847746849
53 173 0.0795154795050621
53 174 0.05275961756706238
53 175 0.07897471636533737
53 178 0.06766650080680847
53 179 0.051847588270902634
53 180 0.07905694842338562
53 181 0.0660184696316719
53 182 0.07934675365686417
53 183 0.15564320981502533
53 185 0.07930515706539154
53 186 0.0800640732049942
53 187 0.06640159338712692
53 188 0.06167730316519737
53 189 0.08014974743127823
53 190 0.08290266245603561
53 192 0.05425256863236427
53 193 0.05284241959452629
53 195 0.09665558487176895
53 196 0.07848671078681946
53 197 0.10058848559856415
53 198 0.07947193831205368
53 199 0.07060045003890991
53 200 0.06740773469209671
53 201 0.09372712671756744
53 202 0.16090360283851624
53 203 0.14934802055358887
53 207 0.06672006100416183
53 209 0.07901579141616821
53 210 0.07828603684902191
53 212 0.07963977754116058
53 213 0.08124444633722305
53 214 0.07901579141616821
53 215 0.07161148637533188
53 216 0.08106627315282822
53 217 0.07844645529985428
53 219 0.0765465497970581
53 221 0.06721660494804382
53 223 0.07934675365686417
53 225 0.06846104562282562
53 226 0.07881103456020355
53 227 0.14048786461353302
53 229 0.0990147590637207
53 230 0.07943014800548553
53 231 0.052270837128162384
53 232 0.1555427610874176
53 233 0.06851887702941895
53 235 0.07926362752914429
53 238 0.08290266245603561
53 240 0.0789337083697319
53 241 0.07864838093519211
53 242 0.0807134285569191
53 243 0.06744451820850372
53 244 0.20134681463241577
53 246 0.06711560487747192
53 247 0.06807921826839447
53 248 0.0690460205078125
53 249 0.05289783701300621
53 251 0.05552343279123306
53 253 0.07060045003890991
53 254 0.07968190312385559
53 255 0.0807134285569191
54 55 0.8393092751502991
54 56 0.8505096435546875
54 57 0.8330721855163574
54 58 0.753530740737915
54 59 0.6685407757759094
54 60 0.11943994462490082
54 61 0.7374868988990784
54 62 0.8179271817207336
54 63 0.7019686102867126
54 64 0.8386650085449219
54 65 0.3774268627166748
54 66 0.8348397016525269
54 67 0.8318681120872498
54 68 0.8310986161231995
54 69 0.8064118027687073
54 70 0.7266814708709717
54 71 0.8144650459289551
54 72 0.1564161777496338
54 73 0.8336063623428345
54 74 0.5302273631095886
54 75 0.1404658704996109
54 76 0.7933334112167358
54 77 0.8329296112060547
54 78 0.6721075773239136
54 79 0.8274412155151367
54 80 0.8185279369354248
54 81 0.21114200353622437
54 82 0.8276499509811401
54 83 0.8175809979438782
54 84 0.8225471377372742
54 85 0.8252837061882019
54 86 0.8303284049034119
54 87 0.4141075015068054
54 88 0.8365771770477295
54 89 0.8318681120872498
54 90 0.8366056680679321
54 91 0.7867051362991333
54 92 0.16010038554668427
54 93 0.7995127439498901
54 94 0.8275801539421082
54 95 0.7395339012145996
54 96 0.7922230362892151
54 97 0.357250839471817
54 98 0.8318681120872498
54 99 0.8249871730804443
54 100 0.7923735976219177
54 101 0.8376707434654236
54 102 0.8232777714729309
54 104 0.828842282295227
54 105 0.774111807346344
54 106 0.8284127712249756
54 107 0.3047572076320648
54 109 0.8369078040122986
54 110 0.8253428339958191
54 111 0.08445678651332855
54 112 0.8259948492050171
54 113 0.7065867781639099
54 114 0.27068662643432617
54 115 0.582017183303833
54 116 0.7334104180335999
54 117 0.09076187014579773
54 118 0.28801941871643066
54 119 0.3823639452457428
54 120 0.4957367479801178
54 121 0.8255079388618469
54 122 0.26913246512413025
54 123 0.18071560561656952
54 125 0.34296515583992004
54 126 0.8360185027122498
54 127 0.833175003528595
54 128 0.8348397016525269
54 129 0.7771093249320984
54 130 0.12668518722057343
54 131 0.8322994709014893
54 132 0.8252608776092529
54 133 0.1563866138458252
54 134 0.46584469079971313
54 135 0.8197731971740723
54 136 0.11917421966791153
54 137 0.5452798008918762
54 138 0.8382266163825989
54 139 0.8341229557991028
54 140 0.5473833084106445
54 141 0.8474635481834412
54 142 0.5595942139625549
54 143 0.8303070068359375
54 144 0.8123672008514404
54 145 0.24615858495235443
54 146 0.7285529375076294
54 147 0.8401512503623962
54 148 0.7969594597816467
54 149 0.8262805938720703
54 150 0.6567946076393127
54 151 0.822350800037384
54 152 0.7486684322357178
54 153 0.8171471357345581
54 154 0.8242067694664001
54 155 0.32610267400741577
54 156 0.760540783405304
54 157 0.7926725745201111
54 158 0.8345979452133179
54 159 0.3897038996219635
54 160 0.08983095735311508
54 161 0.8285501599311829
54 162 0.3073408007621765
54 163 0.16166238486766815
54 164 0.08327552676200867
54 165 0.7283757925033569
54 166 0.8256722092628479
54 167 0.8345514535903931
54 168 0.11103402823209763
54 169 0.09931185096502304
54 170 0.112288698554039
54 171 0.822323203086853
54 172 0.8077385425567627
54 173 0.6658897399902344
54 174 0.8314337730407715
54 175 0.8297034502029419
54 176 0.584141731262207
54 177 0.8052977323532104
54 178 0.8074012994766235
54 179 0.2885136306285858
54 180 0.8642226457595825
54 181 0.8443479537963867
54 182 0.8167226910591125
54 183 0.4117524325847626
54 184 0.052668068557977676
54 185 0.8416152596473694
54 186 0.8265406489372253
54 187 0.8165379166603088
54 188 0.7722283005714417
54 189 0.8371738791465759
54 190 0.7625715732574463
54 191 0.5278186798095703
54 192 0.7943342924118042
54 193 0.8267130851745605
54 194 0.7134789824485779
54 195 0.5184563994407654
54 196 0.8377028107643127
54 197 0.6224427223205566
54 198 0.8421769142150879
54 199 0.602181077003479
54 200 0.812922477722168
54 201 0.6854363679885864
54 202 0.36328622698783875
54 203 0.4087226688861847
54 204 0.8397588133811951
54 205 0.8400848507881165
54 206 0.11943994462490082
54 207 0.8423654437065125
54 208 0.28893765807151794
54 209 0.826530933380127
54 210 0.8474635481834412
54 212 0.8342688083648682
54 213 0.789316713809967
54 214 0.8397458791732788
54 215 0.7300258278846741
54 216 0.8368868827819824
54 217 0.8313096761703491
54 218 0.6876118183135986
54 219 0.44923093914985657
54 220 0.11960572004318237
54 221 0.43739834427833557
54 222 0.7594310641288757
54 223 0.8251672983169556
54 224 0.32653337717056274
54 225 0.8018931746482849
54 226 0.8507503867149353
54 227 0.4464181661605835
54 228 0.8456758856773376
54 229 0.08129248768091202
54 230 0.8260345458984375
54 231 0.17166033387184143
54 232 0.24121631681919098
54 233 0.6406813263893127
54 234 0.3183847963809967
54 235 0.8315335512161255
54 236 0.06662041693925858
54 238 0.795343279838562
54 239 0.8251175284385681
54 240 0.8376732468605042
54 241 0.8370368480682373
54 242 0.80747389793396
54 243 0.8219797611236572
54 244 0.159185990691185
54 245 0.12508666515350342
54 246 0.7983789443969727
54 247 0.8048732876777649
54 248 0.7860700488090515
54 249 0.836024820804596
54 250 0.24613209068775177
54 251 0.7850837707519531
54 252 0.7839992642402649
54 253 0.6376034617424011
54 254 0.8431904911994934
54 255 0.8197454810142517
55 56 0.9679549932479858
55 57 0.9616155624389648
55 58 0.8790539503097534
55 59 0.8228479623794556
55 60 0.12063587456941605
55 61 0.9029189348220825
55 62 0.9553565979003906
55 63 0.744083046913147
55 64 0.9756667017936707
55 65 0.4500899314880371
55 66 0.9761168360710144
55 67 0.9598782062530518
55 68 0.961422860622406
55 69 0.9125177264213562
55 70 0.8825927376747131
55 71 0.9586466550827026
55 72 0.1612064689397812
55 73 0.9752908945083618
55 74 0.6395834684371948
55 75 0.10423273593187332
55 76 0.9417851567268372
55 77 0.9690268635749817
55 78 0.7300195097923279
55 79 0.9523189067840576
55 80 0.9528636932373047
55 81 0.21934914588928223
55 82 0.9490436911582947
55 83 0.9555829167366028
55 84 0.9587191343307495
55 85 0.9287009835243225
55 86 0.9587961435317993
55 87 0.47093334794044495
55 88 0.9604583382606506
55 89 0.9577937722206116
55 90 0.9684532880783081
55 91 0.9200425744056702
55 92 0.20119783282279968
55 93 0.9007993936538696
55 94 0.9598016738891602
55 95 0.7996686697006226
55 96 0.9437090158462524
55 97 0.44345447421073914
55 98 0.9598782062530518
55 99 0.9588767886161804
55 100 0.9350338578224182
55 101 0.9582157731056213
55 102 0.9597291350364685
55 104 0.9740399718284607
55 105 0.8931859135627747
55 106 0.9631562829017639
55 107 0.2954963147640228
55 109 0.965696394443512
55 110 0.9408386945724487
55 111 0.0853024423122406
55 112 0.9537967443466187
55 113 0.8002166152000427
55 114 0.3651348054409027
55 115 0.6892660856246948
55 116 0.822745680809021
55 117 0.1852121204137802
55 118 0.4043442904949188
55 119 0.3517109751701355
55 120 0.5667965412139893
55 121 0.9629693627357483
55 122 0.26627975702285767
55 123 0.2955167889595032
55 124 0.0853024423122406
55 125 0.32801881432533264
55 126 0.9455605149269104
55 127 0.9613862633705139
55 128 0.9646941423416138
55 129 0.9062385559082031
55 130 0.1706048846244812
55 131 0.9484156966209412
55 132 0.9550396800041199
55 133 0.15893355011940002
55 134 0.5753886103630066
55 135 0.9452083110809326
55 136 0.1612064689397812
55 137 0.5260124802589417
55 138 0.9644238352775574
55 139 0.9731591939926147
55 140 0.7108253240585327
55 141 0.9717013835906982
55 142 0.713106095790863
55 143 0.9510347843170166
55 144 0.947908341884613
55 145 0.2094314694404602
55 146 0.7433080077171326
55 147 0.9524439573287964
55 148 0.8624348640441895
55 149 0.9593372941017151
55 150 0.7897997498512268
55 151 0.9485387802124023
55 152 0.8819349408149719
55 153 0.9590239524841309
55 154 0.9418258666992188
55 155 0.2855234444141388
55 156 0.8451533913612366
55 157 0.9068914651870728
55 158 0.9560465812683105
55 159 0.4106226861476898
55 160 0.07776892930269241
55 161 0.9570937156677246
55 162 0.44118034839630127
55 163 0.18510204553604126
55 164 0.07209372520446777
55 165 0.8137223720550537
55 166 0.9620780944824219
55 167 0.9674574732780457
55 168 0.1682186871767044
55 169 0.07522968202829361
55 170 0.10693227499723434
55 171 0.9592984914779663
55 172 0.9450870752334595
55 173 0.8038031458854675
55 174 0.9625020623207092
55 175 0.9615384936332703
55 176 0.6762351393699646
55 177 0.9320813417434692
55 178 0.9341211318969727
55 179 0.2211110144853592
55 180 0.9635801315307617
55 181 0.9593372941017151
55 182 0.9566685557365417
55 183 0.41792383790016174
55 185 0.9582546949386597
55 186 0.9463480114936829
55 187 0.9533677101135254
55 188 0.8341498374938965
55 189 0.9526355266571045
55 190 0.9253396987915039
55 191 0.4895849823951721
55 192 0.9393944144248962
55 193 0.9587961435317993
55 194 0.8252261877059937
55 195 0.6412011981010437
55 196 0.9700599908828735
55 197 0.7454070448875427
55 198 0.9623619914054871
55 199 0.7025319933891296
55 200 0.9497135281562805
55 201 0.7957228422164917
55 202 0.324036568403244
55 203 0.5091387033462524
55 204 0.9669209122657776
55 205 0.9582157731056213
55 206 0.12063587456941605
55 207 0.9526710510253906
55 208 0.2686695456504822
55 209 0.9620386362075806
55 210 0.9696404933929443
55 212 0.9549602270126343
55 213 0.9538835883140564
55 214 0.9682788848876953
55 215 0.692798376083374
55 216 0.9421884417533875
55 217 0.9736925363540649
55 218 0.8467285633087158
55 219 0.4997400641441345
55 220 0.19074206054210663
55 221 0.5467665195465088
55 222 0.8867262601852417
55 223 0.9566685557365417
55 224 0.5120016932487488
55 225 0.9256256222724915
55 226 0.9626576900482178
55 227 0.5381069779396057
55 228 0.9587572813034058
55 229 0.12511460483074188
55 230 0.957673966884613
55 231 0.22291602194309235
55 232 0.24567890167236328
55 233 0.7481065392494202
55 234 0.2890792787075043
55 235 0.9619261026382446
55 236 0.13697807490825653
55 238 0.916610062122345
55 239 0.9548846483230591
55 240 0.9631170034408569
55 241 0.9648115634918213
55 242 0.9380874633789062
55 243 0.9374484419822693
55 244 0.16431352496147156
55 245 0.18238429725170135
55 246 0.9508981704711914
55 247 0.9419692158699036
55 248 0.9215384125709534
55 249 0.9598016738891602
55 250 0.32734450697898865
55 251 0.9109728336334229
55 252 0.9187924861907959
55 253 0.7290163040161133
55 254 0.9512701034545898
55 255 0.9402122497558594
56 57 0.9514114260673523
56 58 0.8664655685424805
56 59 0.8222103714942932
56 60 0.12001371383666992
56 61 0.9037663340568542
56 62 0.9556632041931152
56 63 0.7784432768821716
56 64 0.9716652035713196
56 65 0.47144877910614014
56 66 0.9679834842681885
56 67 0.9632225036621094
56 68 0.9709877967834473
56 69 0.9099990725517273
56 70 0.8654319643974304
56 71 0.9578717947006226
56 72 0.16037507355213165
56 73 0.9743635654449463
56 74 0.6697736978530884
56 75 0.17282527685165405
56 76 0.9293721914291382
56 77 0.972251296043396
56 78 0.7570734024047852
56 79 0.9578415155410767
56 80 0.9594207406044006
56 81 0.24650539457798004
56 82 0.9588034152984619
56 83 0.9600156545639038
56 84 0.9484640955924988
56 85 0.9206656813621521
56 86 0.9642305374145508
56 87 0.48116686940193176
56 88 0.9648219347000122
56 89 0.9632225036621094
56 90 0.9737520217895508
56 91 0.9293457865715027
56 92 0.22240020334720612
56 93 0.9312970042228699
56 94 0.9610857963562012
56 95 0.825284481048584
56 96 0.9420353770256042
56 97 0.42533066868782043
56 98 0.9704803824424744
56 99 0.9642890691757202
56 100 0.9408913850784302
56 101 0.9657486081123352
56 102 0.9599854946136475
56 104 0.9669504165649414
56 105 0.9074380993843079
56 106 0.9674817323684692
56 107 0.26247531175613403
56 109 0.974159836769104
56 110 0.9338421821594238
56 111 0.08486250787973404
56 112 0.9541085362434387
56 113 0.8246545195579529
56 114 0.37409502267837524
56 115 0.6842238306999207
56 116 0.835378885269165
56 117 0.1786734014749527
56 118 0.429076224565506
56 119 0.341076135635376
56 120 0.5422552227973938
56 121 0.962154746055603
56 122 0.2501894533634186
56 123 0.2870752513408661
56 124 0.08486250787973404
56 125 0.34039294719696045
56 126 0.9607433676719666
56 127 0.9626588821411133
56 128 0.9669504165649414
56 129 0.9202784895896912
56 130 0.16972501575946808
56 131 0.9540196657180786
56 132 0.9688460230827332
56 133 0.15811388194561005
56 134 0.5499393343925476
56 135 0.9497894048690796
56 136 0.16037507355213165
56 137 0.530967116355896
56 138 0.9584081768989563
56 139 0.9732790589332581
56 140 0.6755384206771851
56 141 0.9759160280227661
56 142 0.6852594614028931
56 143 0.9545307755470276
56 144 0.9524603486061096
56 145 0.25221481919288635
56 146 0.7354263067245483
56 147 0.9464755654335022
56 148 0.8731623291969299
56 149 0.9626887440681458
56 150 0.7598375678062439
56 151 0.9541085362434387
56 152 0.862417995929718
56 153 0.9614089131355286
56 154 0.9464755654335022
56 155 0.3223499059677124
56 156 0.8420009613037109
56 157 0.9077023267745972
56 158 0.9667421579360962
56 159 0.4526676833629608
56 160 0.07736784964799881
56 161 0.9636169672012329
56 162 0.4434298574924469
56 163 0.22457002103328705
56 164 0.07172191143035889
56 165 0.8107485771179199
56 166 0.9664187431335449
56 167 0.9748073220252991
56 168 0.21516574919223785
56 169 0.09622504562139511
56 170 0.10638079792261124
56 171 0.9616204500198364
56 172 0.9465372562408447
56 173 0.7884125709533691
56 174 0.9637559056282043
56 175 0.9689891338348389
56 176 0.7034600377082825
56 177 0.9283512830734253
56 178 0.9378097653388977
56 179 0.2525589168071747
56 180 0.9689627885818481
56 181 0.9637261033058167
56 182 0.9610857963562012
56 183 0.41821417212486267
56 185 0.9720050692558289
56 186 0.954048216342926
56 187 0.9567981362342834
56 188 0.8201560974121094
56 189 0.9508710503578186
56 190 0.9183962345123291
56 191 0.5367210507392883
56 192 0.9409433007240295
56 193 0.9663064479827881
56 194 0.8234429955482483
56 195 0.657638669013977
56 196 0.972251296043396
56 197 0.7560514807701111
56 198 0.9615614414215088
56 199 0.7335768938064575
56 200 0.9426971673965454
56 201 0.805119514465332
56 202 0.3097236156463623
56 203 0.4869563579559326
56 204 0.9794238209724426
56 205 0.96366947889328
56 206 0.12001371383666992
56 207 0.9529998302459717
56 208 0.3164396286010742
56 209 0.9663891196250916
56 210 0.974890947341919
56 212 0.9604636430740356
56 213 0.9383254647254944
56 214 0.9663891196250916
56 215 0.7314228415489197
56 216 0.9553752541542053
56 217 0.9738070368766785
56 218 0.8667948842048645
56 219 0.5011720657348633
56 220 0.1897583305835724
56 221 0.5756328701972961
56 222 0.896687924861908
56 223 0.9610857963562012
56 224 0.47199487686157227
56 225 0.9262306690216064
56 226 0.9700769186019897
56 227 0.5390110611915588
56 228 0.9642027616500854
56 229 0.07779333740472794
56 230 0.9631359577178955
56 231 0.217659592628479
56 232 0.22404420375823975
56 233 0.7267523407936096
56 234 0.30430868268013
56 235 0.9652685523033142
56 236 0.12192725390195847
56 238 0.9173106551170349
56 239 0.9645907878875732
56 240 0.9695194959640503
56 241 0.9701343774795532
56 242 0.9438185691833496
56 243 0.9463909864425659
56 244 0.14764679968357086
56 245 0.17577356100082397
56 246 0.9523218274116516
56 247 0.9328321218490601
56 248 0.9298052191734314
56 249 0.9673198461532593
56 250 0.3225840628147125
56 251 0.9139087200164795
56 252 0.9194818139076233
56 253 0.7155494689941406
56 254 0.9599282741546631
56 255 0.9448754787445068
57 58 0.8975220322608948
57 59 0.8113573789596558
57 60 0.11362489312887192
57 61 0.8990272879600525
57 62 0.9402368664741516
57 63 0.7158039212226868
57 64 0.957085371017456
57 65 0.4104490876197815
57 66 0.9648308157920837
57 67 0.9440385103225708
57 68 0.9519360065460205
57 69 0.9334055781364441
57 70 0.8683646321296692
57 71 0.943696141242981
57 72 0.15043608844280243
57 73 0.9579002261161804
57 74 0.588222861289978
57 75 0.06461094319820404
57 76 0.932174563407898
57 77 0.9535777568817139
57 78 0.7049634456634521
57 79 0.9393749237060547
57 80 0.9399416446685791
57 81 0.17717090249061584
57 82 0.9445058703422546
57 83 0.9427698850631714
57 84 0.939975380897522
57 85 0.9232624769210815
57 86 0.9429099559783936
57 87 0.46477413177490234
57 88 0.9467841982841492
57 89 0.9450955986976624
57 90 0.9519011974334717
57 91 0.9100940227508545
57 92 0.12698444724082947
57 93 0.8823602199554443
57 94 0.9428394436836243
57 95 0.77322918176651
57 96 0.9344464540481567
57 97 0.4198242723941803
57 98 0.9535529017448425
57 99 0.946221649646759
57 100 0.9277490377426147
57 101 0.9412146806716919
57 102 0.9405779838562012
57 104 0.9564043283462524
57 105 0.8731892108917236
57 106 0.951697587966919
57 107 0.2997324764728546
57 109 0.9542347192764282
57 110 0.9390221238136292
57 112 0.9386699795722961
57 113 0.7888951897621155
57 114 0.37589719891548157
57 115 0.6885311007499695
57 116 0.7964390516281128
57 117 0.18786728382110596
57 118 0.36684826016426086
57 119 0.33576756715774536
57 120 0.5749219655990601
57 121 0.9450265169143677
57 122 0.24758897721767426
57 123 0.29622673988342285
57 125 0.3298529386520386
57 126 0.9300516247749329
57 127 0.9476392269134521
57 128 0.9553509950637817
57 129 0.8889258503913879
57 130 0.1730506420135498
57 131 0.9373998045921326
57 132 0.9390217661857605
57 133 0.1731536090373993
57 134 0.5977432131767273
57 135 0.9287639260292053
57 136 0.15697677433490753
57 137 0.5452797412872314
57 138 0.961254894733429
57 139 0.9556735754013062
57 140 0.7210155129432678
57 141 0.9553203582763672
57 142 0.7218794226646423
57 143 0.9453966021537781
57 144 0.9326202869415283
57 145 0.23479527235031128
57 146 0.7484605312347412
57 147 0.9456343650817871
57 148 0.8521846532821655
57 149 0.9434743523597717
57 150 0.8050814270973206
57 151 0.9333366751670837
57 152 0.8863603472709656
57 153 0.9353989958763123
57 154 0.9337870478630066
57 155 0.29287075996398926
57 156 0.8326704502105713
57 157 0.918773353099823
57 158 0.9410738945007324
57 159 0.3624756634235382
57 160 0.07888380438089371
57 161 0.940011739730835
57 162 0.40137046575546265
57 163 0.16027918457984924
57 164 0.07312723994255066
57 165 0.8179067373275757
57 166 0.9495237469673157
57 167 0.956164538860321
57 168 0.107253298163414
57 169 0.07630816102027893
57 170 0.10846523195505142
57 171 0.9518744945526123
57 172 0.9306933283805847
57 173 0.814052402973175
57 174 0.956224799156189
57 175 0.9468539357185364
57 176 0.633739173412323
57 177 0.9388549327850342
57 178 0.9204096794128418
57 179 0.24089419841766357
57 180 0.9499506950378418
57 181 0.9434743523597717
57 182 0.9417800903320312
57 183 0.4189278781414032
57 185 0.943403959274292
57 186 0.9406735897064209
57 187 0.945758044719696
57 188 0.841167151927948
57 189 0.9331194162368774
57 190 0.9153613448143005
57 191 0.46544408798217773
57 192 0.9300448298454285
57 193 0.9439681768417358
57 194 0.8257107734680176
57 195 0.5899996161460876
57 196 0.9525298476219177
57 197 0.7158039212226868
57 198 0.9517542719841003
57 199 0.6673586368560791
57 200 0.9320094585418701
57 201 0.7846055626869202
57 202 0.3286818861961365
57 203 0.5184314846992493
57 204 0.9524603486061096
57 205 0.950753927230835
57 206 0.11362489312887192
57 207 0.9449493885040283
57 208 0.25999143719673157
57 209 0.9473465085029602
57 210 0.9563655257225037
57 212 0.9367517828941345
57 213 0.9480335116386414
57 214 0.9547311067581177
57 215 0.6797838807106018
57 216 0.9308018684387207
57 217 0.9604200720787048
57 218 0.825651228427887
57 219 0.5089481472969055
57 220 0.19347649812698364
57 221 0.49358031153678894
57 222 0.8709388375282288
57 223 0.9502550363540649
57 224 0.5233519673347473
57 225 0.919152021408081
57 226 0.9491004347801208
57 227 0.49142664670944214
57 228 0.9470769166946411
57 229 0.1348399668931961
57 230 0.9427698850631714
57 231 0.17586465179920197
57 232 0.2575075924396515
57 233 0.7725532054901123
57 234 0.28299474716186523
57 235 0.9450265169143677
57 236 0.13894174993038177
57 238 0.9031860828399658
57 239 0.9355418682098389
57 240 0.9463622570037842
57 241 0.9502915740013123
57 242 0.9224399924278259
57 243 0.9271153211593628
57 244 0.17204549908638
57 245 0.18499889969825745
57 246 0.9301209449768066
57 247 0.9336585998535156
57 248 0.8982444405555725
57 249 0.9491956830024719
57 250 0.3351696729660034
57 251 0.8940095901489258
57 252 0.9065065979957581
57 253 0.7267422080039978
57 254 0.9425665140151978
57 255 0.9224399924278259
58 59 0.7273555397987366
58 60 0.12464326620101929
58 61 0.8593915104866028
58 62 0.8710229992866516
58 63 0.5981197953224182
58 64 0.8758731484413147
58 65 0.3081931471824646
58 66 0.8839189410209656
58 67 0.8511960506439209
58 68 0.8655644059181213
58 69 0.8502078056335449
58 70 0.8576986789703369
58 71 0.860341489315033
58 72 0.15784913301467896
58 73 0.874127984046936
58 74 0.48181959986686707
58 76 0.9139134287834167
58 77 0.8690240979194641
58 78 0.6324477195739746
58 79 0.8472473621368408
58 80 0.8561305403709412
58 81 0.11751480400562286
58 82 0.8569743037223816
58 83 0.8527136445045471
58 84 0.8660033941268921
58 85 0.8421788215637207
58 86 0.8555695414543152
58 87 0.3375355899333954
58 88 0.8637592196464539
58 89 0.8546750545501709
58 90 0.8657603859901428
58 91 0.8206751942634583
58 93 0.7836743593215942
58 94 0.8785467147827148
58 95 0.691596269607544
58 96 0.8619560599327087
58 97 0.42510947585105896
58 98 0.8732297420501709
58 99 0.8653679490089417
58 100 0.8373446464538574
58 101 0.8592419624328613
58 102 0.8571053743362427
58 104 0.8816080093383789
58 105 0.7742316722869873
58 106 0.8730671405792236
58 107 0.3053123950958252
58 109 0.868644118309021
58 110 0.8609985709190369
58 112 0.863538920879364
58 113 0.7334330677986145
58 114 0.4093165099620819
58 115 0.6870890855789185
58 116 0.7496312856674194
58 117 0.18110504746437073
58 118 0.3099399507045746
58 119 0.332152396440506
58 120 0.5903743505477905
58 121 0.8578912615776062
58 122 0.2057560831308365
58 123 0.2707935571670532
58 125 0.13214997947216034
58 126 0.8360300660133362
58 127 0.8629868030548096
58 128 0.8816080093383789
58 129 0.8113740086555481
58 130 0.16949249804019928
58 131 0.8616127371788025
58 132 0.8473426699638367
58 133 0.15719549357891083
58 134 0.5531925559043884
58 135 0.8402094841003418
58 136 0.1721990406513214
58 137 0.5960124135017395
58 138 0.8785300850868225
58 139 0.8667250275611877
58 140 0.7137691974639893
58 141 0.8668020963668823
58 142 0.7537181377410889
58 143 0.8738192319869995
58 144 0.854112446308136
58 145 0.15126757323741913
58 146 0.7184097766876221
58 147 0.8672016263008118
58 148 0.8003436326980591
58 149 0.8574424386024475
58 150 0.7933884859085083
58 151 0.8448172211647034
58 152 0.856407105922699
58 153 0.8726586103439331
58 154 0.8790163397789001
58 155 0.23202894628047943
58 156 0.7852407097816467
58 157 0.8654654026031494
58 158 0.8563920855522156
58 159 0.12348615378141403
58 161 0.8563920855522156
58 162 0.3137712776660919
58 163 0.060281720012426376
58 165 0.76728755235672
58 166 0.8693490624427795
58 167 0.8729208707809448
58 168 0.0909142941236496
58 170 0.09734993427991867
58 171 0.8862165212631226
58 172 0.8629688024520874
58 173 0.7867833971977234
58 174 0.8820463418960571
58 175 0.8628608584403992
58 176 0.5463405251502991
58 177 0.890168309211731
58 178 0.8312774300575256
58 179 0.24602963030338287
58 180 0.8591278195381165
58 181 0.8504807949066162
58 182 0.8634393811225891
58 183 0.45408105850219727
58 185 0.8536948561668396
58 186 0.8560013175010681
58 187 0.8589174747467041
58 188 0.7357500791549683
58 189 0.8487003445625305
58 190 0.864494800567627
58 191 0.27131178975105286
58 192 0.8462209701538086
58 193 0.8532477617263794
58 194 0.8006829023361206
58 195 0.4314751625061035
58 196 0.8747715950012207
58 197 0.6555746793746948
58 198 0.8717852234840393
58 199 0.5319939851760864
58 200 0.8743014335632324
58 201 0.6877283453941345
58 202 0.36055460572242737
58 203 0.5380819439888
58 204 0.8653149008750916
58 205 0.865055501461029
58 206 0.10546738654375076
58 207 0.8618643283843994
58 208 0.09277693182229996
58 209 0.8656242489814758
58 210 0.8725348711013794
58 212 0.8433002829551697
58 213 0.8959886431694031
58 214 0.887611985206604
58 215 0.5710766911506653
58 216 0.844157874584198
58 217 0.892705500125885
58 218 0.7235316038131714
58 219 0.43946629762649536
58 220 0.20617423951625824
58 221 0.3681815564632416
58 222 0.7590638399124146
58 223 0.8762224316596985
58 224 0.5125126838684082
58 225 0.8542735576629639
58 226 0.8576098084449768
58 227 0.48764196038246155
58 228 0.8529804944992065
58 229 0.1218128353357315
58 230 0.8573669791221619
58 231 0.08727265149354935
58 232 0.24602963030338287
58 233 0.7556471824645996
58 234 0.20571136474609375
58 235 0.8613739609718323
58 236 0.10428404062986374
58 238 0.8426395654678345
58 239 0.8696349859237671
58 240 0.8658808469772339
58 241 0.8615990877151489
58 242 0.8286625146865845
58 243 0.8558131456375122
58 244 0.1651378571987152
58 245 0.14586207270622253
58 246 0.8398439884185791
58 247 0.8698493838310242
58 248 0.8130337595939636
58 249 0.8657636642456055
58 250 0.3230011761188507
58 251 0.8233513236045837
58 252 0.8159276843070984
58 253 0.6266051530838013
58 254 0.848414421081543
58 255 0.8333909511566162
59 60 0.05008019506931305
59 61 0.8334530591964722
59 62 0.8279724717140198
59 63 0.4924732446670532
59 64 0.8367253541946411
59 65 0.3445911109447479
59 66 0.8183727860450745
59 67 0.8298404812812805
59 68 0.8242139220237732
59 69 0.801268994808197
59 70 0.7647424936294556
59 71 0.8256856203079224
59 72 0.0899437963962555
59 73 0.8388583660125732
59 74 0.5015538930892944
59 75 0.20192980766296387
59 76 0.7668020129203796
59 77 0.8369765281677246
59 78 0.577708899974823
59 79 0.8338735699653625
59 80 0.813937246799469
59 81 0.203029066324234
59 82 0.8084043860435486
59 83 0.8336694240570068
59 84 0.7917412519454956
59 85 0.808994472026825
59 86 0.8246453404426575
59 87 0.39945605397224426
59 88 0.8321714401245117
59 89 0.8237832188606262
59 90 0.8298497796058655
59 91 0.8093382120132446
59 92 0.24945922195911407
59 93 0.7622052431106567
59 94 0.8109424710273743
59 95 0.6008564233779907
59 96 0.7897521257400513
59 97 0.2749130129814148
59 98 0.8310519456863403
59 99 0.8398662805557251
59 100 0.7848873734474182
59 101 0.806509792804718
59 102 0.8223820328712463
59 104 0.8316501975059509
59 105 0.7738044261932373
59 106 0.8336320519447327
59 107 0.2616979479789734
59 108 0.052999891340732574
59 109 0.8216395974159241
59 110 0.779181957244873
59 111 0.0566592700779438
59 112 0.8104190230369568
59 113 0.6718589067459106
59 114 0.28506147861480713
59 115 0.4987873435020447
59 116 0.6352138519287109
59 117 0.12395289540290833
59 118 0.48044562339782715
59 119 0.2404831051826477
59 120 0.47570621967315674
59 121 0.8343470692634583
59 122 0.17195436358451843
59 123 0.3111727237701416
59 124 0.0566592700779438
59 125 0.39442965388298035
59 126 0.8005784153938293
59 127 0.8153707385063171
59 128 0.8219939470291138
59 129 0.7524229288101196
59 130 0.1487305909395218
59 131 0.8117916584014893
59 132 0.8170854449272156
59 133 0.19842545688152313
59 134 0.5980982184410095
59 135 0.8052966594696045
59 136 0.13491569459438324
59 137 0.38746023178100586
59 138 0.8325530886650085
59 139 0.8297716379165649
59 140 0.7053337097167969
59 141 0.8324410915374756
59 142 0.7043150663375854
59 143 0.8195881247520447
59 144 0.8138086199760437
59 145 0.3075014352798462
59 146 0.5502514839172363
59 147 0.7973096966743469
59 148 0.6533141136169434
59 149 0.8375468254089355
59 150 0.7698278427124023
59 151 0.8263095617294312
59 152 0.7439680695533752
59 153 0.8125061392784119
59 154 0.7948412895202637
59 155 0.16407863795757294
59 156 0.6413006782531738
59 157 0.7822775840759277
59 158 0.8313359022140503
59 159 0.43343910574913025
59 160 0.12429577112197876
59 161 0.8082094192504883
59 162 0.3621450662612915
59 163 0.2204063981771469
59 164 0.06704015284776688
59 165 0.7672555446624756
59 166 0.821212887763977
59 167 0.837406575679779
59 168 0.20670711994171143
59 169 0.11242976039648056
59 170 0.10169653594493866
59 171 0.8262908458709717
59 172 0.8017435669898987
59 173 0.7445390820503235
59 174 0.8318288922309875
59 175 0.8204313516616821
59 176 0.45795440673828125
59 177 0.8103713393211365
59 178 0.8336079120635986
59 179 0.1665835827589035
59 180 0.8200759887695312
59 181 0.8230018615722656
59 182 0.8121564388275146
59 183 0.25718066096305847
59 185 0.8080905675888062
59 186 0.8219484686851501
59 187 0.8326544761657715
59 188 0.6964117884635925
59 189 0.8130179047584534
59 190 0.7673760652542114
59 191 0.41732755303382874
59 192 0.8080544471740723
59 193 0.8367725014686584
59 194 0.6515218615531921
59 195 0.5359194874763489
59 196 0.8285707831382751
59 197 0.5925068855285645
59 198 0.8170854449272156
59 199 0.5541268587112427
59 200 0.80690598487854
59 201 0.7843989133834839
59 202 0.20678994059562683
59 203 0.4501425623893738
59 204 0.8330289721488953
59 205 0.8247290849685669
59 206 0.12019246071577072
59 207 0.8256233334541321
59 208 0.3374229669570923
59 209 0.8160223960876465
59 210 0.8312432765960693
59 212 0.8054079413414001
59 213 0.798018753528595
59 214 0.8208581209182739
59 215 0.47002866864204407
59 216 0.7764240503311157
59 217 0.8317463994026184
59 218 0.7639932632446289
59 219 0.39350417256355286
59 220 0.22171446681022644
59 221 0.45866522192955017
59 222 0.8138570785522461
59 223 0.832794189453125
59 224 0.5583744049072266
59 225 0.7981469631195068
59 226 0.8199367523193359
59 227 0.4126904308795929
59 228 0.832794189453125
59 229 0.14543050527572632
59 230 0.8215168118476868
59 231 0.2879031002521515
59 232 0.2379765510559082
59 233 0.7343493700027466
59 234 0.28522589802742004
59 235 0.8197945356369019
59 236 0.1676003783941269
59 238 0.8143064975738525
59 239 0.8156635165214539
59 240 0.8151745796203613
59 241 0.8326840400695801
59 242 0.7965075969696045
59 243 0.797440230846405
59 244 0.1540278196334839
59 245 0.2053745836019516
59 246 0.7984801530838013
59 247 0.773696780204773
59 248 0.7644016742706299
59 249 0.8085144758224487
59 250 0.3302437663078308
59 251 0.7836588621139526
59 252 0.7902070879936218
59 253 0.6383801102638245
59 254 0.8265588879585266
59 255 0.7989773154258728
60 61 0.09172382205724716
60 62 0.12210436910390854
60 63 0.12072614580392838
60 64 0.12019935250282288
60 65 0.08968700468540192
60 66 0.12051066756248474
60 67 0.08639329671859741
60 68 0.12101384997367859
60 69 0.054681196808815
60 70 0.07640910148620605
60 71 0.1129027009010315
60 72 0.053452249616384506
60 73 0.11964501440525055
60 74 0.15220387279987335
60 76 0.12591679394245148
60 77 0.09419962763786316
60 78 0.13397997617721558
60 79 0.12171611934900284
60 80 0.1216517761349678
60 81 0.10101525485515594
60 82 0.12210436910390854
60 83 0.08666539937257767
60 84 0.12389865517616272
60 85 0.1171884685754776
60 86 0.12107718735933304
60 87 0.12309148907661438
60 88 0.08625819534063339
60 89 0.09503262490034103
60 90 0.11149867624044418
60 93 0.12811191380023956
60 94 0.11254672706127167
60 95 0.14455284178256989
60 96 0.12417125701904297
60 97 0.09425577521324158
60 98 0.1209506094455719
60 99 0.10356377810239792
60 100 0.12458355724811554
60 101 0.12126781046390533
60 102 0.12145934253931046
60 104 0.10329485684633255
60 105 0.12940792739391327
60 106 0.09463788568973541
60 109 0.12063587456941605
60 110 0.12506981194019318
60 112 0.12203940004110336
60 113 0.14487755298614502
60 115 0.1363333910703659
60 116 0.13057580590248108
60 119 0.07349938899278641
60 121 0.0691869705915451
60 126 0.11436113715171814
60 127 0.12114062905311584
60 128 0.09468695521354675
60 129 0.11006858199834824
60 131 0.12243077158927917
60 132 0.12139539420604706
60 135 0.09629876911640167
60 137 0.07985957711935043
60 138 0.12152338027954102
60 139 0.11989042907953262
60 141 0.093958780169487
60 143 0.1224963590502739
60 144 0.12236527353525162
60 146 0.10119388997554779
60 147 0.12322491407394409
60 148 0.11671958863735199
60 149 0.10372615605592728
60 150 0.053928934037685394
60 151 0.11332230269908905
60 152 0.06715884059667587
60 153 0.12216944247484207
60 154 0.12322491407394409
60 156 0.14071950316429138
60 157 0.07316393405199051
60 158 0.12152338027954102
60 161 0.12152338027954102
60 166 0.10334847122430801
60 167 0.11995202302932739
60 169 0.08908707648515701
60 171 0.10383482277393341
60 172 0.12295849621295929
60 173 0.07287713885307312
60 174 0.11225264519453049
60 175 0.11201902478933334
60 176 0.1462327539920807
60 177 0.09871130436658859
60 178 0.1063154861330986
60 180 0.12076146900653839
60 181 0.10372615605592728
60 182 0.11254672706127167
60 183 0.1426493525505066
60 185 0.12114062905311584
60 186 0.11356418579816818
60 187 0.06955207139253616
60 188 0.07066022604703903
60 189 0.1136857122182846
60 190 0.11759049445390701
60 191 0.09549105167388916
60 192 0.10654991865158081
60 193 0.11242882162332535
60 194 0.09271947294473648
60 195 0.10124149173498154
60 196 0.11132682859897614
60 197 0.10975103825330734
60 198 0.12139539420604706
60 199 0.15021124482154846
60 200 0.08825743943452835
60 202 0.07900209724903107
60 204 0.12001371383666992
60 205 0.12126781046390533
60 207 0.10482847690582275
60 209 0.09483464062213898
60 210 0.11104218661785126
60 212 0.11296235769987106
60 213 0.11523844301700592
60 214 0.12069862335920334
60 215 0.10548162460327148
60 216 0.12383078783750534
60 217 0.11982893943786621
60 218 0.09694584459066391
60 219 0.16703827679157257
60 222 0.08384527266025543
60 223 0.07791697233915329
60 225 0.1165275052189827
60 226 0.1117868646979332
60 227 0.15328483283519745
60 228 0.12120416760444641
60 230 0.12133155018091202
60 234 0.08359172195196152
60 235 0.11242882162332535
60 238 0.08140880614519119
60 239 0.12190978974103928
60 240 0.11196084320545197
60 241 0.12013737112283707
60 242 0.12329180538654327
60 243 0.12362783402204514
60 246 0.12302493304014206
60 247 0.12479125708341599
60 248 0.1265634447336197
60 249 0.12120416760444641
60 250 0.12799492478370667
60 251 0.05452292785048485
60 252 0.11759049445390701
60 253 0.0808829739689827
60 254 0.11302211135625839
60 255 0.07045245915651321
61 62 0.9027103185653687
61 63 0.6398447751998901
61 64 0.9062668085098267
61 65 0.3938816487789154
61 66 0.9041925668716431
61 67 0.9086028933525085
61 68 0.8957580924034119
61 69 0.8601699471473694
61 70 0.8622249364852905
61 71 0.9111570119857788
61 72 0.11668770015239716
61 73 0.9163538217544556
61 74 0.5472602844238281
61 75 0.1602649837732315
61 76 0.8777673244476318
61 77 0.9171338677406311
61 78 0.6480481624603271
61 79 0.8998399972915649
61 80 0.8926692605018616
61 81 0.20754730701446533
61 82 0.8903903961181641
61 83 0.8969968557357788
61 84 0.8716539144515991
61 85 0.8751319050788879
61 86 0.8973375558853149
61 87 0.3861324191093445
61 88 0.9116126894950867
61 89 0.9041652679443359
61 90 0.9152453541755676
61 91 0.8857006430625916
61 92 0.22844713926315308
61 93 0.8319646716117859
61 94 0.9038372039794922
61 95 0.7040496468544006
61 96 0.8758496642112732
61 97 0.3994220793247223
61 98 0.9063840508460999
61 99 0.9165208339691162
61 100 0.8650451302528381
61 101 0.8920764327049255
61 102 0.9001697301864624
61 104 0.9141408801078796
61 105 0.8356332182884216
61 106 0.9191911220550537
61 107 0.3108025789260864
61 109 0.897386372089386
61 110 0.8638326525688171
61 112 0.8966330885887146
61 113 0.7308797240257263
61 114 0.38287416100502014
61 115 0.6063796877861023
61 116 0.7442268133163452
61 117 0.15533258020877838
61 118 0.4710627496242523
61 119 0.30517181754112244
61 120 0.5474379062652588
61 121 0.90511155128479
61 122 0.2125852257013321
61 123 0.3034664988517761
61 124 0.06485853344202042
61 125 0.3190658688545227
61 126 0.8720925450325012
61 127 0.8966965675354004
61 128 0.9119301438331604
61 129 0.8504123091697693
61 130 0.155660480260849
61 131 0.8905245661735535
61 132 0.891901433467865
61 133 0.18171197175979614
61 134 0.6069329977035522
61 135 0.8881070017814636
61 136 0.13727964460849762
61 137 0.5373638868331909
61 138 0.906217634677887
61 139 0.9083364009857178
61 140 0.7474251985549927
61 141 0.9114982485771179
61 142 0.7545168995857239
61 143 0.8865073323249817
61 144 0.8900482058525085
61 145 0.2816004157066345
61 146 0.7031547427177429
61 147 0.879347026348114
61 148 0.7806433439254761
61 149 0.9057479500770569
61 150 0.8171729445457458
61 151 0.8932749032974243
61 152 0.85378497838974
61 153 0.8852620124816895
61 154 0.8929101824760437
61 155 0.17074793577194214
61 156 0.7589510679244995
61 157 0.8714072108268738
61 158 0.9017590284347534
61 159 0.37566614151000977
61 160 0.11382626742124557
61 161 0.8894977569580078
61 162 0.4139465391635895
61 163 0.17781271040439606
61 165 0.8269305229187012
61 166 0.9124035835266113
61 167 0.9154044985771179
61 168 0.18417999148368835
61 169 0.06863981485366821
61 170 0.08278273791074753
61 171 0.9111415147781372
61 172 0.8932352662086487
61 173 0.7914530634880066
61 174 0.9214344024658203
61 175 0.9062385559082031
61 176 0.5461337566375732
61 177 0.9022899270057678
61 178 0.893089771270752
61 179 0.2048557549715042
61 180 0.8961053490638733
61 181 0.9001980423927307
61 182 0.907172441482544
61 183 0.3820628523826599
61 185 0.8955854177474976
61 186 0.8873290419578552
61 187 0.9054220914840698
61 188 0.7453410029411316
61 189 0.8894016146659851
61 190 0.8700031638145447
61 191 0.3617386221885681
61 192 0.8688344359397888
61 193 0.8928952813148499
61 194 0.7474584579467773
61 195 0.5509071946144104
61 196 0.9083364009857178
61 197 0.6821252703666687
61 198 0.896355390548706
61 199 0.5964791774749756
61 200 0.885141134262085
61 201 0.7892420887947083
61 202 0.3280192017555237
61 203 0.5063902735710144
61 204 0.9059679508209229
61 205 0.8987503051757812
61 206 0.09172382205724716
61 207 0.8850855231285095
61 208 0.289278119802475
61 209 0.9122453927993774
61 210 0.9125950932502747
61 212 0.8870900869369507
61 213 0.8969958424568176
61 214 0.9000673294067383
61 215 0.5658904314041138
61 216 0.8654972910881042
61 217 0.9210599064826965
61 218 0.7992348074913025
61 219 0.43543386459350586
61 220 0.18563595414161682
61 221 0.4577026069164276
61 222 0.8350291848182678
61 223 0.9027255177497864
61 224 0.5492193698883057
61 225 0.8886127471923828
61 226 0.899943470954895
61 227 0.5137476325035095
61 228 0.8982785940170288
61 229 0.14150463044643402
61 230 0.9036742448806763
61 231 0.2548644244670868
61 232 0.25280070304870605
61 233 0.7992174625396729
61 234 0.22542016208171844
61 235 0.900669276714325
61 236 0.1534833163022995
61 238 0.8827802538871765
61 239 0.8923261165618896
61 240 0.9002381563186646
61 241 0.9035956859588623
61 242 0.8730390071868896
61 243 0.8856241106987
61 244 0.2087598741054535
61 245 0.1759418547153473
61 246 0.8846904635429382
61 247 0.8710658550262451
61 248 0.8462876081466675
61 249 0.8949434161186218
61 250 0.309001624584198
61 251 0.8681825399398804
61 252 0.8490951657295227
61 253 0.6602817177772522
61 254 0.8976070880889893
61 255 0.8888713121414185
62 63 0.7236583828926086
62 64 0.9571413397789001
62 65 0.4599493145942688
62 66 0.9564671516418457
62 67 0.9462451338768005
62 68 0.9530726671218872
62 69 0.9002569317817688
62 70 0.8548507690429688
62 71 0.944865345954895
62 72 0.15664207935333252
62 73 0.9589882493019104
62 74 0.6256868839263916
62 75 0.15239113569259644
62 76 0.9159101843833923
62 77 0.9567727446556091
62 78 0.7334527969360352
62 79 0.9394952058792114
62 80 0.9464256167411804
62 81 0.20557339489459991
62 82 0.9382321238517761
62 83 0.9449926614761353
62 84 0.9368905425071716
62 85 0.9069847464561462
62 86 0.9493475556373596
62 87 0.4616359770298004
62 88 0.9479252696037292
62 89 0.9494098424911499
62 90 0.9540606141090393
62 91 0.9136508703231812
62 92 0.19007055461406708
62 93 0.8927696943283081
62 94 0.9440004825592041
62 95 0.7904917597770691
62 96 0.9346199631690979
62 97 0.41892915964126587
62 98 0.9504647254943848
62 99 0.9505269527435303
62 100 0.920337975025177
62 101 0.9455537796020508
62 102 0.9449284672737122
62 104 0.9554160833358765
62 105 0.8859999775886536
62 106 0.9549209475517273
62 107 0.281290203332901
62 109 0.9532522559165955
62 110 0.9282932877540588
62 111 0.06167202442884445
62 112 0.940926194190979
62 113 0.7935310006141663
62 114 0.3613054156303406
62 115 0.6522558331489563
62 116 0.8106848001480103
62 117 0.17042429745197296
62 118 0.4320034384727478
62 119 0.3200939893722534
62 120 0.5681974291801453
62 121 0.9525155425071716
62 122 0.2657778263092041
62 123 0.2744811773300171
62 124 0.07400642335414886
62 125 0.32056310772895813
62 126 0.9302169680595398
62 127 0.9477317333221436
62 128 0.9501607418060303
62 129 0.8937503695487976
62 130 0.15418004989624023
62 131 0.9364688396453857
62 132 0.9454898238182068
62 133 0.1549101620912552
62 134 0.5718358159065247
62 135 0.9310594201087952
62 136 0.10442805290222168
62 137 0.5265649557113647
62 138 0.9454267621040344
62 139 0.9578184485435486
62 140 0.6916934847831726
62 141 0.9595412611961365
62 142 0.7102149724960327
62 143 0.9369706511497498
62 144 0.9381024241447449
62 145 0.25660842657089233
62 146 0.7372542023658752
62 147 0.9371696710586548
62 148 0.8373033404350281
62 149 0.9477954506874084
62 150 0.7757080793380737
62 151 0.937732994556427
62 152 0.8668980598449707
62 153 0.9397976398468018
62 154 0.9350202083587646
62 155 0.2922462821006775
62 156 0.8137125968933105
62 157 0.9034139513969421
62 158 0.9433069825172424
62 159 0.41562119126319885
62 160 0.059036701917648315
62 161 0.9507262110710144
62 162 0.42353278398513794
62 163 0.21934278309345245
62 165 0.8037213087081909
62 166 0.9506540298461914
62 167 0.9572643041610718
62 168 0.20431970059871674
62 169 0.06526753306388855
62 170 0.08855506032705307
62 171 0.9519580006599426
62 172 0.932998538017273
62 173 0.793248176574707
62 174 0.9499685764312744
62 175 0.9532522559165955
62 176 0.6532195210456848
62 177 0.9237043261528015
62 178 0.9216926097869873
62 179 0.24038057029247284
62 180 0.9479252696037292
62 181 0.9456844925880432
62 182 0.9450575709342957
62 183 0.4180346131324768
62 185 0.9445620775222778
62 186 0.9397345185279846
62 187 0.9416183233261108
62 188 0.8184200525283813
62 189 0.9354010820388794
62 190 0.9167231321334839
62 191 0.49165812134742737
62 192 0.9334827065467834
62 193 0.9461795091629028
62 194 0.8013072609901428
62 195 0.6289181709289551
62 196 0.9546814560890198
62 197 0.733039140701294
62 198 0.946548581123352
62 199 0.7012077569961548
62 200 0.9289445281028748
62 201 0.8054091334342957
62 202 0.32798105478286743
62 203 0.5173261761665344
62 204 0.953569769859314
62 205 0.9508421421051025
62 206 0.10466088354587555
62 207 0.9397345185279846
62 208 0.29069456458091736
62 209 0.9484845995903015
62 210 0.9595412611961365
62 212 0.943242609500885
62 213 0.9362705945968628
62 214 0.9590116739273071
62 215 0.6840587854385376
62 216 0.9288172125816345
62 217 0.9656880497932434
62 218 0.8380957245826721
62 219 0.48542726039886475
62 220 0.18754784762859344
62 221 0.531930148601532
62 222 0.8690817952156067
62 223 0.9492860436439514
62 224 0.5002261400222778
62 225 0.910625159740448
62 226 0.9512766003608704
62 227 0.533427357673645
62 228 0.9461146593093872
62 229 0.11080791056156158
62 230 0.947109043598175
62 231 0.20473794639110565
62 232 0.22794710099697113
62 233 0.7394124865531921
62 234 0.29259824752807617
62 235 0.9493475556373596
62 236 0.12405124306678772
62 238 0.9100962281227112
62 239 0.9399267435073853
62 240 0.948550820350647
62 241 0.9587434530258179
62 242 0.9290757179260254
62 243 0.9251384735107422
62 244 0.18240858614444733
62 245 0.16152890026569366
62 246 0.9345756769180298
62 247 0.9218723177909851
62 248 0.9018483757972717
62 249 0.9440004825592041
62 250 0.33445504307746887
62 251 0.8965417146682739
62 252 0.9056782722473145
62 253 0.6899207234382629
62 254 0.9437415599822998
62 255 0.9280004501342773
63 64 0.7519442439079285
63 65 0.5622459053993225
63 66 0.7459560036659241
63 67 0.755316436290741
63 68 0.7490707039833069
63 69 0.6455417275428772
63 70 0.5796806812286377
63 71 0.7299363613128662
63 72 0.10676920413970947
63 73 0.7497894763946533
63 74 0.6918460726737976
63 75 0.1770121455192566
63 76 0.7034124732017517
63 77 0.7565907835960388
63 78 0.6827763319015503
63 79 0.7387233972549438
63 80 0.7677059769630432
63 81 0.2431645393371582
63 82 0.7518006563186646
63 83 0.7417159080505371
63 84 0.7288531064987183
63 85 0.6994707584381104
63 86 0.7640799880027771
63 87 0.4214938282966614
63 88 0.7541353106498718
63 89 0.765936017036438
63 90 0.7656656503677368
63 91 0.722196102142334
63 92 0.19931456446647644
63 93 0.7817590832710266
63 94 0.760890543460846
63 95 0.7662709355354309
63 96 0.7481730580329895
63 97 0.4489586055278778
63 98 0.7473517656326294
63 99 0.7346374988555908
63 100 0.734249472618103
63 101 0.7772613167762756
63 102 0.745163083076477
63 104 0.7393429279327393
63 105 0.7328569293022156
63 106 0.7468913197517395
63 107 0.1613004207611084
63 109 0.7639428973197937
63 110 0.706916868686676
63 111 0.09312683343887329
63 112 0.7567582130432129
63 113 0.6487388014793396
63 114 0.2776506245136261
63 115 0.5541650652885437
63 116 0.7392503619194031
63 117 0.12152470648288727
63 118 0.3347533047199249
63 119 0.30868321657180786
63 120 0.2652411162853241
63 121 0.7534492611885071
63 122 0.26378729939460754
63 123 0.06199425458908081
63 124 0.10864797234535217
63 125 0.3025382161140442
63 126 0.7704538702964783
63 127 0.7538440823554993
63 128 0.743310809135437
63 129 0.7680956125259399
63 130 0.08536627143621445
63 131 0.75246661901474
63 132 0.7740820050239563
63 133 0.10496391355991364
63 134 0.2546192705631256
63 135 0.7774859070777893
63 136 0.14783428609371185
63 137 0.3951113522052765
63 138 0.7268837690353394
63 139 0.7552748918533325
63 140 0.29994770884513855
63 141 0.7651557326316833
63 142 0.316710889339447
63 143 0.7380812168121338
63 144 0.7292336225509644
63 145 0.22931018471717834
63 146 0.6772273182868958
63 147 0.722184956073761
63 148 0.7352994680404663
63 149 0.7424299716949463
63 150 0.3861396312713623
63 151 0.7580977082252502
63 152 0.6220914721488953
63 153 0.7374522686004639
63 154 0.745175838470459
63 155 0.363665372133255
63 156 0.6687300801277161
63 157 0.6660733819007874
63 158 0.7482235431671143
63 159 0.4834232032299042
63 161 0.7668957710266113
63 162 0.4981992244720459
63 163 0.2702622711658478
63 164 0.09182430058717728
63 165 0.5416945815086365
63 166 0.75428307056427
63 167 0.7530299425125122
63 168 0.23262156546115875
63 169 0.09581850469112396
63 170 0.09905268996953964
63 171 0.7445372939109802
63 172 0.7273708581924438
63 173 0.4974968433380127
63 174 0.737674355506897
63 175 0.7639428973197937
63 176 0.7770485877990723
63 177 0.6770056486129761
63 178 0.6997051239013672
63 179 0.2607634961605072
63 180 0.768714427947998
63 181 0.7623520493507385
63 182 0.7662115097045898
63 183 0.2692817151546478
63 185 0.7697984576225281
63 186 0.7275016903877258
63 187 0.7467384934425354
63 188 0.6126475930213928
63 189 0.7672472596168518
63 190 0.6782430410385132
63 191 0.6015658974647522
63 192 0.7326267957687378
63 193 0.7494627237319946
63 194 0.6790822744369507
63 195 0.6883485913276672
63 196 0.7618539929389954
63 197 0.6897132992744446
63 198 0.7487678527832031
63 199 0.7119346261024475
63 200 0.7105903029441833
63 201 0.5719574093818665
63 202 0.22254443168640137
63 203 0.3229878842830658
63 204 0.7626373767852783
63 205 0.7479808926582336
63 206 0.10975103825330734
63 207 0.7328706383705139
63 208 0.3264656364917755
63 209 0.7643402814865112
63 210 0.7756552696228027
63 212 0.7783870697021484
63 213 0.6973658800125122
63 214 0.7457947731018066
63 215 0.8103702068328857
63 216 0.7773798704147339
63 217 0.7483118176460266
63 218 0.6941474676132202
63 219 0.4594155550003052
63 221 0.6175245046615601
63 222 0.6928163170814514
63 223 0.7329557538032532
63 224 0.1661788374185562
63 225 0.7079210877418518
63 226 0.7782146334648132
63 227 0.4168781042098999
63 228 0.752909243106842
63 230 0.7563637495040894
63 231 0.15247748792171478
63 232 0.0730137825012207
63 233 0.3721793293952942
63 234 0.26544246077537537
63 235 0.7614222764968872
63 238 0.686582088470459
63 239 0.7425746917724609
63 240 0.7741326093673706
63 241 0.7607861161231995
63 242 0.7807619571685791
63 243 0.7489692568778992
63 244 0.10126586258411407
63 246 0.7439664602279663
63 247 0.7341039776802063
63 248 0.772310197353363
63 249 0.7662115097045898
63 250 0.1376662254333496
63 251 0.7176747918128967
63 252 0.7032601833343506
63 253 0.484683632850647
63 254 0.7387233972549438
63 255 0.761817991733551
64 65 0.4419930875301361
64 66 0.9694806933403015
64 67 0.9626355171203613
64 68 0.9683337807655334
64 69 0.9146930575370789
64 70 0.8828431963920593
64 71 0.9635290503501892
64 72 0.14777329564094543
64 73 0.9799796938896179
64 74 0.657088577747345
64 75 0.15001358091831207
64 76 0.9394583702087402
64 77 0.9716964960098267
64 78 0.7434821724891663
64 79 0.9603680968284607
64 80 0.9567270278930664
64 81 0.22665007412433624
64 82 0.9529479146003723
64 83 0.9583754539489746
64 84 0.952058732509613
64 85 0.934008777141571
64 86 0.9657220244407654
64 87 0.47345656156539917
64 88 0.9632037878036499
64 89 0.9626355171203613
64 90 0.969072699546814
64 91 0.9242895245552063
64 92 0.2182893306016922
64 93 0.911838948726654
64 94 0.9667348265647888
64 95 0.8141502141952515
64 96 0.9424264430999756
64 97 0.4373180568218231
64 98 0.9667893052101135
64 99 0.963705837726593
64 100 0.935929000377655
64 101 0.964119017124176
64 102 0.9583419561386108
64 104 0.9736194014549255
64 105 0.8977312445640564
64 106 0.9658758640289307
64 107 0.28741690516471863
64 109 0.9694522619247437
64 110 0.9352867007255554
64 111 0.08499377965927124
64 112 0.9608232975006104
64 113 0.8159790635108948
64 114 0.3529534637928009
64 115 0.6912412047386169
64 116 0.8330490589141846
64 117 0.1789497584104538
64 118 0.4207870364189148
64 119 0.35043829679489136
64 120 0.5575283169746399
64 121 0.9646825194358826
64 122 0.26900118589401245
64 123 0.28751930594444275
64 124 0.08499377965927124
64 125 0.33528441190719604
64 126 0.9527129530906677
64 127 0.9620677828788757
64 128 0.9694806933403015
64 129 0.9139844179153442
64 130 0.16998755931854248
64 131 0.9523418545722961
64 132 0.9599219560623169
64 133 0.17595383524894714
64 134 0.5611822009086609
64 135 0.9512585401535034
64 136 0.16062313318252563
64 137 0.5298686623573303
64 138 0.9692808389663696
64 139 0.9716964960098267
64 140 0.6967368721961975
64 141 0.9733188152313232
64 142 0.7048301100730896
64 143 0.9560072422027588
64 144 0.9497312307357788
64 145 0.23430024087429047
64 146 0.7338609099388123
64 147 0.9511135220527649
64 148 0.8628215789794922
64 149 0.9631388187408447
64 150 0.7778666615486145
64 151 0.9524409174919128
64 152 0.869517982006073
64 153 0.9681405425071716
64 154 0.9437077045440674
64 155 0.290883332490921
64 156 0.8457196950912476
64 157 0.9069077968597412
64 158 0.967194139957428
64 159 0.4246177077293396
64 160 0.0968594029545784
64 161 0.9578039050102234
64 162 0.44638165831565857
64 163 0.184432253241539
64 164 0.07183285802602768
64 165 0.8193510174751282
64 166 0.966878354549408
64 167 0.9711657762527466
64 168 0.1867654174566269
64 169 0.08566567301750183
64 170 0.0968594029545784
64 171 0.9683082103729248
64 172 0.9480013847351074
64 173 0.804648756980896
64 174 0.9652466773986816
64 175 0.9642735719680786
64 176 0.6869710087776184
64 177 0.9265512824058533
64 178 0.9392603635787964
64 179 0.2162310928106308
64 180 0.9694247245788574
64 181 0.9610608816146851
64 182 0.9594504833221436
64 183 0.40416419506073
64 185 0.9610276818275452
64 186 0.9502738118171692
64 187 0.9572330713272095
64 188 0.8274914026260376
64 189 0.9502395987510681
64 190 0.9263404011726379
64 191 0.5031173229217529
64 192 0.9402642250061035
64 193 0.9626034498214722
64 194 0.8247167468070984
64 195 0.644965648651123
64 196 0.9716964960098267
64 197 0.7519442439079285
64 198 0.9599219560623169
64 199 0.718045175075531
64 200 0.953702986240387
64 201 0.8051356673240662
64 202 0.3228640556335449
64 203 0.5072963237762451
64 204 0.9716652035713196
64 205 0.9609954953193665
64 206 0.12019935250282288
64 207 0.9544739127159119
64 208 0.2830823063850403
64 209 0.9637388586997986
64 210 0.9733188152313232
64 212 0.9556825160980225
64 213 0.9493664503097534
64 214 0.9720290899276733
64 215 0.7015615105628967
64 216 0.9472845196723938
64 217 0.9773709177970886
64 218 0.861143946647644
64 219 0.4939161539077759
64 220 0.1900518536567688
64 221 0.5747601985931396
64 222 0.8935957551002502
64 223 0.963612973690033
64 224 0.5003005266189575
64 225 0.9308955669403076
64 226 0.9664095044136047
64 227 0.532474935054779
64 228 0.9604911208152771
64 229 0.11687050759792328
64 230 0.9635840654373169
64 231 0.23033566772937775
64 232 0.228470578789711
64 233 0.7413557171821594
64 234 0.29138249158859253
64 235 0.9636430144309998
64 236 0.1221158504486084
64 238 0.9241658449172974
64 239 0.9618961215019226
64 240 0.9648079872131348
64 241 0.9685406684875488
64 242 0.9431613683700562
64 243 0.9404247999191284
64 244 0.16371895372867584
64 245 0.170366570353508
64 246 0.9516823291778564
64 247 0.9449892044067383
64 248 0.9236370325088501
64 249 0.9615316987037659
64 250 0.3261600434780121
64 251 0.9153223633766174
64 252 0.919816792011261
64 253 0.7249894738197327
64 254 0.9572330713272095
64 255 0.9431613683700562
65 66 0.4647543132305145
65 67 0.44475558400154114
65 68 0.4688655138015747
65 69 0.3204072415828705
65 70 0.2830249071121216
65 71 0.4710882306098938
65 72 0.12080809473991394
65 73 0.4528314173221588
65 74 0.4682193398475647
65 75 0.08438022434711456
65 76 0.38622400164604187
65 77 0.4451582133769989
65 78 0.3729046583175659
65 79 0.43447089195251465
65 80 0.48442989587783813
65 81 0.1014692559838295
65 82 0.4533786475658417
65 83 0.44398000836372375
65 84 0.46670815348625183
65 85 0.4255855977535248
65 86 0.477798193693161
65 87 0.5122423768043518
65 88 0.4722200036048889
65 89 0.4707900583744049
65 90 0.47169142961502075
65 91 0.41831865906715393
65 92 0.08376534283161163
65 93 0.4871748387813568
65 94 0.45438429713249207
65 95 0.46153658628463745
65 96 0.4922354221343994
65 97 0.3361118733882904
65 98 0.4512642025947571
65 99 0.4442915618419647
65 100 0.4782269299030304
65 101 0.4807256758213043
65 102 0.4793062210083008
65 104 0.44746115803718567
65 105 0.48746076226234436
65 106 0.4688344895839691
65 107 0.05858330428600311
65 109 0.46740105748176575
65 110 0.44644203782081604
65 112 0.4772171676158905
65 113 0.3508280813694
65 114 0.13046300411224365
65 115 0.30190393328666687
65 116 0.41366684436798096
65 118 0.24783679842948914
65 120 0.09423969686031342
65 121 0.4691109359264374
65 122 0.2540566921234131
65 124 0.15220387279987335
65 125 0.20013853907585144
65 126 0.4639187753200531
65 127 0.47370263934135437
65 128 0.4193597137928009
65 129 0.46528711915016174
65 131 0.4875319302082062
65 132 0.47905391454696655
65 134 0.16645701229572296
65 135 0.4484827220439911
65 137 0.11631681770086288
65 138 0.4185241758823395
65 139 0.477416068315506
65 140 0.19849644601345062
65 141 0.47190529108047485
65 142 0.16064172983169556
65 143 0.45922863483428955
65 144 0.40386438369750977
65 145 0.16826772689819336
65 146 0.49977272748947144
65 147 0.40891188383102417
65 148 0.3761584162712097
65 149 0.44281744956970215
65 150 0.219393789768219
65 151 0.48159533739089966
65 152 0.43849438428878784
65 153 0.44704604148864746
65 154 0.4796425998210907
65 155 0.24041707813739777
65 156 0.3180418908596039
65 157 0.42028674483299255
65 158 0.45558100938796997
65 159 0.3419117033481598
65 161 0.4795589745044708
65 162 0.6343519687652588
65 163 0.4135148525238037
65 164 0.1200600415468216
65 165 0.12026163935661316
65 166 0.42606571316719055
65 167 0.4561450481414795
65 168 0.360180139541626
65 169 0.11185933649539948
65 171 0.4389354884624481
65 172 0.42126113176345825
65 173 0.16471052169799805
65 174 0.43368133902549744
65 175 0.4587455093860626
65 176 0.5110547542572021
65 177 0.4033803641796112
65 178 0.41159918904304504
65 179 0.06818952411413193
65 180 0.46138930320739746
65 181 0.4580121636390686
65 182 0.47612518072128296
65 183 0.07676275074481964
65 185 0.4802215099334717
65 186 0.47384828329086304
65 187 0.43228763341903687
65 188 0.40305250883102417
65 189 0.4875319302082062
65 190 0.43613162636756897
65 191 0.4915911555290222
65 192 0.472710520029068
65 193 0.4756263792514801
65 194 0.40876439213752747
65 195 0.5911109447479248
65 196 0.4666634202003479
65 197 0.4023917019367218
65 198 0.4768763780593872
65 199 0.47877398133277893
65 200 0.37013086676597595
65 201 0.3723755478858948
65 203 0.31100040674209595
65 204 0.4606851041316986
65 205 0.45244768261909485
65 207 0.44752341508865356
65 208 0.30856844782829285
65 209 0.4568191170692444
65 210 0.4740503430366516
65 212 0.4800656735897064
65 213 0.4318602979183197
65 214 0.44815903902053833
65 215 0.4826870560646057
65 216 0.47311609983444214
65 217 0.45137810707092285
65 218 0.45038968324661255
65 219 0.4614197909832001
65 221 0.3278267979621887
65 222 0.4164315164089203
65 223 0.43481752276420593
65 224 0.12345365434885025
65 225 0.3849184513092041
65 226 0.4750700294971466
65 227 0.2348099797964096
65 228 0.4522102177143097
65 230 0.45268547534942627
65 231 0.08593272417783737
65 233 0.18867924809455872
65 234 0.2938860058784485
65 235 0.477798193693161
65 238 0.3520854413509369
65 239 0.4176682233810425
65 240 0.4649955630302429
65 241 0.4611597955226898
65 242 0.49096062779426575
65 243 0.42355436086654663
65 246 0.48548445105552673
65 247 0.42977866530418396
65 248 0.5039886832237244
65 249 0.4500361680984497
65 250 0.13499869406223297
65 251 0.3833758533000946
65 252 0.45203229784965515
65 253 0.2640511095523834
65 254 0.44320398569107056
65 255 0.4489414691925049
66 67 0.9588820338249207
66 68 0.9656333923339844
66 69 0.9192585945129395
66 70 0.8724685907363892
66 71 0.9639314413070679
66 72 0.16103914380073547
66 73 0.9773683547973633
66 74 0.6404482126235962
66 75 0.05784697085618973
66 76 0.934304416179657
66 77 0.9680211544036865
66 78 0.7252253293991089
66 79 0.9523782730102539
66 80 0.9560633897781372
66 81 0.18260124325752258
66 82 0.9554160833358765
66 83 0.9566799998283386
66 84 0.9598570466041565
66 85 0.9309961199760437
66 86 0.9598855376243591
66 87 0.4895166754722595
66 88 0.9605010151863098
66 89 0.9588820338249207
66 90 0.9684817790985107
66 91 0.9180025458335876
66 92 0.14739194512367249
66 93 0.9031728506088257
66 94 0.958805501461029
66 95 0.8075488209724426
66 96 0.9480738639831543
66 97 0.4543530344963074
66 98 0.9640876650810242
66 99 0.9599616527557373
66 100 0.9469321966171265
66 101 0.9603528380393982
66 102 0.9618695378303528
66 104 0.9751037359237671
66 105 0.891144871711731
66 106 0.9652671217918396
66 107 0.28816133737564087
66 109 0.9730015397071838
66 110 0.9473983645439148
66 111 0.08521391451358795
66 112 0.9559582471847534
66 113 0.7956447601318359
66 114 0.37292203307151794
66 115 0.6930315494537354
66 116 0.8182604908943176
66 117 0.18501989543437958
66 118 0.3904605209827423
66 119 0.3483934700489044
66 120 0.5716351270675659
66 121 0.963012158870697
66 122 0.27708688378334045
66 123 0.27784478664398193
66 124 0.08521391451358795
66 125 0.3220287561416626
66 126 0.9445791244506836
66 127 0.9708161354064941
66 128 0.9626556038856506
66 129 0.9019818305969238
66 130 0.16434112191200256
66 131 0.9537545442581177
66 132 0.9550934433937073
66 133 0.17052924633026123
66 134 0.5852105617523193
66 135 0.9452823400497437
66 136 0.16103914380073547
66 137 0.5293161273002625
66 138 0.9623767733573914
66 139 0.9711171984672546
66 140 0.7115308046340942
66 141 0.9706928133964539
66 142 0.7137934565544128
66 143 0.95637446641922
66 144 0.9469245076179504
66 145 0.22389580309391022
66 146 0.7533764839172363
66 147 0.9556982517242432
66 148 0.8521625399589539
66 149 0.958341658115387
66 150 0.7915796041488647
66 151 0.9507057666778564
66 152 0.8902692198753357
66 153 0.9548736810684204
66 154 0.9514554142951965
66 155 0.29163670539855957
66 156 0.8406422734260559
66 157 0.914767324924469
66 158 0.9540082812309265
66 159 0.39689284563064575
66 160 0.0679771825671196
66 161 0.9602846503257751
66 162 0.4498095214366913
66 163 0.22549991309642792
66 164 0.07201889902353287
66 165 0.8018265962600708
66 166 0.9641931653022766
66 167 0.9695510268211365
66 168 0.19685165584087372
66 169 0.07515160739421844
66 170 0.09711026400327682
66 171 0.9603884816169739
66 172 0.9419893622398376
66 173 0.7891678810119629
66 174 0.9594219326972961
66 175 0.9636557698249817
66 176 0.6755332946777344
66 177 0.9332768321037292
66 178 0.9331516027450562
66 179 0.20451992750167847
66 180 0.9646590352058411
66 181 0.958341658115387
66 182 0.958805501461029
66 183 0.4224017560482025
66 185 0.9593456387519836
66 186 0.9516823291778564
66 187 0.953425943851471
66 188 0.8345004916191101
66 189 0.9505929350852966
66 190 0.9407303929328918
66 191 0.49866658449172974
66 192 0.9405595064163208
66 193 0.9588432908058167
66 194 0.8243697285652161
66 195 0.6420608162879944
66 196 0.9690532088279724
66 197 0.7446334362030029
66 198 0.9697229266166687
66 199 0.7018028497695923
66 200 0.9391555190086365
66 201 0.7973617911338806
66 202 0.3237002491950989
66 203 0.5282477736473083
66 204 0.9669504165649414
66 205 0.9603528380393982
66 206 0.12051066756248474
66 207 0.9579987525939941
66 208 0.29307034611701965
66 209 0.961040198802948
66 210 0.9717221856117249
66 212 0.9529218673706055
66 213 0.9550301432609558
66 214 0.9672739505767822
66 215 0.7005537748336792
66 216 0.9508038759231567
66 217 0.9726819396018982
66 218 0.8493547439575195
66 219 0.5153253078460693
66 220 0.1850999891757965
66 221 0.5391284823417664
66 222 0.8846832513809204
66 223 0.9598488211631775
66 224 0.5173947215080261
66 225 0.9235846400260925
66 226 0.9637311697006226
66 227 0.5246177911758423
66 228 0.958805501461029
66 229 0.1171732023358345
66 230 0.9577244520187378
66 231 0.1896943598985672
66 232 0.23724311590194702
66 233 0.7540871500968933
66 234 0.30892670154571533
66 235 0.9682232737541199
66 236 0.12243212759494781
66 238 0.913478672504425
66 239 0.9507453441619873
66 240 0.9621174335479736
66 241 0.9669126868247986
66 242 0.9402977228164673
66 243 0.9364755153656006
66 244 0.1694379299879074
66 245 0.17650140821933746
66 246 0.9583832025527954
66 247 0.9420657753944397
66 248 0.924939751625061
66 249 0.9577622413635254
66 250 0.3362596333026886
66 251 0.9078371524810791
66 252 0.9254693984985352
66 253 0.7268671989440918
66 254 0.953425943851471
66 255 0.9392364621162415
67 68 0.9566128253936768
67 69 0.9104893207550049
67 70 0.8629462718963623
67 71 0.9506433606147766
67 72 0.12283656746149063
67 73 0.9664652347564697
67 74 0.6627295017242432
67 75 0.17998027801513672
67 76 0.9148706197738647
67 77 0.9694834351539612
67 78 0.7427273392677307
67 79 0.9600611925125122
67 80 0.9490437507629395
67 81 0.2525023818016052
67 82 0.9504647254943848
67 83 0.9528349041938782
67 84 0.930178701877594
67 85 0.9158595204353333
67 86 0.9550215005874634
67 87 0.4636545479297638
67 88 0.9608775973320007
67 89 0.9602925777435303
67 90 0.9647557139396667
67 91 0.9267991185188293
67 92 0.22861911356449127
67 93 0.9075767397880554
67 94 0.9549759030342102
67 95 0.7980084419250488
67 96 0.9279342889785767
67 97 0.4012903571128845
67 98 0.9582027792930603
67 99 0.962422251701355
67 100 0.9245575070381165
67 101 0.9523343443870544
67 102 0.9517398476600647
67 104 0.9599231481552124
67 105 0.8999881744384766
67 106 0.9604661464691162
67 107 0.2962672710418701
67 109 0.9577937722206116
67 110 0.9238439798355103
67 111 0.07330713421106339
67 112 0.9457417130470276
67 113 0.8048076033592224
67 114 0.3551594614982605
67 115 0.6505898833274841
67 116 0.8333961963653564
67 117 0.1856953352689743
67 118 0.4572002589702606
67 119 0.3437387943267822
67 120 0.5301481485366821
67 121 0.9602515697479248
67 122 0.24472658336162567
67 123 0.2893162965774536
67 124 0.08552499115467072
67 125 0.3685663938522339
67 126 0.9437713623046875
67 127 0.9534287452697754
67 128 0.9609642624855042
67 129 0.9063840508460999
67 130 0.17104998230934143
67 131 0.9424282312393188
67 132 0.9585801362991333
67 133 0.1652499884366989
67 134 0.5612038969993591
67 135 0.9529685974121094
67 136 0.16162705421447754
67 137 0.5331803560256958
67 138 0.9532914757728577
67 139 0.9643046259880066
67 140 0.6909517645835876
67 141 0.9732033610343933
67 142 0.6877433657646179
67 143 0.9418749213218689
67 144 0.9493242502212524
67 145 0.2836543321609497
67 146 0.7370876669883728
67 147 0.940024733543396
67 148 0.8599790930747986
67 149 0.9649766683578491
67 150 0.764464795589447
67 151 0.9489047527313232
67 152 0.8540651202201843
67 153 0.9456940293312073
67 154 0.936830997467041
67 155 0.3120003342628479
67 156 0.8193967342376709
67 157 0.9015145301818848
67 158 0.9553912281990051
67 159 0.469553679227829
67 160 0.10721126198768616
67 161 0.9501417875289917
67 162 0.44689151644706726
67 163 0.22632312774658203
67 164 0.07228181511163712
67 165 0.8281692862510681
67 166 0.9656297564506531
67 167 0.9679089188575745
67 168 0.19757027924060822
67 169 0.09697623550891876
67 170 0.10721126198768616
67 171 0.9534287452697754
67 172 0.946490466594696
67 173 0.7870119214057922
67 174 0.9587468504905701
67 175 0.9588359594345093
67 176 0.6838950514793396
67 177 0.9225738644599915
67 178 0.936558187007904
67 179 0.25453051924705505
67 180 0.9608775973320007
67 181 0.9628857374191284
67 182 0.9528816342353821
67 183 0.3721832036972046
67 185 0.9534287452697754
67 186 0.9435340762138367
67 187 0.9537519812583923
67 188 0.8131285905838013
67 189 0.9456014037132263
67 190 0.9080610275268555
67 191 0.5389860272407532
67 192 0.926810085773468
67 193 0.9539754390716553
67 194 0.8061962723731995
67 195 0.6398127675056458
67 196 0.9643046259880066
67 197 0.7460243701934814
67 198 0.951238751411438
67 199 0.7155452966690063
67 200 0.9393815398216248
67 201 0.8101678490638733
67 202 0.3025861382484436
67 203 0.46119409799575806
67 204 0.9684066772460938
67 205 0.9596680998802185
67 206 0.1209506094455719
67 207 0.9445906281471252
67 208 0.3343909680843353
67 209 0.9614202976226807
67 210 0.9670045971870422
67 212 0.9511456489562988
67 213 0.9284959435462952
67 214 0.9582920074462891
67 215 0.7073639035224915
67 216 0.9307389855384827
67 217 0.9648452401161194
67 218 0.8641809821128845
67 219 0.45255571603775024
67 220 0.1857757270336151
67 221 0.5783524513244629
67 222 0.9036879539489746
67 223 0.9539288282394409
67 224 0.4974815249443054
67 225 0.919367253780365
67 226 0.963089108467102
67 227 0.5135550498962402
67 228 0.9633528590202332
67 229 0.12544101476669312
67 230 0.9517866969108582
67 231 0.2524695098400116
67 232 0.24631986021995544
67 233 0.7378512024879456
67 234 0.2729826867580414
67 235 0.9550215005874634
67 236 0.13733544945716858
67 238 0.9157193303108215
67 239 0.9542161822319031
67 240 0.9645881056785583
67 241 0.9621391892433167
67 242 0.9352090954780579
67 243 0.9409622550010681
67 244 0.19131353497505188
67 245 0.17714574933052063
67 246 0.9374362826347351
67 247 0.9260988831520081
67 248 0.9097281694412231
67 249 0.9591644406318665
67 250 0.3065250515937805
67 251 0.923241376876831
67 252 0.9113431572914124
67 253 0.7141477465629578
67 254 0.9600611925125122
67 255 0.9447954893112183
68 69 0.9109653830528259
68 70 0.8564625382423401
68 71 0.9490385055541992
68 72 0.16171155869960785
68 73 0.9659363031387329
68 74 0.6584713459014893
68 75 0.1452212631702423
68 76 0.92079097032547
68 77 0.9637725353240967
68 78 0.7390623688697815
68 79 0.9531984329223633
68 80 0.9526945352554321
68 81 0.23226065933704376
68 82 0.9541281461715698
68 83 0.9512355923652649
68 84 0.9413747191429138
68 85 0.9141566753387451
68 86 0.9555208086967468
68 87 0.49156057834625244
68 88 0.9561607241630554
68 89 0.954521894454956
68 90 0.9662981033325195
68 91 0.9174770712852478
68 92 0.18388792872428894
68 93 0.9224472641944885
68 94 0.9523321986198425
68 95 0.817168116569519
68 96 0.9423725605010986
68 97 0.4083438813686371
68 98 0.9691585898399353
68 99 0.9556147456169128
68 100 0.948732316493988
68 101 0.9559770226478577
68 102 0.9606363773345947
68 104 0.958341658115387
68 105 0.895984411239624
68 106 0.9588861465454102
68 107 0.25054731965065
68 109 0.9728931784629822
68 110 0.9427054524421692
68 111 0.08556970953941345
68 112 0.9451813101768494
68 113 0.8252652287483215
68 114 0.3526117205619812
68 115 0.691425621509552
68 116 0.821677029132843
68 117 0.17453229427337646
68 118 0.40561118721961975
68 119 0.3320592939853668
68 120 0.5431410670280457
68 121 0.9544742703437805
68 122 0.24114464223384857
68 123 0.2929551601409912
68 124 0.08556970953941345
68 125 0.33188319206237793
68 126 0.958104133605957
68 127 0.9570686221122742
68 128 0.958341658115387
68 129 0.9079678654670715
68 130 0.1711394190788269
68 131 0.946095883846283
68 132 0.9622293710708618
68 133 0.17124126851558685
68 134 0.5405719876289368
68 135 0.9407539963722229
68 136 0.16171155869960785
68 137 0.5257278084754944
68 138 0.9537899494171143
68 139 0.9637725353240967
68 140 0.6898637413978577
68 141 0.9664766192436218
68 142 0.6809352040290833
68 143 0.9571911692619324
68 144 0.9424166679382324
68 145 0.25431665778160095
68 146 0.7401943206787109
68 147 0.9490373730659485
68 148 0.8592517375946045
68 149 0.9571129679679871
68 150 0.7700853943824768
68 151 0.9462361931800842
68 152 0.8579947352409363
68 153 0.9556925892829895
68 154 0.9405162334442139
68 155 0.3250361979007721
68 156 0.8368541598320007
68 157 0.9030925631523132
68 158 0.9611429572105408
68 159 0.4364011585712433
68 161 0.9537899494171143
68 162 0.4471251368522644
68 163 0.23097030818462372
68 164 0.05785568431019783
68 165 0.7965432405471802
68 166 0.9577968716621399
68 167 0.9642676711082458
68 168 0.20731620490550995
68 169 0.09702693670988083
68 170 0.10726731270551682
68 171 0.9528800845146179
68 172 0.9395455718040466
68 173 0.7798641920089722
68 174 0.9550684094429016
68 175 0.9572518467903137
68 176 0.6931008100509644
68 177 0.9230562448501587
68 178 0.9284708499908447
68 179 0.2300187349319458
68 180 0.9592922329902649
68 181 0.9539749026298523
68 182 0.9523321986198425
68 183 0.4019707143306732
68 185 0.9612571001052856
68 186 0.9471988081932068
68 187 0.9479379653930664
68 188 0.8257693648338318
68 189 0.9418628215789795
68 190 0.9161981344223022
68 191 0.5373418927192688
68 192 0.942337691783905
68 193 0.9649400115013123
68 194 0.8303051590919495
68 195 0.643210232257843
68 196 0.9637725353240967
68 197 0.7344611883163452
68 198 0.9580320715904236
68 199 0.7243090271949768
68 200 0.9323964715003967
68 201 0.7920283079147339
68 202 0.28681042790412903
68 203 0.4811546802520752
68 204 0.9740999341011047
68 205 0.9570252299308777
68 206 0.12101384997367859
68 207 0.9461416602134705
68 208 0.3128809928894043
68 209 0.9567064642906189
68 210 0.9664766192436218
68 212 0.9505914449691772
68 213 0.9332723021507263
68 214 0.9567064642906189
68 215 0.7148252725601196
68 216 0.9537034630775452
68 217 0.9643139243125916
68 218 0.8646329045295715
68 219 0.5033272504806519
68 220 0.1858728528022766
68 221 0.5555797219276428
68 222 0.8928866386413574
68 223 0.9544275999069214
68 224 0.4779112935066223
68 225 0.9176784157752991
68 226 0.9594302773475647
68 227 0.5119686126708984
68 228 0.9565228819847107
68 229 0.10981827974319458
68 230 0.9522843956947327
68 231 0.19048640131950378
68 232 0.19305144250392914
68 233 0.7273805141448975
68 234 0.3102165460586548
68 235 0.9576139450073242
68 236 0.12294332683086395
68 238 0.9074411988258362
68 239 0.9547151327133179
68 240 0.9588391184806824
68 241 0.9616038203239441
68 242 0.9356980323791504
68 243 0.9329053163528442
68 244 0.101023830473423
68 245 0.17152102291584015
68 246 0.9506872892379761
68 247 0.9244257211685181
68 248 0.9244257807731628
68 249 0.9565228819847107
68 250 0.3376636505126953
68 251 0.9050296545028687
68 252 0.9249551296234131
68 253 0.7075297236442566
68 254 0.9542505741119385
68 255 0.9346323609352112
69 70 0.8408508896827698
69 71 0.9030949473381042
69 72 0.12957893311977386
69 73 0.917016863822937
69 74 0.5162379741668701
69 75 0.10411633551120758
69 76 0.8790209293365479
69 77 0.9178053736686707
69 78 0.6624093055725098
69 79 0.9062685966491699
69 80 0.9002460837364197
69 81 0.1761425882577896
69 82 0.9080466032028198
69 83 0.9144627451896667
69 84 0.8942903876304626
69 85 0.8879196047782898
69 86 0.9037181735038757
69 87 0.39936020970344543
69 88 0.9068644642829895
69 89 0.9049779176712036
69 90 0.9126562476158142
69 91 0.8788692951202393
69 92 0.12294828146696091
69 93 0.8464752435684204
69 94 0.899142861366272
69 95 0.7153412103652954
69 96 0.8883365392684937
69 97 0.3559708595275879
69 98 0.9171030521392822
69 99 0.9172474145889282
69 100 0.890150785446167
69 101 0.8985098600387573
69 102 0.9010358452796936
69 104 0.91157066822052
69 105 0.83027184009552
69 106 0.9110982418060303
69 107 0.2418379783630371
69 109 0.9147165417671204
69 110 0.9027436375617981
69 112 0.8942169547080994
69 113 0.7486363649368286
69 114 0.34007036685943604
69 115 0.6451852917671204
69 116 0.7330442667007446
69 117 0.195887953042984
69 118 0.36112767457962036
69 119 0.28133243322372437
69 120 0.5592474937438965
69 121 0.9081318378448486
69 122 0.20339828729629517
69 123 0.28313419222831726
69 125 0.346926212310791
69 126 0.8900678753852844
69 127 0.9075037240982056
69 128 0.9214552044868469
69 129 0.8437857627868652
69 130 0.15466177463531494
69 131 0.8926214575767517
69 132 0.9049868583679199
69 133 0.18677183985710144
69 134 0.601200520992279
69 135 0.889110803604126
69 136 0.13639888167381287
69 137 0.5196512341499329
69 138 0.9225536584854126
69 139 0.9156201481819153
69 140 0.7395737767219543
69 141 0.9187281131744385
69 142 0.7028211951255798
69 143 0.9020307064056396
69 144 0.9010654091835022
69 145 0.272021621465683
69 146 0.67425537109375
69 147 0.9141336679458618
69 148 0.8041781783103943
69 149 0.9164797067642212
69 150 0.8009207844734192
69 151 0.8942169547080994
69 152 0.8446349501609802
69 153 0.8940563797950745
69 154 0.8871813416481018
69 155 0.2748369574546814
69 156 0.7925552725791931
69 157 0.8984886407852173
69 158 0.8992959856987
69 159 0.38264596462249756
69 160 0.08225160837173462
69 161 0.9037259817123413
69 162 0.31267714500427246
69 163 0.10982305556535721
69 165 0.8216249942779541
69 166 0.9131426811218262
69 167 0.9204632639884949
69 168 0.09149914234876633
69 169 0.09093257784843445
69 170 0.1130959689617157
69 171 0.9097117781639099
69 172 0.8919866681098938
69 173 0.7890318632125854
69 174 0.9155225157737732
69 175 0.9048217535018921
69 176 0.5643971562385559
69 177 0.8987908363342285
69 178 0.8941421508789062
69 179 0.25984010100364685
69 180 0.9134678244590759
69 181 0.9065539240837097
69 182 0.8980382680892944
69 183 0.36921122670173645
69 185 0.9030876159667969
69 186 0.9139589667320251
69 187 0.9118148684501648
69 188 0.8307139277458191
69 189 0.8915056586265564
69 190 0.8782705664634705
69 191 0.4406420886516571
69 192 0.8870506882667542
69 193 0.9158559441566467
69 194 0.7820962071418762
69 195 0.5183085203170776
69 196 0.9112496376037598
69 197 0.6455417275428772
69 198 0.9094122648239136
69 199 0.6059205532073975
69 200 0.8986053466796875
69 201 0.7698257565498352
69 202 0.28223538398742676
69 203 0.47611311078071594
69 204 0.9154677987098694
69 205 0.9161927103996277
69 206 0.09113533049821854
69 207 0.9095005989074707
69 208 0.29068827629089355
69 209 0.9041924476623535
69 210 0.915458619594574
69 212 0.8947027325630188
69 213 0.8912408351898193
69 214 0.917392373085022
69 215 0.6564680933952332
69 216 0.887029230594635
69 217 0.9162425398826599
69 218 0.7891592383384705
69 219 0.4752648174762726
69 220 0.20173664391040802
69 221 0.4341799020767212
69 222 0.8629536628723145
69 223 0.9190256595611572
69 224 0.5373324751853943
69 225 0.8909172415733337
69 226 0.9095295071601868
69 227 0.43808862566947937
69 228 0.9112935066223145
69 229 0.12405593693256378
69 230 0.9067224264144897
69 231 0.1659088134765625
69 232 0.2511787712574005
69 233 0.7726278901100159
69 234 0.2808561623096466
69 235 0.9037181735038757
69 236 0.14487364888191223
69 238 0.8794246315956116
69 239 0.8954892754554749
69 240 0.9054507613182068
69 241 0.9109367728233337
69 242 0.8775502443313599
69 243 0.8923355937004089
69 244 0.15696686506271362
69 245 0.19289714097976685
69 246 0.8812566995620728
69 247 0.8836737275123596
69 248 0.850085437297821
69 249 0.9079796671867371
69 250 0.342946857213974
69 251 0.8626123070716858
69 252 0.8921197652816772
69 253 0.7371296286582947
69 254 0.9084871411323547
69 255 0.8854156136512756
70 71 0.8837487101554871
70 72 0.15724317729473114
70 73 0.8936273455619812
70 74 0.559682309627533
70 75 0.1476271003484726
70 76 0.8671096563339233
70 77 0.8759939074516296
70 78 0.6359916925430298
70 79 0.8602702617645264
70 80 0.8493582606315613
70 81 0.17109307646751404
70 82 0.8431884050369263
70 83 0.861028790473938
70 84 0.8532119989395142
70 85 0.8546158075332642
70 86 0.863849401473999
70 87 0.3315371572971344
70 88 0.8777445554733276
70 89 0.8617910742759705
70 90 0.8658775091171265
70 91 0.8103007078170776
70 92 0.2477920949459076
70 93 0.7782188057899475
70 94 0.8763316869735718
70 95 0.6903219819068909
70 96 0.828997790813446
70 97 0.42347753047943115
70 98 0.8560150265693665
70 99 0.8701239824295044
70 100 0.8269907236099243
70 101 0.8605764508247375
70 102 0.8630956411361694
70 104 0.8954889178276062
70 105 0.7823835015296936
70 106 0.872016429901123
70 107 0.3275357782840729
70 108 0.05053986981511116
70 109 0.8583963513374329
70 110 0.8206620216369629
70 111 0.08104408532381058
70 112 0.8660520911216736
70 113 0.7250826358795166
70 114 0.3654605448246002
70 115 0.6496488451957703
70 116 0.7615274786949158
70 117 0.19285187125205994
70 118 0.39589738845825195
70 119 0.3538094162940979
70 120 0.6081799864768982
70 121 0.8650057911872864
70 122 0.2787540853023529
70 123 0.3237048387527466
70 124 0.05402939021587372
70 125 0.2538822889328003
70 126 0.8351733088493347
70 127 0.8712441921234131
70 128 0.8908848166465759
70 129 0.7849559187889099
70 130 0.16884183883666992
70 131 0.8442729711532593
70 132 0.8498871922492981
70 133 0.15006740391254425
70 134 0.5818979740142822
70 135 0.8522019982337952
70 136 0.17868541181087494
70 137 0.5424675941467285
70 138 0.8798003792762756
70 139 0.87141352891922
70 140 0.7238404750823975
70 141 0.874896228313446
70 142 0.7682489156723022
70 143 0.8400453925132751
70 144 0.8683646321296692
70 145 0.162904754281044
70 146 0.6284506320953369
70 147 0.8556340336799622
70 148 0.7803633809089661
70 149 0.8668649196624756
70 150 0.7874583005905151
70 151 0.8462365865707397
70 152 0.8133500218391418
70 153 0.8786433935165405
70 154 0.8485723733901978
70 155 0.1351269632577896
70 156 0.8212031126022339
70 157 0.8242331147193909
70 158 0.8531045913696289
70 159 0.26078569889068604
70 160 0.11852650344371796
70 161 0.8484618067741394
70 162 0.3402944505214691
70 165 0.7929537892341614
70 166 0.8740731477737427
70 167 0.868424117565155
70 168 0.09056529402732849
70 170 0.06465081125497818
70 171 0.8805004954338074
70 172 0.8737487196922302
70 173 0.8269187808036804
70 174 0.884433388710022
70 175 0.8664618134498596
70 176 0.5393548607826233
70 177 0.8627524375915527
70 178 0.8659958243370056
70 179 0.1180039644241333
70 180 0.8615968227386475
70 181 0.8564625382423401
70 182 0.8647553324699402
70 183 0.4550628364086151
70 184 0.05053986981511116
70 185 0.853888750076294
70 186 0.8457067012786865
70 187 0.8649203777313232
70 188 0.7167283892631531
70 189 0.8442729711532593
70 190 0.8756903409957886
70 191 0.24898914992809296
70 192 0.8334740996360779
70 193 0.8545979857444763
70 194 0.7053124308586121
70 195 0.5279663801193237
70 196 0.8851546049118042
70 197 0.697084367275238
70 198 0.8556845188140869
70 199 0.5855735540390015
70 200 0.8851068615913391
70 201 0.7288463711738586
70 202 0.348606675863266
70 203 0.5098692178726196
70 204 0.8654319643974304
70 205 0.8571016788482666
70 206 0.1337159276008606
70 207 0.8398661613464355
70 208 0.19168752431869507
70 209 0.8715237379074097
70 210 0.8714697360992432
70 212 0.8470345139503479
70 213 0.8842519521713257
70 214 0.8818989992141724
70 215 0.5156005024909973
70 216 0.8255419135093689
70 217 0.88470059633255
70 218 0.7531620860099792
70 219 0.4065093398094177
70 220 0.20538277924060822
70 221 0.4766025245189667
70 222 0.7661156058311462
70 223 0.8774893283843994
70 224 0.5302658677101135
70 225 0.8941431641578674
70 226 0.8623664379119873
70 227 0.578004777431488
70 228 0.8531789779663086
70 229 0.14734777808189392
70 230 0.8691408038139343
70 231 0.27453988790512085
70 232 0.2723168432712555
70 233 0.7497473359107971
70 234 0.21237337589263916
70 235 0.863849401473999
70 236 0.15982109308242798
70 238 0.8696427345275879
70 239 0.8732829093933105
70 240 0.8683149814605713
70 241 0.864028811454773
70 242 0.8301917910575867
70 243 0.8395391702651978
70 244 0.21738021075725555
70 245 0.1642545759677887
70 246 0.8659957051277161
70 247 0.8557831645011902
70 248 0.8147479891777039
70 249 0.8578095436096191
70 250 0.27726230025291443
70 251 0.8359869122505188
70 252 0.8115859031677246
70 253 0.6520106792449951
70 254 0.8567827343940735
70 255 0.8502106070518494
71 72 0.15597903728485107
71 73 0.9715545773506165
71 74 0.6199541687965393
71 75 0.14007331430912018
71 76 0.9109398126602173
71 77 0.958970308303833
71 78 0.7127004265785217
71 79 0.9460893273353577
71 80 0.9445326328277588
71 81 0.18013887107372284
71 82 0.9406235218048096
71 83 0.9483688473701477
71 84 0.9350769519805908
71 85 0.9360271096229553
71 86 0.9579474925994873
71 87 0.48106256127357483
71 88 0.9585959911346436
71 89 0.9516937732696533
71 90 0.9594076871871948
71 91 0.9075939655303955
71 92 0.22081035375595093
71 93 0.8901034593582153
71 94 0.9494783878326416
71 95 0.7858903408050537
71 96 0.9241935014724731
71 97 0.4584130644798279
71 98 0.9495929479598999
71 99 0.9569969177246094
71 100 0.9326721429824829
71 101 0.9489237666130066
71 102 0.955696702003479
71 104 0.964978039264679
71 105 0.8800020217895508
71 106 0.9550632834434509
71 107 0.29428184032440186
71 109 0.9523604512214661
71 110 0.9243640303611755
71 111 0.08597537130117416
71 112 0.9581412076950073
71 113 0.7725569009780884
71 114 0.3460441827774048
71 115 0.667578399181366
71 116 0.8048108220100403
71 117 0.1810164451599121
71 118 0.4324389100074768
71 119 0.3306545615196228
71 120 0.5749180912971497
71 121 0.9537413716316223
71 122 0.28329038619995117
71 123 0.28032755851745605
71 124 0.08597537130117416
71 125 0.35910698771476746
71 126 0.930557906627655
71 127 0.9605535864830017
71 128 0.9534652829170227
71 129 0.8877368569374084
71 130 0.11668086051940918
71 131 0.9431378841400146
71 132 0.9457049369812012
71 133 0.17798592150211334
71 134 0.6027042269706726
71 135 0.936698317527771
71 136 0.13648167252540588
71 137 0.5126842260360718
71 138 0.9530344009399414
71 139 0.9683413505554199
71 140 0.7237135767936707
71 141 0.9627497792243958
71 142 0.7273735404014587
71 143 0.9372600317001343
71 144 0.937319815158844
71 145 0.26292869448661804
71 146 0.73823481798172
71 147 0.9332028031349182
71 148 0.8313939571380615
71 149 0.9500894546508789
71 150 0.7999643683433533
71 151 0.9464824199676514
71 152 0.8970580101013184
71 153 0.9421858787536621
71 154 0.9449748396873474
71 155 0.2425077259540558
71 156 0.8224895000457764
71 157 0.9095976948738098
71 158 0.9445911645889282
71 159 0.4272845387458801
71 160 0.10777582228183746
71 161 0.9456465244293213
71 162 0.456121027469635
71 163 0.22296464443206787
71 164 0.07266244292259216
71 165 0.8003193140029907
71 166 0.9571016430854797
71 167 0.9584212303161621
71 168 0.2034548670053482
71 169 0.07582314312458038
71 170 0.0685846135020256
71 171 0.9510847926139832
71 172 0.9322529435157776
71 173 0.78609299659729
71 174 0.9522468447685242
71 175 0.9544559121131897
71 176 0.6415645480155945
71 177 0.9252499341964722
71 178 0.9307178854942322
71 179 0.1692049354314804
71 180 0.9512544870376587
71 181 0.9490385055541992
71 182 0.9526363015174866
71 183 0.4162651598453522
71 185 0.9510847926139832
71 186 0.9431918859481812
71 187 0.948203444480896
71 188 0.8296840190887451
71 189 0.9431378841400146
71 190 0.9238408803939819
71 191 0.47796645760536194
71 192 0.9230538010597229
71 193 0.9484837055206299
71 194 0.7841367721557617
71 195 0.6508755087852478
71 196 0.9600115418434143
71 197 0.7326052188873291
71 198 0.9573022127151489
71 199 0.6855955123901367
71 200 0.9293048977851868
71 201 0.8218945264816284
71 202 0.3201889991760254
71 203 0.5329680442810059
71 204 0.9578717947006226
71 205 0.9478706121444702
71 206 0.08684823662042618
71 207 0.9400054216384888
71 208 0.32992684841156006
71 209 0.9560006260871887
71 210 0.9648268818855286
71 212 0.9445326328277588
71 213 0.9333853721618652
71 214 0.9560006260871887
71 215 0.6726131439208984
71 216 0.9259611368179321
71 217 0.9605597853660583
71 218 0.8404420614242554
71 219 0.517899215221405
71 220 0.1702757179737091
71 221 0.5261117815971375
71 222 0.8744649291038513
71 223 0.9547415971755981
71 224 0.5279953479766846
71 225 0.9242085814476013
71 226 0.9545688033103943
71 227 0.5423519611358643
71 228 0.9484257102012634
71 229 0.13398294150829315
71 230 0.9578525424003601
71 231 0.2537990212440491
71 232 0.2434900403022766
71 233 0.7717334032058716
71 234 0.3082992434501648
71 235 0.9537413716316223
71 236 0.14532488584518433
71 238 0.9095433354377747
71 239 0.9412420988082886
71 240 0.9529129862785339
71 241 0.9567720293998718
71 242 0.9315677285194397
71 243 0.9265909790992737
71 244 0.19766321778297424
71 245 0.18382306396961212
71 246 0.9466465711593628
71 247 0.9255567193031311
71 248 0.9112212657928467
71 249 0.94737309217453
71 250 0.32992684841156006
71 251 0.8993760943412781
71 252 0.9161422252655029
71 253 0.7305525541305542
71 254 0.942918062210083
71 255 0.9304969310760498
72 73 0.15988236665725708
72 74 0.10440737754106522
72 76 0.1548023372888565
72 77 0.1345766931772232
72 78 0.09190632402896881
72 79 0.13012000918388367
72 80 0.1495589017868042
72 81 0.050395265221595764
72 82 0.12400831282138824
72 83 0.15565066039562225
72 84 0.16556653380393982
72 85 0.08094999194145203
72 86 0.15532435476779938
72 87 0.1973855048418045
72 88 0.1613743007183075
72 89 0.09697623550891876
72 90 0.16045762598514557
72 91 0.06738170981407166
72 93 0.16434885561466217
72 94 0.1490086168050766
72 95 0.16226017475128174
72 96 0.15929359197616577
72 97 0.11285530030727386
72 98 0.1486968994140625
72 99 0.10333338379859924
72 100 0.16648177802562714
72 101 0.16205093264579773
72 102 0.16230687499046326
72 104 0.16103914380073547
72 105 0.1452600508928299
72 106 0.1352027803659439
72 109 0.1612064689397812
72 110 0.16713155806064606
72 111 0.07559289038181305
72 112 0.15003547072410583
72 113 0.1471365988254547
72 114 0.1859339475631714
72 115 0.19477035105228424
72 116 0.15032921731472015
72 119 0.09166985005140305
72 120 0.16849678754806519
72 121 0.1617961972951889
72 122 0.11470786482095718
72 124 0.1511857807636261
72 126 0.16457699239253998
72 127 0.1618809700012207
72 128 0.1417144536972046
72 129 0.11668770015239716
72 131 0.1636049896478653
72 132 0.14275485277175903
72 134 0.06469966471195221
72 138 0.12991395592689514
72 139 0.16021032631397247
72 140 0.0896221473813057
72 141 0.1598006933927536
72 142 0.13297267258167267
72 143 0.1636926531791687
72 144 0.14389538764953613
72 146 0.14303907752037048
72 147 0.16466623544692993
72 148 0.15285365283489227
72 149 0.13583771884441376
72 150 0.14528417587280273
72 151 0.15003547072410583
72 152 0.1651303917169571
72 153 0.15672555565834045
72 154 0.16466623544692993
72 155 0.1393052041530609
72 156 0.1579572707414627
72 157 0.12318945676088333
72 158 0.15589673817157745
72 161 0.16239243745803833
72 162 0.09874838590621948
72 163 0.05601120740175247
72 166 0.12889820337295532
72 167 0.14746923744678497
72 171 0.14893050491809845
72 172 0.1380205750465393
72 173 0.10907251387834549
72 174 0.13569585978984833
72 175 0.15475820004940033
72 176 0.13678821921348572
72 177 0.1477375477552414
72 178 0.13259871304035187
72 180 0.1613743007183075
72 181 0.12290078401565552
72 182 0.1490086168050766
72 183 0.30499717593193054
72 185 0.1618809700012207
72 186 0.15689291059970856
72 187 0.14963801205158234
72 188 0.1888473927974701
72 189 0.15706080198287964
72 190 0.16245537996292114
72 191 0.07145895808935165
72 192 0.16611386835575104
72 193 0.1617961972951889
72 194 0.14647923409938812
72 195 0.16099467873573303
72 196 0.16021032631397247
72 197 0.13140824437141418
72 198 0.16222141683101654
72 199 0.18158183991909027
72 200 0.1519053876399994
72 201 0.07652787119150162
72 203 0.19510743021965027
72 204 0.15396006405353546
72 205 0.1490868777036667
72 206 0.053452249616384506
72 207 0.1634301245212555
72 209 0.14193549752235413
72 210 0.14701664447784424
72 212 0.15606145560741425
72 213 0.15920595824718475
72 214 0.1548387110233307
72 215 0.09647638350725174
72 216 0.16547586023807526
72 217 0.14731791615486145
72 218 0.11607620120048523
72 219 0.16250000894069672
72 221 0.05488212779164314
72 223 0.15548723936080933
72 225 0.16098684072494507
72 226 0.15443746745586395
72 227 0.2179449498653412
72 228 0.15548723936080933
72 230 0.15565066039562225
72 233 0.09230995178222656
72 234 0.29192018508911133
72 235 0.15532435476779938
72 238 0.07445872575044632
72 239 0.156392440199852
72 240 0.14823293685913086
72 241 0.1284322589635849
72 242 0.16475559771060944
72 243 0.12555554509162903
72 245 0.1060660108923912
72 246 0.16439896821975708
72 247 0.13340747356414795
72 248 0.15559732913970947
72 249 0.13605134189128876
72 250 0.21072179079055786
72 251 0.1020030602812767
72 252 0.1421484649181366
72 253 0.06917402893304825
72 254 0.15614400804042816
72 255 0.11203381419181824
73 74 0.6601282954216003
73 75 0.1550648957490921
73 76 0.9362018704414368
73 77 0.9764364957809448
73 78 0.7373816967010498
73 79 0.9621802568435669
73 80 0.9606318473815918
73 81 0.21351882815361023
73 82 0.9569012522697449
73 83 0.9632877111434937
73 84 0.9529621601104736
73 85 0.9437222480773926
73 86 0.9654071927070618
73 87 0.47337695956230164
73 88 0.9680500030517578
73 89 0.9664652347564697
73 90 0.9748651385307312
73 91 0.9254133701324463
73 92 0.23058563470840454
73 93 0.9098232984542847
73 94 0.9684913158416748
73 95 0.8128662705421448
73 96 0.9412635564804077
73 97 0.45334476232528687
73 98 0.9664652347564697
73 99 0.9675220251083374
73 100 0.9401301145553589
73 101 0.9638180732727051
73 102 0.9643021821975708
73 104 0.9876672625541687
73 105 0.9002265930175781
73 106 0.9706856608390808
73 107 0.2930692434310913
73 109 0.9691051244735718
73 110 0.9341797828674316
73 111 0.08460179716348648
73 112 0.9647358059883118
73 113 0.8010726571083069
73 114 0.37024325132369995
73 115 0.6880532503128052
73 116 0.8280053734779358
73 117 0.1836908459663391
73 118 0.4322138726711273
73 119 0.34882214665412903
73 120 0.5657329559326172
73 121 0.9685114026069641
73 122 0.2787644565105438
73 123 0.2965376079082489
73 124 0.08460179716348648
73 125 0.34776073694229126
73 126 0.9483190774917603
73 127 0.9690188765525818
73 128 0.970159113407135
73 129 0.9086718559265137
73 130 0.16920359432697296
73 131 0.9542276859283447
73 132 0.9627571702003479
73 133 0.17514236271381378
73 134 0.5913511514663696
73 135 0.956298291683197
73 136 0.15988236665725708
73 137 0.5216920375823975
73 138 0.9679263234138489
73 139 0.9754118919372559
73 140 0.7121513485908508
73 141 0.9780277013778687
73 142 0.7214221358299255
73 143 0.9557856917381287
73 144 0.955808699131012
73 145 0.24050778150558472
73 146 0.7318216562271118
73 147 0.9498863816261292
73 148 0.8565149307250977
73 149 0.9669705629348755
73 150 0.7910553812980652
73 151 0.9574350714683533
73 152 0.8804304599761963
73 153 0.9594992995262146
73 154 0.9488332271575928
73 155 0.25772401690483093
73 156 0.8478323817253113
73 157 0.9103847146034241
73 158 0.9616950750350952
73 159 0.42486077547073364
73 160 0.10605397075414658
73 161 0.9616950750350952
73 162 0.4465784430503845
73 163 0.19701449573040009
73 164 0.07150156795978546
73 165 0.8265441060066223
73 166 0.9737539291381836
73 167 0.9748879075050354
73 168 0.19067086279392242
73 169 0.06395294517278671
73 170 0.07713015377521515
73 171 0.9700541496276855
73 172 0.9509849548339844
73 173 0.808411717414856
73 174 0.968026876449585
73 175 0.9691051244735718
73 176 0.6721388101577759
73 177 0.9319411516189575
73 178 0.943408727645874
73 179 0.18680675327777863
73 180 0.9680500030517578
73 181 0.9659363031387329
73 182 0.9643480181694031
73 183 0.4193675220012665
73 185 0.964877724647522
73 186 0.9552979469299316
73 187 0.9621802568435669
73 188 0.8236750960350037
73 189 0.9542276859283447
73 190 0.9372196197509766
73 191 0.4950845539569855
73 192 0.9391149282455444
73 193 0.9654071927070618
73 194 0.8061220645904541
73 195 0.6601606607437134
73 196 0.9764364957809448
73 197 0.762920618057251
73 198 0.9637945890426636
73 199 0.7133511304855347
73 200 0.9545844197273254
73 201 0.8136579394340515
73 202 0.3213750422000885
73 203 0.5205538868904114
73 204 0.9743635654449463
73 205 0.9638180732727051
73 206 0.11964501440525055
73 207 0.9552979469299316
73 208 0.30321627855300903
73 209 0.969609260559082
73 210 0.9780277013778687
73 212 0.9606318473815918
73 213 0.9577152132987976
73 214 0.9716722369194031
73 215 0.69972825050354
73 216 0.943973958492279
73 217 0.9790078401565552
73 218 0.8641319274902344
73 219 0.5076265335083008
73 220 0.18917536735534668
73 221 0.5756193399429321
73 222 0.8950477838516235
73 223 0.9664196372032166
73 224 0.5215204954147339
73 225 0.9383994340896606
73 226 0.9712119698524475
73 227 0.5575289130210876
73 228 0.9643480181694031
73 229 0.13184238970279694
73 230 0.967435359954834
73 231 0.24974425137043
73 232 0.25178301334381104
73 233 0.7567204833030701
73 234 0.303373783826828
73 235 0.9685114026069641
73 236 0.14300313591957092
73 238 0.9296439290046692
73 239 0.9585018157958984
73 240 0.9706626534461975
73 241 0.9733142256736755
73 242 0.9472408890724182
73 243 0.9445400238037109
73 244 0.19450530409812927
73 245 0.18088625371456146
73 246 0.9620127081871033
73 247 0.9438304901123047
73 248 0.9269487261772156
73 249 0.9643480181694031
73 250 0.33078137040138245
73 251 0.9176244139671326
73 252 0.9253149628639221
73 253 0.7368530631065369
73 254 0.9600998163223267
73 255 0.9482945799827576
74 75 0.2301396280527115
74 76 0.597309947013855
74 77 0.6523584723472595
74 78 0.6720953583717346
74 79 0.6607488393783569
74 80 0.6495985388755798
74 81 0.29895666241645813
74 82 0.6303330659866333
74 83 0.6232657432556152
74 84 0.6238807439804077
74 85 0.5730559825897217
74 86 0.6526731252670288
74 87 0.3934350311756134
74 88 0.6402493715286255
74 89 0.6565931439399719
74 90 0.6579344868659973
74 91 0.6203721165657043
74 92 0.33564257621765137
74 93 0.6824695467948914
74 94 0.6595069169998169
74 95 0.7187157869338989
74 96 0.6268284320831299
74 97 0.3079628646373749
74 98 0.6443203687667847
74 99 0.643648087978363
74 100 0.6304899454116821
74 101 0.6644675731658936
74 102 0.6501114964485168
74 104 0.6465622782707214
74 105 0.6762427091598511
74 106 0.6431717276573181
74 107 0.13980819284915924
74 108 0.06711560487747192
74 109 0.6502941846847534
74 110 0.5742560625076294
74 111 0.08968700468540192
74 112 0.6315456032752991
74 113 0.6725532412528992
74 114 0.26071012020111084
74 115 0.508386492729187
74 116 0.7116472721099854
74 117 0.10739768296480179
74 118 0.3670268952846527
74 119 0.33063486218452454
74 120 0.1679265797138214
74 121 0.6526731252670288
74 122 0.20686419308185577
74 123 0.23540577292442322
74 124 0.12556180357933044
74 125 0.24557766318321228
74 126 0.6748253703117371
74 127 0.6391865611076355
74 128 0.6404482126235962
74 129 0.664530336856842
74 130 0.24215489625930786
74 131 0.6289123296737671
74 132 0.6713256239891052
74 133 0.05198752135038376
74 134 0.09723281860351562
74 135 0.6668955683708191
74 136 0.18983159959316254
74 137 0.26376214623451233
74 138 0.6165443062782288
74 139 0.6447552442550659
74 140 0.21479056775569916
74 141 0.6582742929458618
74 142 0.25032058358192444
74 143 0.6230344772338867
74 144 0.6642728447914124
74 145 0.1460248976945877
74 146 0.4152863323688507
74 147 0.6032958030700684
74 148 0.6494158506393433
74 149 0.6507968306541443
74 150 0.2662190794944763
74 151 0.6470246911048889
74 152 0.4190952777862549
74 153 0.6756061315536499
74 154 0.6001699566841125
74 155 0.35416778922080994
74 156 0.6193387508392334
74 157 0.5131763815879822
74 158 0.6612437963485718
74 159 0.4116591811180115
74 160 0.11447275429964066
74 161 0.6350407004356384
74 162 0.4585968554019928
74 163 0.2724628448486328
74 164 0.08489526808261871
74 165 0.44328224658966064
74 166 0.6438392996788025
74 167 0.6511722803115845
74 168 0.261760413646698
74 169 0.12655438482761383
74 171 0.6345770359039307
74 172 0.6550166010856628
74 173 0.4843587279319763
74 174 0.6347841620445251
74 175 0.6533544063568115
74 176 0.8071324229240417
74 177 0.5370028614997864
74 178 0.5978213548660278
74 179 0.11451602727174759
74 180 0.6601614356040955
74 181 0.6507968306541443
74 182 0.6518203616142273
74 183 0.22435510158538818
74 184 0.06711560487747192
74 185 0.65455162525177
74 186 0.6049718856811523
74 187 0.6391355395317078
74 188 0.4319828748703003
74 189 0.6351237297058105
74 190 0.621601939201355
74 191 0.5313024520874023
74 192 0.6354032754898071
74 193 0.6526731252670288
74 194 0.5671039819717407
74 195 0.6584286093711853
74 196 0.6736475825309753
74 197 0.7191301584243774
74 198 0.6266732215881348
74 199 0.7591599822044373
74 200 0.6425511240959167
74 201 0.44127002358436584
74 202 0.13093264400959015
74 203 0.1736135482788086
74 204 0.666729211807251
74 205 0.633705198764801
74 206 0.15220387279987335
74 207 0.6018694639205933
74 208 0.24091903865337372
74 209 0.6445088982582092
74 210 0.6461402177810669
74 212 0.66502845287323
74 213 0.618613064289093
74 214 0.639916181564331
74 215 0.609781801700592
74 216 0.6423864960670471
74 217 0.6505039930343628
74 218 0.6971989870071411
74 219 0.213560551404953
74 220 0.12834958732128143
74 221 0.7709587216377258
74 222 0.6153915524482727
74 223 0.6364472508430481
74 224 0.10475389659404755
74 225 0.5921074748039246
74 226 0.6718505024909973
74 227 0.4191721975803375
74 228 0.6518203616142273
74 229 0.06906138360500336
74 230 0.6386550068855286
74 231 0.29166534543037415
74 232 0.11451602727174759
74 233 0.19713763892650604
74 234 0.16327832639217377
74 235 0.6480660438537598
74 236 0.08489526808261871
74 238 0.5862653255462646
74 239 0.6788089275360107
74 240 0.672896146774292
74 241 0.6537021994590759
74 242 0.6677387356758118
74 243 0.6413336992263794
74 244 0.08582233637571335
74 245 0.12584175169467926
74 246 0.6787766814231873
74 247 0.6093816161155701
74 248 0.6774312853813171
74 249 0.6610442399978638
74 250 0.1409149169921875
74 251 0.6535149216651917
74 252 0.5910840034484863
74 253 0.35290682315826416
74 254 0.6483983397483826
74 255 0.6521008014678955
75 76 0.06648620218038559
75 77 0.17840267717838287
75 78 0.1875779777765274
75 79 0.1811193823814392
75 80 0.16350522637367249
75 81 0.4525628387928009
75 82 0.16411353647708893
75 83 0.17472302913665771
75 84 0.06542058289051056
75 85 0.10904285311698914
75 86 0.17435672879219055
75 88 0.17969882488250732
75 89 0.17998027801513672
75 90 0.17291425168514252
75 91 0.17548063397407532
75 92 0.47322872281074524
75 93 0.1783374845981598
75 94 0.1570856273174286
75 95 0.15265268087387085
75 96 0.08940616995096207
75 98 0.15095119178295135
75 99 0.17979247868061066
75 100 0.11362384259700775
75 101 0.15716812014579773
75 102 0.15741634368896484
75 104 0.11569394171237946
75 105 0.19256514310836792
75 106 0.17345097661018372
75 108 0.1270001232624054
75 109 0.12739557027816772
75 110 0.07804606109857559
75 112 0.14645197987556458
75 113 0.15994994342327118
75 116 0.1889994591474533
75 118 0.3503834307193756
75 121 0.15692105889320374
75 123 0.09683669358491898
75 125 0.22053396701812744
75 126 0.16552986204624176
75 127 0.1221136674284935
75 128 0.17932561039924622
75 129 0.14793691039085388
75 131 0.14692161977291107
75 132 0.17481496930122375
75 134 0.06778568029403687
75 135 0.18237818777561188
75 138 0.13416612148284912
75 139 0.16689282655715942
75 141 0.1779465228319168
75 142 0.08756951987743378
75 143 0.11760027706623077
75 144 0.18208536505699158
75 145 0.2660830020904541
75 146 0.06800447404384613
75 147 0.12421470135450363
75 148 0.15033964812755585
75 149 0.18007436394691467
75 151 0.1816004514694214
75 153 0.14660802483558655
75 154 0.15378962457180023
75 155 0.08935698121786118
75 156 0.09456653892993927
75 157 0.11062739789485931
75 158 0.18083257973194122
75 159 0.3462070822715759
75 160 0.27076518535614014
75 161 0.15749934315681458
75 165 0.20542164146900177
75 166 0.1736309975385666
75 167 0.17273645102977753
75 168 0.08032193034887314
75 169 0.05986843258142471
75 170 0.05415303632616997
75 171 0.15118834376335144
75 172 0.18296809494495392
75 173 0.153921440243721
75 174 0.17988631129264832
75 175 0.17372122406959534
75 176 0.1392180472612381
75 177 0.13267222046852112
75 178 0.1845695972442627
75 179 0.13685937225818634
75 180 0.16230860352516174
75 181 0.18007436394691467
75 182 0.16872160136699677
75 184 0.1270001232624054
75 185 0.16281822323799133
75 186 0.15850572288036346
75 187 0.16943426430225372
75 188 0.054268788546323776
75 189 0.1645522117614746
75 190 0.08510205149650574
75 191 0.2032114565372467
75 192 0.11337275058031082
75 193 0.16273294389247894
75 195 0.2211184948682785
75 196 0.17264775931835175
75 197 0.19913865625858307
75 198 0.12237048149108887
75 199 0.23295043408870697
75 200 0.16607050597667694
75 201 0.21304458379745483
75 204 0.17858612537384033
75 205 0.16881020367145538
75 207 0.13502340018749237
75 208 0.24084295332431793
75 209 0.17960530519485474
75 210 0.1664661020040512
75 212 0.18102364242076874
75 213 0.06552845239639282
75 214 0.1564304232597351
75 215 0.1417718380689621
75 216 0.11293729394674301
75 217 0.15530326962471008
75 218 0.20196405053138733
75 221 0.2661422789096832
75 222 0.18781942129135132
75 223 0.1570856273174286
75 225 0.18071305751800537
75 226 0.1791398823261261
75 227 0.21632248163223267
75 228 0.17453959584236145
75 229 0.08712136745452881
75 230 0.16889892518520355
75 231 0.3909337520599365
75 232 0.06842968612909317
75 233 0.06028856337070465
75 235 0.13948538899421692
75 236 0.12048289179801941
75 238 0.18236154317855835
75 239 0.18140757083892822
75 240 0.17941869795322418
75 241 0.17300336062908173
75 242 0.18346406519412994
75 243 0.1839641034603119
75 244 0.1771615743637085
75 245 0.0635000616312027
75 246 0.12401311099529266
75 247 0.10782309621572495
75 248 0.1397305279970169
75 249 0.17453959584236145
75 251 0.18930967152118683
75 252 0.13981051743030548
75 253 0.062120117247104645
75 254 0.17527681589126587
75 255 0.18346406519412994
76 77 0.9284175634384155
76 78 0.7099596858024597
76 79 0.9097138047218323
76 80 0.9136093854904175
76 81 0.1907927691936493
76 82 0.9170083999633789
76 83 0.9112045168876648
76 84 0.9182257056236267
76 85 0.8910351991653442
76 86 0.916917085647583
76 87 0.3830537796020508
76 88 0.9156122803688049
76 89 0.9148706197738647
76 90 0.9287706017494202
76 91 0.8866219520568848
76 92 0.11200287938117981
76 93 0.8584231734275818
76 94 0.936410665512085
76 95 0.7774696946144104
76 96 0.9202460050582886
76 97 0.44387760758399963
76 98 0.9279246926307678
76 99 0.9182628989219666
76 100 0.8941683173179626
76 101 0.9227234125137329
76 102 0.9132565259933472
76 104 0.9364721775054932
76 105 0.8461569547653198
76 106 0.9251536130905151
76 107 0.29374468326568604
76 109 0.9265950322151184
76 110 0.9055324792861938
76 111 0.050878070294857025
76 112 0.9220086932182312
76 113 0.7948524951934814
76 114 0.3953397572040558
76 115 0.7147574424743652
76 116 0.8144959211349487
76 117 0.1874617487192154
76 118 0.34701457619667053
76 119 0.34242790937423706
76 120 0.5670368671417236
76 121 0.919094979763031
76 122 0.2045920342206955
76 123 0.26127806305885315
76 124 0.06359758973121643
76 125 0.1741405874490738
76 126 0.8983377814292908
76 127 0.9184870719909668
76 128 0.934304416179657
76 129 0.8881619572639465
76 130 0.1780732423067093
76 131 0.9073470830917358
76 132 0.911683976650238
76 133 0.1413145512342453
76 134 0.529813826084137
76 135 0.9050130844116211
76 136 0.16153284907341003
76 137 0.5590947866439819
76 138 0.92466801404953
76 139 0.9251826405525208
76 140 0.6876537799835205
76 141 0.9271191954612732
76 142 0.7264232635498047
76 143 0.9177488088607788
76 144 0.9101633429527283
76 145 0.13806283473968506
76 146 0.7319576740264893
76 147 0.9110159873962402
76 148 0.8597719669342041
76 149 0.9164373874664307
76 150 0.7673330903053284
76 151 0.9044466614723206
76 152 0.8601393103599548
76 153 0.9350778460502625
76 154 0.9121242761611938
76 155 0.2779310345649719
76 156 0.8441814184188843
76 157 0.8763455748558044
76 158 0.9192031025886536
76 159 0.254842072725296
76 161 0.9192031025886536
76 162 0.3750409781932831
76 163 0.08953403681516647
76 165 0.801872730255127
76 166 0.9206916689872742
76 167 0.9342887997627258
76 168 0.12039948999881744
76 170 0.10146664828062057
76 171 0.9337407350540161
76 172 0.9156816601753235
76 173 0.789175271987915
76 174 0.9339638352394104
76 175 0.9233400225639343
76 176 0.6536672711372375
76 177 0.9129967093467712
76 178 0.8846513628959656
76 179 0.22651642560958862
76 180 0.9199568629264832
76 181 0.9142605662345886
76 182 0.9167885780334473
76 183 0.4285207986831665
76 185 0.9173975586891174
76 186 0.9052771329879761
76 187 0.9140927195549011
76 188 0.7804211378097534
76 189 0.9007401466369629
76 190 0.9111765027046204
76 191 0.3907776474952698
76 192 0.9089627861976624
76 193 0.9147390723228455
76 194 0.8367040157318115
76 195 0.5433837175369263
76 196 0.9316524267196655
76 197 0.7393431663513184
76 198 0.9182349443435669
76 199 0.6372602581977844
76 200 0.9401677250862122
76 201 0.7339799404144287
76 202 0.34153738617897034
76 203 0.5068044662475586
76 204 0.9250545501708984
76 205 0.9249048233032227
76 206 0.11692273616790771
76 207 0.9151768684387207
76 208 0.07413686811923981
76 209 0.9259914755821228
76 210 0.9303458333015442
76 212 0.9070445895195007
76 213 0.9409472942352295
76 214 0.9411894679069519
76 215 0.6611438989639282
76 216 0.9054715633392334
76 217 0.9505740404129028
76 218 0.7983450293540955
76 219 0.44589802622795105
76 220 0.19909194111824036
76 221 0.5097528696060181
76 222 0.8305255174636841
76 223 0.9222391247749329
76 224 0.48489388823509216
76 225 0.8893955945968628
76 226 0.9192608594894409
76 227 0.5269209742546082
76 228 0.9156984686851501
76 229 0.09794368594884872
76 230 0.9144783616065979
76 231 0.11633716523647308
76 232 0.22224251925945282
76 233 0.7286101579666138
76 234 0.20349499583244324
76 235 0.919094979763031
76 236 0.08277464658021927
76 238 0.8872581720352173
76 239 0.9308975338935852
76 240 0.9239450097084045
76 241 0.9238466620445251
76 242 0.8926593065261841
76 243 0.9095471501350403
76 244 0.1659739911556244
76 245 0.142776221036911
76 246 0.9051114916801453
76 247 0.930452823638916
76 248 0.8719522953033447
76 249 0.9276897311210632
76 250 0.3062174916267395
76 251 0.8879188895225525
76 252 0.8713125586509705
76 253 0.6678138375282288
76 254 0.9086191058158875
76 255 0.8970947861671448
77 78 0.7482643127441406
77 79 0.9599846005439758
77 80 0.9584352374076843
77 81 0.2543260157108307
77 82 0.9567727446556091
77 83 0.9621466398239136
77 84 0.9400627017021179
77 85 0.9294467568397522
77 86 0.9632400870323181
77 87 0.43429192900657654
77 88 0.9679675102233887
77 89 0.9684476852416992
77 90 0.9758366346359253
77 91 0.9445841312408447
77 92 0.23105861246585846
77 93 0.9073012471199036
77 94 0.9652882218360901
77 95 0.7996789216995239
77 96 0.9389409422874451
77 97 0.4271538257598877
77 98 0.9653403759002686
77 99 0.9715760946273804
77 100 0.9345905184745789
77 101 0.9616411924362183
77 102 0.960039496421814
77 104 0.9711171984672546
77 105 0.8976404666900635
77 106 0.9716453552246094
77 107 0.2936704158782959
77 109 0.9669607281684875
77 110 0.9318119287490845
77 111 0.07266457378864288
77 112 0.9552186131477356
77 113 0.8064379692077637
77 114 0.36558660864830017
77 115 0.6612322926521301
77 116 0.8284997344017029
77 117 0.16733424365520477
77 118 0.45765772461891174
77 119 0.3436630964279175
77 120 0.5488967895507812
77 121 0.9663506746292114
77 122 0.2462569624185562
77 123 0.2936907112598419
77 124 0.08477533608675003
77 125 0.35971522331237793
77 126 0.9460456967353821
77 127 0.9627074003219604
77 128 0.9773092269897461
77 129 0.913834810256958
77 130 0.1634952872991562
77 131 0.9519912004470825
77 132 0.962652862071991
77 133 0.16380152106285095
77 134 0.5856538414955139
77 135 0.964557409286499
77 136 0.15380191802978516
77 137 0.5342514514923096
77 138 0.9615864157676697
77 139 0.9733060002326965
77 140 0.7064329385757446
77 141 0.9769617915153503
77 142 0.711540162563324
77 143 0.9514522552490234
77 144 0.9598650932312012
77 145 0.2738649249076843
77 146 0.7400628924369812
77 147 0.945503294467926
77 148 0.8629363179206848
77 149 0.9689540863037109
77 150 0.7719882130622864
77 151 0.9552186131477356
77 152 0.871884286403656
77 153 0.9541440606117249
77 154 0.945503294467926
77 155 0.29970064759254456
77 156 0.8290853500366211
77 157 0.9166380167007446
77 158 0.962627112865448
77 159 0.45440858602523804
77 160 0.10627152025699615
77 161 0.9595050811767578
77 162 0.43167397379875183
77 163 0.20639219880104065
77 164 0.07164823263883591
77 165 0.8404554724693298
77 166 0.9767839312553406
77 167 0.9779148101806641
77 168 0.20539163053035736
77 169 0.08544550836086273
77 170 0.10627152025699615
77 171 0.9658195972442627
77 172 0.9539886713027954
77 173 0.806325376033783
77 174 0.9710477590560913
77 175 0.9731591939926147
77 176 0.6735175251960754
77 177 0.932776927947998
77 178 0.940032958984375
77 179 0.2522994875907898
77 180 0.9658991694450378
77 181 0.9710266590118408
77 182 0.9652882218360901
77 183 0.40312546491622925
77 185 0.9627074003219604
77 186 0.953068196773529
77 187 0.9599846005439758
77 188 0.8217340111732483
77 189 0.9540880918502808
77 190 0.9185373783111572
77 191 0.5132728219032288
77 192 0.9367832541465759
77 193 0.9632400870323181
77 194 0.8053053617477417
77 195 0.6493769884109497
77 196 0.9733060002326965
77 197 0.7618539929389954
77 198 0.960573673248291
77 199 0.7092732787132263
77 200 0.958658754825592
77 201 0.8202311396598816
77 202 0.325191468000412
77 203 0.49817803502082825
77 204 0.9743068218231201
77 205 0.9657951593399048
77 206 0.11989042907953262
77 207 0.956210196018219
77 208 0.325321763753891
77 209 0.9788334369659424
77 210 0.9779857993125916
77 212 0.9584352374076843
77 213 0.9416126608848572
77 214 0.9695308804512024
77 215 0.7081893682479858
77 216 0.9406081438064575
77 217 0.9758852124214172
77 218 0.8635799288749695
77 219 0.46460995078086853
77 220 0.18414732813835144
77 221 0.5732829570770264
77 222 0.8991175889968872
77 223 0.9642502665519714
77 224 0.5166963934898376
77 225 0.9306524991989136
77 226 0.9701113104820251
77 227 0.5439705848693848
77 228 0.9632123112678528
77 229 0.12434149533510208
77 230 0.9673418402671814
77 231 0.2502565383911133
77 232 0.2522994875907898
77 233 0.7502060532569885
77 234 0.23718376457691193
77 235 0.9642770290374756
77 236 0.14329646527767181
77 238 0.9369731545448303
77 239 0.9646438956260681
77 240 0.9726537466049194
77 241 0.974281907081604
77 242 0.9449607133865356
77 243 0.9549471139907837
77 244 0.19490428268909454
77 245 0.16426442563533783
77 246 0.947129487991333
77 247 0.9350799322128296
77 248 0.9201793670654297
77 249 0.9663261771202087
77 250 0.276216596364975
77 251 0.9369380474090576
77 252 0.9196218252182007
77 253 0.7148144841194153
77 254 0.9578999280929565
77 255 0.9607980251312256
78 79 0.7365565299987793
78 80 0.7388835549354553
78 81 0.26842477917671204
78 82 0.7375426292419434
78 83 0.7315199971199036
78 84 0.6916641592979431
78 85 0.6707106232643127
78 86 0.7367455363273621
78 87 0.3408304452896118
78 88 0.7334761023521423
78 89 0.7548810243606567
78 90 0.7413754463195801
78 91 0.7149874567985535
78 92 0.22593609988689423
78 93 0.7509438991546631
78 94 0.7388713955879211
78 95 0.697218656539917
78 96 0.7056633234024048
78 97 0.33002185821533203
78 98 0.7359752655029297
78 99 0.7406034469604492
78 100 0.6954876184463501
78 101 0.7460291385650635
78 102 0.7200855612754822
78 104 0.7265707850456238
78 105 0.7585406303405762
78 106 0.7490559220314026
78 107 0.17776556313037872
78 109 0.7434884905815125
78 110 0.7023913860321045
78 111 0.09473815560340881
78 112 0.7235245704650879
78 113 0.7812803983688354
78 114 0.24361711740493774
78 115 0.4552648067474365
78 116 0.7928617000579834
78 117 0.10181077569723129
78 118 0.40166887640953064
78 119 0.27955809235572815
78 120 0.33552825450897217
78 121 0.7272827625274658
78 122 0.21084755659103394
78 123 0.2702867388725281
78 124 0.07894846796989441
78 125 0.21250979602336884
78 126 0.7329073548316956
78 127 0.7303688526153564
78 128 0.7467532753944397
78 129 0.7254698872566223
78 130 0.15000209212303162
78 131 0.7053407430648804
78 132 0.748169481754303
78 134 0.28605344891548157
78 135 0.7526229023933411
78 136 0.05013071745634079
78 137 0.4843345284461975
78 138 0.7163947820663452
78 139 0.7362170815467834
78 140 0.3219856321811676
78 141 0.7516916990280151
78 142 0.39255425333976746
78 143 0.7152922749519348
78 144 0.7609779834747314
78 145 0.2332777976989746
78 146 0.5377989411354065
78 147 0.6975337266921997
78 148 0.7206553220748901
78 149 0.7269023060798645
78 150 0.3843911588191986
78 151 0.7194368243217468
78 152 0.5698695182800293
78 153 0.7556679844856262
78 154 0.7167949676513672
78 155 0.41568273305892944
78 156 0.6347377896308899
78 157 0.6861751675605774
78 158 0.7448878288269043
78 159 0.39112934470176697
78 160 0.07557489722967148
78 161 0.7516718506813049
78 162 0.2799292504787445
78 163 0.2105911374092102
78 164 0.0934130847454071
78 165 0.6036256551742554
78 166 0.7457947134971619
78 167 0.7473094463348389
78 168 0.21796384453773499
78 169 0.09747640043497086
78 170 0.13855399191379547
78 171 0.7276638150215149
78 172 0.7495658993721008
78 173 0.6070002317428589
78 174 0.7315419912338257
78 175 0.7515698671340942
78 176 0.689538836479187
78 177 0.6634711027145386
78 178 0.7021178007125854
78 179 0.2811918258666992
78 180 0.7483074069023132
78 181 0.7552757859230042
78 182 0.7253389954566956
78 183 0.3503895699977875
78 184 0.059079620987176895
78 185 0.760124683380127
78 186 0.7346273064613342
78 187 0.7243258953094482
78 188 0.566445529460907
78 189 0.7080745697021484
78 190 0.6701837778091431
78 191 0.5074909925460815
78 192 0.7036659717559814
78 193 0.7448564767837524
78 194 0.6328601241111755
78 195 0.5064018368721008
78 196 0.7549571394920349
78 197 0.708509087562561
78 198 0.7237726449966431
78 199 0.7061916589736938
78 200 0.7297829389572144
78 201 0.5994371175765991
78 202 0.29225531220436096
78 203 0.3132936954498291
78 204 0.7543935179710388
78 205 0.7392593622207642
78 206 0.11164999008178711
78 207 0.7318962812423706
78 208 0.1960674673318863
78 209 0.7492656111717224
78 210 0.7450159192085266
78 212 0.7538242340087891
78 213 0.7011182904243469
78 214 0.7371371984481812
78 215 0.7108086347579956
78 216 0.7493533492088318
78 217 0.7465425729751587
78 218 0.6470587849617004
78 219 0.20104508101940155
78 220 0.11298184841871262
78 221 0.5731834769248962
78 222 0.666942298412323
78 223 0.7266921997070312
78 224 0.19466841220855713
78 225 0.6921476721763611
78 226 0.7594209313392639
78 227 0.4576350450515747
78 228 0.7375181913375854
78 229 0.09118863940238953
78 230 0.728810727596283
78 231 0.18720859289169312
78 232 0.17508170008659363
78 233 0.37511318922042847
78 234 0.1480838507413864
78 235 0.7232272624969482
78 238 0.7239115834236145
78 239 0.7622286677360535
78 240 0.7659876942634583
78 241 0.7632188200950623
78 242 0.7047950625419617
78 243 0.7564069628715515
78 244 0.14422519505023956
78 245 0.11815924197435379
78 246 0.7018959522247314
78 247 0.7022202610969543
78 248 0.71077960729599
78 249 0.7442843914031982
78 250 0.17606058716773987
78 251 0.7258310914039612
78 252 0.6956337690353394
78 253 0.37206006050109863
78 254 0.7474281191825867
78 255 0.7557275295257568
79 80 0.9455316066741943
79 81 0.254100501537323
79 82 0.9469262361526489
79 83 0.9483169913291931
79 84 0.9242170453071594
79 85 0.9172673225402832
79 86 0.9484341740608215
79 87 0.46230846643447876
79 88 0.9501606822013855
79 89 0.9505972862243652
79 90 0.9593784809112549
79 91 0.9249932765960693
79 92 0.23457717895507812
79 93 0.9077519178390503
79 94 0.947321355342865
79 95 0.7992889285087585
79 96 0.9219322800636292
79 97 0.3923577070236206
79 98 0.9600611925125122
79 99 0.9559081792831421
79 100 0.9228272438049316
79 101 0.9457101225852966
79 102 0.9472037553787231
79 104 0.9544737339019775
79 105 0.9011840224266052
79 106 0.9529317617416382
79 107 0.28394511342048645
79 109 0.9544165134429932
79 110 0.915555477142334
79 111 0.07377111166715622
79 112 0.9411172866821289
79 113 0.8187183737754822
79 114 0.3244158923625946
79 115 0.6682844161987305
79 116 0.8105522394180298
79 117 0.15289415419101715
79 118 0.45556098222732544
79 119 0.345914363861084
79 120 0.5261953473091125
79 121 0.9484341740608215
79 122 0.21642392873764038
79 123 0.3016708493232727
79 124 0.07377111166715622
79 125 0.36804601550102234
79 126 0.9422495365142822
79 127 0.9468247890472412
79 128 0.953425943851471
79 129 0.9110042452812195
79 130 0.17213259637355804
79 131 0.935620129108429
79 132 0.9551483988761902
79 133 0.17223501205444336
79 134 0.5472168326377869
79 135 0.9398200511932373
79 136 0.162650004029274
79 137 0.5287787318229675
79 138 0.9498162865638733
79 139 0.9578999280929565
79 140 0.6894941329956055
79 141 0.9606489539146423
79 142 0.686328649520874
79 143 0.9393162727355957
79 144 0.9446942210197449
79 145 0.27803531289100647
79 146 0.7020648717880249
79 147 0.9320471882820129
79 148 0.8476637601852417
79 149 0.9553026556968689
79 150 0.7719287276268005
79 151 0.9411172866821289
79 152 0.8466253280639648
79 153 0.9399958848953247
79 154 0.9288332462310791
79 155 0.30426448583602905
79 156 0.8282530903816223
79 157 0.8905230164527893
79 158 0.9603815078735352
79 159 0.4658071994781494
79 160 0.1078898087143898
79 161 0.9434771537780762
79 162 0.4267750382423401
79 163 0.2049800157546997
79 164 0.07273929566144943
79 165 0.8247295022010803
79 166 0.9560173749923706
79 167 0.9625635147094727
79 168 0.18912217020988464
79 169 0.09759000688791275
79 170 0.1078898087143898
79 171 0.9489311575889587
79 172 0.9385839104652405
79 173 0.7945274710655212
79 174 0.9501010179519653
79 175 0.9523189067840576
79 176 0.6793240904808044
79 177 0.9185827374458313
79 178 0.9338589906692505
79 179 0.23961623013019562
79 180 0.9533103704452515
79 181 0.9479379653930664
79 182 0.9462676048278809
79 183 0.3621368706226349
79 185 0.9489311575889587
79 186 0.9367464780807495
79 187 0.9449735879898071
79 188 0.8096746206283569
79 189 0.935620129108429
79 190 0.9027985334396362
79 191 0.5152775049209595
79 192 0.924030065536499
79 193 0.9515921473503113
79 194 0.8012673258781433
79 195 0.622297465801239
79 196 0.9578999280929565
79 197 0.7400592565536499
79 198 0.9445942640304565
79 199 0.7144485116004944
79 200 0.9378073811531067
79 201 0.7966246008872986
79 202 0.3012959957122803
79 203 0.44427916407585144
79 204 0.9682754874229431
79 205 0.9509817361831665
79 206 0.12171611934900284
79 207 0.9399363398551941
79 208 0.32715997099876404
79 209 0.9507155418395996
79 210 0.9606489539146423
79 212 0.9465892314910889
79 213 0.9235829710960388
79 214 0.9517649412155151
79 215 0.6961491107940674
79 216 0.9247872829437256
79 217 0.9584503173828125
79 218 0.8672905564308167
79 219 0.47371816635131836
79 220 0.19245009124279022
79 221 0.5730863213539124
79 222 0.9037379622459412
79 223 0.947321355342865
79 224 0.5006301403045654
79 225 0.9219129085540771
79 226 0.9566250443458557
79 227 0.5037453770637512
79 228 0.955751359462738
79 229 0.12623494863510132
79 230 0.947262167930603
79 231 0.25406745076179504
79 232 0.23135359585285187
79 233 0.7343316078186035
79 234 0.2916678786277771
79 235 0.9473815560340881
79 236 0.14547859132289886
79 238 0.9094043374061584
79 239 0.9517765045166016
79 240 0.953920841217041
79 241 0.9567395448684692
79 242 0.928265392780304
79 243 0.9318702816963196
79 244 0.17113278806209564
79 245 0.18401747941970825
79 246 0.9348127841949463
79 247 0.9232807755470276
79 248 0.9055829048156738
79 249 0.9515363574028015
79 250 0.31158092617988586
79 251 0.913599967956543
79 252 0.9105052947998047
79 253 0.7256996631622314
79 254 0.9460317492485046
79 255 0.9304091930389404
80 81 0.2498699426651001
80 82 0.9453645944595337
80 83 0.9478156566619873
80 84 0.930188000202179
80 85 0.9058161377906799
80 86 0.9605578184127808
80 87 0.48559510707855225
80 88 0.9507076740264893
80 89 0.9564006328582764
80 90 0.9599146842956543
80 91 0.9124550819396973
80 92 0.20740088820457458
80 93 0.9106116890907288
80 94 0.9478737115859985
80 95 0.8051468133926392
80 96 0.9376295208930969
80 97 0.4448956251144409
80 98 0.9521966576576233
80 99 0.9501533508300781
80 100 0.925586998462677
80 101 0.9515327215194702
80 102 0.9498692750930786
80 104 0.9529218673706055
80 105 0.8995830416679382
80 106 0.9597544074058533
80 107 0.24477320909500122
80 109 0.9570567011833191
80 110 0.9237657189369202
80 111 0.07373210787773132
80 112 0.9395594000816345
80 113 0.7918485403060913
80 114 0.3654618561267853
80 115 0.6784852743148804
80 116 0.8211208581924438
80 117 0.18677183985710144
80 118 0.44172850251197815
80 119 0.3069857358932495
80 120 0.525917112827301
80 121 0.9500369429588318
80 122 0.2498747706413269
80 123 0.24892215430736542
80 124 0.07373210787773132
80 125 0.3450389504432678
80 126 0.9374706745147705
80 127 0.9515873789787292
80 128 0.9529218673706055
80 129 0.9027117490768433
80 130 0.17204159498214722
80 131 0.9478916525840759
80 132 0.9588629007339478
80 133 0.1483999639749527
80 134 0.5504335165023804
80 135 0.941453218460083
80 136 0.1495589017868042
80 137 0.5012970566749573
80 138 0.9450902938842773
80 139 0.9605188369750977
80 140 0.676017165184021
80 141 0.9632584452629089
80 142 0.67587810754776
80 143 0.9420129656791687
80 144 0.9367517828941345
80 145 0.2815935015678406
80 146 0.7290502190589905
80 147 0.9444034099578857
80 148 0.8495821952819824
80 149 0.954797625541687
80 150 0.7518389821052551
80 151 0.94380122423172
80 152 0.8520134091377258
80 153 0.940560519695282
80 154 0.9379789233207703
80 155 0.3138090670108795
80 156 0.802137017250061
80 157 0.8956151008605957
80 158 0.9450902938842773
80 159 0.456607848405838
80 160 0.0882268100976944
80 161 0.9545940160751343
80 162 0.4586552679538727
80 163 0.23218786716461182
80 164 0.07270084321498871
80 165 0.7871073484420776
80 166 0.9523687958717346
80 167 0.9610123038291931
80 168 0.21810252964496613
80 169 0.08670081198215485
80 170 0.10783277451992035
80 171 0.9494820833206177
80 172 0.9359508156776428
80 173 0.7725765705108643
80 174 0.9506491422653198
80 175 0.9518154263496399
80 176 0.686377227306366
80 177 0.9202805161476135
80 178 0.9279763102531433
80 179 0.25187695026397705
80 180 0.9538557529449463
80 181 0.9495399594306946
80 182 0.951033353805542
80 183 0.36690354347229004
80 185 0.9505347609519958
80 186 0.9394394159317017
80 187 0.9487044811248779
80 188 0.8067905306816101
80 189 0.9436362385749817
80 190 0.9067227840423584
80 191 0.5324300527572632
80 192 0.9289423823356628
80 193 0.9616098999977112
80 194 0.8146297335624695
80 195 0.6558380722999573
80 196 0.9626023769378662
80 197 0.7396680116653442
80 198 0.953588604927063
80 199 0.7267215847969055
80 200 0.9265749454498291
80 201 0.7949594259262085
80 202 0.2723044455051422
80 203 0.4896381199359894
80 204 0.9594207406044006
80 205 0.9546939134597778
80 206 0.08689412474632263
80 207 0.9383766651153564
80 208 0.3207586705684662
80 209 0.9512617588043213
80 210 0.9632584452629089
80 212 0.9566596150398254
80 213 0.9241730570793152
80 214 0.9533593654632568
80 215 0.7128903865814209
80 216 0.9329065084457397
80 217 0.9621086120605469
80 218 0.8573971390724182
80 219 0.5161407589912415
80 220 0.1813570111989975
80 221 0.5620772242546082
80 222 0.8930602073669434
80 223 0.9468205571174622
80 224 0.5023589730262756
80 225 0.9159733057022095
80 226 0.9582114219665527
80 227 0.4997495412826538
80 228 0.951033353805542
80 229 0.11039718985557556
80 230 0.9457070231437683
80 231 0.22479325532913208
80 232 0.2064565122127533
80 233 0.7230297327041626
80 234 0.30507248640060425
80 235 0.953193187713623
80 236 0.07997092604637146
80 238 0.9034215807914734
80 239 0.9417394399642944
80 240 0.9555119276046753
80 241 0.9583215117454529
80 242 0.937416672706604
80 243 0.9270806312561035
80 244 0.17638736963272095
80 245 0.15518265962600708
80 246 0.9364566206932068
80 247 0.9238770604133606
80 248 0.9227004051208496
80 249 0.9489269256591797
80 250 0.3394436538219452
80 251 0.8976404070854187
80 252 0.9144254922866821
80 253 0.6929859519004822
80 254 0.9465892314910889
80 255 0.928846001625061
81 82 0.23846514523029327
81 83 0.24512675404548645
81 84 0.15853162109851837
81 85 0.1317337304353714
81 86 0.22422847151756287
81 87 0.07460471242666245
81 88 0.23990876972675323
81 89 0.24842976033687592
81 90 0.2547186017036438
81 91 0.2546789348125458
81 92 0.3668997287750244
81 93 0.25451141595840454
81 94 0.2448693960905075
81 95 0.2287653237581253
81 96 0.19232894480228424
81 98 0.2402845174074173
81 99 0.240033820271492
81 100 0.17199280858039856
81 101 0.2327480912208557
81 102 0.24538491666316986
81 104 0.1866590529680252
81 105 0.27451565861701965
81 106 0.25145354866981506
81 107 0.06873217970132828
81 108 0.08908707648515701
81 109 0.21122509241104126
81 110 0.18108674883842468
81 112 0.1849176287651062
81 113 0.26342716813087463
81 114 0.10647942870855331
81 115 0.1110086515545845
81 116 0.27462565898895264
81 118 0.333564430475235
81 119 0.06929589062929153
81 121 0.21199780702590942
81 123 0.21737045049667358
81 125 0.13259871304035187
81 126 0.244670107960701
81 127 0.18763479590415955
81 128 0.25564172863960266
81 129 0.2551102340221405
81 130 0.1428571492433548
81 131 0.23085767030715942
81 132 0.2452557384967804
81 134 0.061135441064834595
81 135 0.25999340415000916
81 136 0.07559289783239365
81 137 0.0828215628862381
81 138 0.21277906000614166
81 139 0.23414142429828644
81 140 0.07339363545179367
81 141 0.24964913725852966
81 142 0.10610221326351166
81 143 0.21035802364349365
81 144 0.2595759630203247
81 145 0.1292191445827484
81 146 0.11130759865045547
81 147 0.22405673563480377
81 148 0.2751106917858124
81 149 0.2526344060897827
81 151 0.2301197052001953
81 153 0.2262512594461441
81 154 0.21990755200386047
81 155 0.21311692893505096
81 156 0.184792622923851
81 157 0.15520413219928741
81 158 0.25369811058044434
81 159 0.3642820715904236
81 160 0.18993429839611053
81 161 0.23733049631118774
81 163 0.05292561277747154
81 165 0.2497691810131073
81 166 0.25577443838119507
81 167 0.25041767954826355
81 170 0.22792114317417145
81 171 0.21210888028144836
81 172 0.26083433628082275
81 173 0.20612767338752747
81 174 0.24830004572868347
81 175 0.24778330326080322
81 176 0.2642500102519989
81 177 0.15651991963386536
81 178 0.25476449728012085
81 179 0.3200102746486664
81 180 0.23177626729011536
81 181 0.25670912861824036
81 182 0.2448693960905075
81 183 0.05763904005289078
81 185 0.24066202342510223
81 186 0.2306108921766281
81 187 0.22541172802448273
81 188 0.08565312623977661
81 189 0.2391025871038437
81 190 0.14497780799865723
81 191 0.2925969362258911
81 192 0.19672678411006927
81 193 0.24053598940372467
81 194 0.14569459855556488
81 195 0.2684570550918579
81 196 0.2543260157108307
81 197 0.27420684695243835
81 198 0.20437978208065033
81 199 0.3050288259983063
81 200 0.2371482402086258
81 201 0.2024737298488617
81 204 0.2545875310897827
81 205 0.2327480912208557
81 206 0.06734350323677063
81 207 0.21002064645290375
81 208 0.15687718987464905
81 209 0.2438480406999588
81 210 0.2295161485671997
81 212 0.25396615266799927
81 213 0.16715054214000702
81 214 0.22759149968624115
81 215 0.2209978699684143
81 216 0.20847997069358826
81 217 0.25016072392463684
81 218 0.2513538897037506
81 220 0.06388765573501587
81 221 0.31806695461273193
81 222 0.25910863280296326
81 223 0.1877332180738449
81 224 0.06952346861362457
81 225 0.25775593519210815
81 226 0.2553769648075104
81 227 0.2745848298072815
81 228 0.25711286067962646
81 229 0.12222646176815033
81 230 0.23695586621761322
81 231 0.306491494178772
81 232 0.09600307047367096
81 233 0.09515421837568283
81 235 0.22830533981323242
81 236 0.08451542258262634
81 238 0.24305103719234467
81 239 0.25860971212387085
81 240 0.25577443838119507
81 241 0.2508046329021454
81 242 0.24493560194969177
81 243 0.2622542381286621
81 244 0.14498627185821533
81 246 0.20712324976921082
81 247 0.19328926503658295
81 248 0.22586549818515778
81 249 0.25711286067962646
81 251 0.25702354311943054
81 252 0.20467454195022583
81 253 0.12527969479560852
81 254 0.2500021159648895
81 255 0.2615413963794708
82 83 0.9418179392814636
82 84 0.9260844588279724
82 85 0.9124883413314819
82 86 0.9461795091629028
82 87 0.47666603326797485
82 88 0.9479252696037292
82 89 0.948354959487915
82 90 0.962438702583313
82 91 0.9180486798286438
82 92 0.17196859419345856
82 93 0.9095300436019897
82 94 0.9471717476844788
82 95 0.804360032081604
82 96 0.9281220436096191
82 97 0.3959110677242279
82 98 0.965233325958252
82 99 0.9515807628631592
82 100 0.9355502128601074
82 101 0.9434384107589722
82 102 0.9470471739768982
82 104 0.9491097331047058
82 105 0.882614016532898
82 106 0.9496684074401855
82 107 0.24568386375904083
82 109 0.957460880279541
82 110 0.9326566457748413
82 112 0.9387973546981812
82 113 0.8011124730110168
82 114 0.3364829123020172
82 115 0.6734427809715271
82 116 0.8082319498062134
82 117 0.17042429745197296
82 118 0.4160875082015991
82 119 0.31710243225097656
82 120 0.529706597328186
82 121 0.9440675377845764
82 122 0.19091084599494934
82 123 0.24984824657440186
82 124 0.07400642335414886
82 125 0.33201178908348083
82 126 0.93988436460495
82 127 0.946675181388855
82 128 0.9501607418060303
82 129 0.9071902632713318
82 130 0.14801284670829773
82 131 0.9386045336723328
82 132 0.9560776352882385
82 133 0.17278441786766052
82 134 0.5560003519058228
82 135 0.9406800270080566
82 136 0.1305350661277771
82 137 0.5265649557113647
82 138 0.9454267621040344
82 139 0.9546814560890198
82 140 0.6799946427345276
82 141 0.9574553370475769
82 142 0.6754997372627258
82 143 0.9465860724449158
82 144 0.9338334798812866
82 145 0.2826411724090576
82 146 0.7400000691413879
82 147 0.9414685964584351
82 148 0.8503676056861877
82 149 0.9488508701324463
82 150 0.7533192038536072
82 151 0.9387973546981812
82 152 0.8516688346862793
82 153 0.9355355501174927
82 154 0.9414685964584351
82 155 0.311729371547699
82 156 0.8149399161338806
82 157 0.8989471793174744
82 158 0.9507262110710144
82 159 0.4403338134288788
82 160 0.07871560752391815
82 161 0.9443668723106384
82 162 0.4258345663547516
82 163 0.22391243278980255
82 164 0.07297132164239883
82 165 0.8062095642089844
82 166 0.9527572393417358
82 167 0.9624952673912048
82 168 0.18486067652702332
82 169 0.09790129959583282
82 170 0.10823395848274231
82 171 0.946675181388855
82 172 0.9308536648750305
82 173 0.7716372609138489
82 174 0.9489142298698425
82 175 0.9522001147270203
82 176 0.669587254524231
82 177 0.9248000383377075
82 178 0.920610785484314
82 179 0.24452506005764008
82 180 0.9500318169593811
82 181 0.9509617686271667
82 182 0.9461146593093872
82 183 0.36826857924461365
82 185 0.9530145525932312
82 186 0.9365344643592834
82 187 0.9416183233261108
82 188 0.8184200525283813
82 189 0.9364688396453857
82 190 0.9056782722473145
82 191 0.5324676632881165
82 192 0.9237250685691833
82 193 0.948291540145874
82 194 0.8151445388793945
82 195 0.6181014180183411
82 196 0.9546814560890198
82 197 0.7236583828926086
82 198 0.946548581123352
82 199 0.7026186585426331
82 200 0.9235562682151794
82 201 0.7891761064529419
82 202 0.2861795425415039
82 203 0.4735523760318756
82 204 0.9640370607376099
82 205 0.960361123085022
82 206 0.09593915194272995
82 207 0.9472011923789978
82 208 0.3125748038291931
82 209 0.9516426920890808
82 210 0.9626702666282654
82 212 0.9400595426559448
82 213 0.9232817888259888
82 214 0.9495373368263245
82 215 0.7241291999816895
82 216 0.940697431564331
82 217 0.9583722949028015
82 218 0.8499333262443542
82 219 0.5017441511154175
82 220 0.15996727347373962
82 221 0.5390942096710205
82 222 0.8975203037261963
82 223 0.9429433345794678
82 224 0.49022161960601807
82 225 0.9095306396484375
82 226 0.9523266553878784
82 227 0.49037885665893555
82 228 0.9535144567489624
82 229 0.06331881135702133
82 230 0.9428761601448059
82 231 0.188024640083313
82 232 0.1782131791114807
82 233 0.7339352965354919
82 234 0.29259824752807617
82 235 0.9472354650497437
82 236 0.11675410717725754
82 238 0.9012603163719177
82 239 0.9431164860725403
82 240 0.948550820350647
82 241 0.9566478729248047
82 242 0.9258498549461365
82 243 0.9305297136306763
82 244 0.17167866230010986
82 245 0.1557600051164627
82 246 0.9324296712875366
82 247 0.925137460231781
82 248 0.9106792211532593
82 249 0.9609142541885376
82 250 0.32820355892181396
82 251 0.8976512551307678
82 252 0.9277679324150085
82 253 0.7082622051239014
82 254 0.9416183233261108
82 255 0.9290757179260254
83 84 0.9277395009994507
83 85 0.9132754802703857
83 86 0.950684130191803
83 87 0.4544471204280853
83 88 0.9565778374671936
83 89 0.958076000213623
83 90 0.9625911712646484
83 91 0.9155157208442688
83 92 0.22933918237686157
83 93 0.8926706314086914
83 94 0.9506307244300842
83 95 0.7779720425605774
83 96 0.9254761934280396
83 97 0.4551607668399811
83 98 0.9517866969108582
83 99 0.9581235647201538
83 100 0.9220709204673767
83 101 0.9511299729347229
83 102 0.9473689198493958
83 104 0.9577244520187378
83 105 0.8859999179840088
83 106 0.9614036083221436
83 107 0.28304800391197205
83 109 0.9545374512672424
83 110 0.9202501773834229
83 111 0.0857943668961525
83 112 0.9434321522712708
83 113 0.7759528160095215
83 114 0.361759215593338
83 115 0.6300823092460632
83 116 0.8043351769447327
83 117 0.18628019094467163
83 118 0.46315887570381165
83 119 0.29131466150283813
83 120 0.56277996301651
83 121 0.9538321495056152
83 122 0.2826939523220062
83 123 0.2902275323867798
83 124 0.07353802770376205
83 125 0.36688315868377686
83 126 0.932868242263794
83 127 0.9511822462081909
83 128 0.9598132371902466
83 129 0.8925452828407288
83 130 0.16546055674552917
83 131 0.9400913119316101
83 132 0.9500264525413513
83 133 0.17169083654880524
83 134 0.6014353632926941
83 135 0.9442859888076782
83 136 0.16213610768318176
83 137 0.4883500635623932
83 138 0.9499748945236206
83 139 0.961107611656189
83 140 0.6931279897689819
83 141 0.9679775238037109
83 142 0.7143437266349792
83 143 0.9384717345237732
83 144 0.9448908567428589
83 145 0.2808522880077362
83 146 0.7134888768196106
83 147 0.9323061108589172
83 148 0.836724579334259
83 149 0.9522843956947327
83 150 0.7681811451911926
83 151 0.9434321522712708
83 152 0.8649035692214966
83 153 0.9423198103904724
83 154 0.9333739876747131
83 155 0.30975639820098877
83 156 0.8049038052558899
83 157 0.9076828360557556
83 158 0.9468153119087219
83 159 0.46880021691322327
83 160 0.09777174890041351
83 161 0.9478685259819031
83 162 0.423139363527298
83 163 0.20887309312820435
83 164 0.07250947505235672
83 165 0.8184149265289307
83 166 0.9613564014434814
83 167 0.9605617523193359
83 168 0.20302653312683105
83 169 0.07566352188587189
83 170 0.10754892975091934
83 171 0.9532820582389832
83 172 0.9356184005737305
83 173 0.8147544860839844
83 174 0.9533851146697998
83 175 0.9566284418106079
83 176 0.6623921990394592
83 177 0.9156804084777832
83 178 0.938433051109314
83 179 0.251213937997818
83 180 0.9544847011566162
83 181 0.9554306864738464
83 182 0.956933319568634
83 183 0.4104437232017517
83 185 0.950132429599762
83 186 0.9465057849884033
83 187 0.9514815807342529
83 188 0.8193639516830444
83 189 0.9443355202674866
83 190 0.906531035900116
83 191 0.5039944052696228
83 192 0.9243425130844116
83 193 0.9538321495056152
83 194 0.7812358736991882
83 195 0.6633245348930359
83 196 0.9621466398239136
83 197 0.7590270638465881
83 198 0.9489744305610657
83 199 0.6981716156005859
83 200 0.9327026605606079
83 201 0.8362946510314941
83 202 0.3227100670337677
83 203 0.5259146094322205
83 204 0.9600156545639038
83 205 0.9521809220314026
83 206 0.12133155018091202
83 207 0.9422661662101746
83 208 0.3354441523551941
83 209 0.9592181444168091
83 210 0.9659047722816467
83 212 0.9499242305755615
83 213 0.9260426163673401
83 214 0.9539879560470581
83 215 0.6911054849624634
83 216 0.9272313117980957
83 217 0.9616531133651733
83 218 0.841025173664093
83 219 0.5005952715873718
83 220 0.180879607796669
83 221 0.5534789562225342
83 222 0.8794059753417969
83 223 0.9495803117752075
83 224 0.5288719534873962
83 225 0.9287883043289185
83 226 0.9588190913200378
83 227 0.5523691177368164
83 228 0.9506307244300842
83 229 0.1258361041545868
83 230 0.9558359980583191
83 231 0.2491128146648407
83 232 0.25533220171928406
83 233 0.7496993541717529
83 234 0.29412710666656494
83 235 0.9527828097343445
83 236 0.14501895010471344
83 238 0.9197009801864624
83 239 0.9434866905212402
83 240 0.9571766257286072
83 241 0.9610048532485962
83 242 0.9381545782089233
83 243 0.9299973845481873
83 244 0.1919160932302475
83 245 0.1662389487028122
83 246 0.9350578188896179
83 247 0.925771176815033
83 248 0.904915452003479
83 249 0.9495803117752075
83 250 0.31370240449905396
83 251 0.9063031673431396
83 252 0.9076284766197205
83 253 0.738828182220459
83 254 0.9483169913291931
83 255 0.9402916431427002
84 85 0.9069098830223083
84 86 0.9332951903343201
84 87 0.47931307554244995
84 88 0.9319303035736084
84 89 0.930178701877594
84 90 0.9447017908096313
84 91 0.8891457319259644
84 92 0.13775968551635742
84 93 0.8809455037117004
84 94 0.9299834370613098
84 95 0.80466628074646
84 96 0.940661609172821
84 97 0.43676331639289856
84 98 0.93874192237854
84 99 0.9313467741012573
84 100 0.9283492565155029
84 101 0.939057469367981
84 102 0.9459150433540344
84 104 0.952391505241394
84 105 0.865807294845581
84 106 0.9380404949188232
84 107 0.2745848298072815
84 109 0.9480429887771606
84 110 0.9352931380271912
84 111 0.08760957419872284
84 112 0.9299118518829346
84 113 0.7821129560470581
84 114 0.36381614208221436
84 115 0.7094439268112183
84 116 0.7902412414550781
84 117 0.17292863130569458
84 118 0.3137674331665039
84 119 0.3430106043815613
84 120 0.5635280609130859
84 121 0.9429389238357544
84 122 0.28107839822769165
84 123 0.2606610953807831
84 124 0.08760957419872284
84 125 0.29913562536239624
84 126 0.9318968057632446
84 127 0.9423609375953674
84 128 0.9385269284248352
84 129 0.8830183744430542
84 130 0.17521914839744568
84 131 0.9242259860038757
84 132 0.9282276630401611
84 133 0.16927778720855713
84 134 0.5498877763748169
84 135 0.915455162525177
84 136 0.16556653380393982
84 137 0.5145137310028076
84 138 0.9302818179130554
84 139 0.9506729245185852
84 140 0.6944384574890137
84 141 0.9450672268867493
84 142 0.6971678137779236
84 143 0.9388142228126526
84 144 0.9193999171257019
84 145 0.16603891551494598
84 146 0.7397294044494629
84 147 0.9313115477561951
84 148 0.8423766493797302
84 149 0.9306650161743164
84 150 0.7804251313209534
84 151 0.921271562576294
84 152 0.8748821020126343
84 153 0.9384710192680359
84 154 0.9269494414329529
84 155 0.28336116671562195
84 156 0.8418594598770142
84 157 0.894027054309845
84 158 0.9335081577301025
84 159 0.3556198179721832
84 161 0.938885509967804
84 162 0.43909895420074463
84 163 0.20865558087825775
84 164 0.07404360920190811
84 165 0.766296923160553
84 166 0.9358128905296326
84 167 0.9416072368621826
84 168 0.1826408952474594
84 169 0.06622661650180817
84 171 0.9359284043312073
84 172 0.9140635132789612
84 173 0.7584678530693054
84 174 0.9307629466056824
84 175 0.9362991452217102
84 176 0.6673479080200195
84 177 0.909481942653656
84 178 0.9045011401176453
84 179 0.1766265630722046
84 180 0.939411461353302
84 181 0.929594099521637
84 182 0.9289107918739319
84 183 0.42922723293304443
84 185 0.9316400289535522
84 186 0.9286497235298157
84 187 0.927448570728302
84 188 0.8229424357414246
84 189 0.9242259860038757
84 190 0.9257111549377441
84 191 0.4811360239982605
84 192 0.9372988343238831
84 193 0.9300806522369385
84 194 0.8271228671073914
84 195 0.6350240707397461
84 196 0.9421848058700562
84 197 0.7030168771743774
84 198 0.9400454163551331
84 199 0.6814478635787964
84 200 0.9152575731277466
84 201 0.7538920640945435
84 202 0.3197496235370636
84 203 0.5107953548431396
84 204 0.9410293102264404
84 205 0.9347646236419678
84 206 0.12389865517616272
84 207 0.929732084274292
84 208 0.2632494270801544
84 209 0.9325134754180908
84 210 0.9461255073547363
84 212 0.9269582033157349
84 213 0.9357509016990662
84 214 0.9463997483253479
84 215 0.6853981018066406
84 216 0.9336987733840942
84 217 0.945943295955658
84 218 0.8323941826820374
84 219 0.5256737470626831
84 220 0.19030381739139557
84 221 0.5143041014671326
84 222 0.8541504740715027
84 223 0.9374919533729553
84 224 0.4832131266593933
84 225 0.8951312899589539
84 226 0.9354240894317627
84 227 0.5241732597351074
84 228 0.9321287274360657
84 229 0.10440503805875778
84 230 0.9341821670532227
84 231 0.1314314603805542
84 232 0.20606432855129242
84 233 0.7224898934364319
84 234 0.3176117241382599
84 235 0.9440104365348816
84 236 0.11846976727247238
84 238 0.8842446804046631
84 239 0.9267663955688477
84 240 0.9336788058280945
84 241 0.938809335231781
84 242 0.9121768474578857
84 243 0.9113807082176208
84 244 0.12520727515220642
84 245 0.16390252113342285
84 246 0.9428651928901672
84 247 0.9199574589729309
84 248 0.9162208437919617
84 249 0.9321287274360657
84 250 0.3361980617046356
84 251 0.8759394884109497
84 252 0.8988139629364014
84 253 0.7072169184684753
84 254 0.9252941608428955
84 255 0.9089034795761108
85 86 0.9211838245391846
85 87 0.43274712562561035
85 88 0.9209589958190918
85 89 0.92131108045578
85 90 0.9233044981956482
85 91 0.882955014705658
85 92 0.1824183315038681
85 93 0.8499802947044373
85 94 0.9199647903442383
85 95 0.7492659687995911
85 96 0.8909958600997925
85 97 0.4353701174259186
85 98 0.9180402159690857
85 99 0.923617422580719
85 100 0.8984465599060059
85 101 0.9160751700401306
85 102 0.9120475053787231
85 104 0.9407731890678406
85 105 0.8387476205825806
85 106 0.9185699820518494
85 107 0.3017725646495819
85 109 0.917826235294342
85 110 0.8906788229942322
85 111 0.07649055123329163
85 112 0.9362055063247681
85 113 0.7391951084136963
85 114 0.2850634455680847
85 115 0.6506873965263367
85 116 0.7605717778205872
85 117 0.1467873454093933
85 118 0.3877536356449127
85 119 0.34011420607566833
85 120 0.5493813753128052
85 121 0.9211838245391846
85 122 0.27856799960136414
85 123 0.2327749878168106
85 125 0.357947438955307
85 126 0.8992692232131958
85 127 0.9249426126480103
85 128 0.9233916997909546
85 129 0.8647136688232422
85 130 0.07649055123329163
85 131 0.9127201437950134
85 132 0.9115673303604126
85 133 0.17858415842056274
85 134 0.5819374918937683
85 135 0.9148038029670715
85 136 0.10793332755565643
85 137 0.5220670700073242
85 138 0.9377242922782898
85 139 0.9251238107681274
85 140 0.7073538899421692
85 141 0.9270702600479126
85 142 0.6921937465667725
85 143 0.9076879024505615
85 144 0.9023043513298035
85 145 0.23831526935100555
85 146 0.7180123329162598
85 147 0.903089165687561
85 148 0.8064870834350586
85 149 0.9152474999427795
85 150 0.7881338000297546
85 151 0.9142030477523804
85 152 0.8742022514343262
85 153 0.9085693955421448
85 154 0.9075324535369873
85 155 0.16780884563922882
85 156 0.810581624507904
85 157 0.8806455135345459
85 158 0.9158148169517517
85 159 0.38080984354019165
85 160 0.11186698079109192
85 161 0.9092419743537903
85 162 0.4163375496864319
85 163 0.1653059422969818
85 164 0.07542070001363754
85 165 0.8088387846946716
85 166 0.9206103086471558
85 167 0.9266803860664368
85 168 0.1407853066921234
85 169 0.07870137691497803
85 170 0.05084862560033798
85 171 0.9260346293449402
85 172 0.8978112936019897
85 173 0.7660046219825745
85 174 0.917560875415802
85 175 0.9221761226654053
85 176 0.5951740741729736
85 177 0.8912888765335083
85 178 0.8933705687522888
85 179 0.14135906100273132
85 180 0.9285792112350464
85 181 0.9152474999427795
85 182 0.9177795648574829
85 183 0.38834550976753235
85 185 0.9194825291633606
85 186 0.917256772518158
85 187 0.9128784537315369
85 188 0.8153170347213745
85 189 0.9193421006202698
85 190 0.8835667967796326
85 191 0.44991347193717957
85 192 0.886375904083252
85 193 0.9157266020774841
85 194 0.769696831703186
85 195 0.5893380641937256
85 196 0.9218814969062805
85 197 0.6883900165557861
85 198 0.9225105047225952
85 199 0.6285009384155273
85 200 0.9088894128799438
85 201 0.7911442518234253
85 202 0.3356667459011078
85 203 0.49973028898239136
85 204 0.9239112734794617
85 205 0.9204478859901428
85 206 0.0811304822564125
85 207 0.92166668176651
85 208 0.30368277430534363
85 209 0.9237437844276428
85 210 0.9410841464996338
85 212 0.90800940990448
85 213 0.910642683506012
85 214 0.9280959367752075
85 215 0.6730003356933594
85 216 0.8963666558265686
85 217 0.9257294535636902
85 218 0.811170756816864
85 219 0.5038293600082397
85 220 0.15393425524234772
85 221 0.5016558170318604
85 222 0.8594547510147095
85 223 0.9199647903442383
85 224 0.527357280254364
85 225 0.8880231976509094
85 226 0.9191796779632568
85 227 0.4913630187511444
85 228 0.9166869521141052
85 229 0.12270785123109818
85 230 0.9253066182136536
85 231 0.23320312798023224
85 232 0.24416565895080566
85 233 0.7628166675567627
85 234 0.2778041362762451
85 235 0.9255496263504028
85 236 0.13575725257396698
85 238 0.8961239457130432
85 239 0.9066383242607117
85 240 0.916262686252594
85 241 0.9237803816795349
85 242 0.8969108462333679
85 243 0.8926687836647034
85 244 0.18853136897087097
85 245 0.15502576529979706
85 246 0.9104955792427063
85 247 0.9089438915252686
85 248 0.8784975409507751
85 249 0.9188721179962158
85 250 0.2907600998878479
85 251 0.875028133392334
85 252 0.8892745971679688
85 253 0.750993013381958
85 254 0.9095869064331055
85 255 0.8969108462333679
86 87 0.48543062806129456
86 88 0.9566612839698792
86 89 0.9633896946907043
86 90 0.9616116285324097
86 91 0.9135964512825012
86 92 0.21539612114429474
86 93 0.908526599407196
86 94 0.9549272060394287
86 95 0.816345751285553
86 96 0.9396442174911499
86 97 0.45192408561706543
86 98 0.9539754390716553
86 99 0.9561149477958679
86 100 0.9309123158454895
86 101 0.9575261473655701
86 102 0.95168536901474
86 104 0.9588432908058167
86 105 0.887499988079071
86 106 0.9604296684265137
86 107 0.2859852612018585
86 109 0.9608827829360962
86 110 0.9258925318717957
86 111 0.08561450242996216
86 112 0.9520087242126465
86 113 0.796879231929779
86 114 0.3445917069911957
86 115 0.6782819628715515
86 116 0.8318361639976501
86 117 0.18588967621326447
86 118 0.43287840485572815
86 119 0.3233339786529541
86 120 0.5506952404975891
86 121 0.9591623544692993
86 122 0.27838945388793945
86 123 0.2407676875591278
86 124 0.08561450242996216
86 125 0.35192352533340454
86 126 0.9362382292747498
86 127 0.9575695395469666
86 128 0.9578010439872742
86 129 0.900669276714325
86 130 0.15288303792476654
86 131 0.948708713054657
86 132 0.9564337730407715
86 133 0.17133089900016785
86 134 0.5565571188926697
86 135 0.9412464499473572
86 136 0.14885251224040985
86 137 0.49892929196357727
86 138 0.9532381892204285
86 139 0.9663506746292114
86 140 0.684424638748169
86 141 0.9680166840553284
86 142 0.6884631514549255
86 143 0.9428606629371643
86 144 0.9418516755104065
86 145 0.2802635133266449
86 146 0.7392204403877258
86 147 0.9410085082054138
86 148 0.8432140350341797
86 149 0.9565674066543579
86 150 0.7600411772727966
86 151 0.9509532451629639
86 152 0.8619287610054016
86 153 0.9477402567863464
86 154 0.9388771653175354
86 155 0.28656795620918274
86 156 0.8141692876815796
86 157 0.9013506770133972
86 158 0.9500852227210999
86 159 0.4499957859516144
86 160 0.09756678342819214
86 161 0.952187180519104
86 162 0.4564889371395111
86 163 0.2310912013053894
86 164 0.07235746085643768
86 165 0.795726478099823
86 166 0.957255482673645
86 167 0.9647723436355591
86 168 0.21707238256931305
86 169 0.09707771986722946
86 170 0.06829674541950226
86 171 0.9607125520706177
86 172 0.9379104971885681
86 173 0.7840540409088135
86 174 0.9566138386726379
86 175 0.9567095637321472
86 176 0.6890371441841125
86 177 0.923539400100708
86 178 0.9353929758071899
86 179 0.22602953016757965
86 180 0.9629275798797607
86 181 0.9544742703437805
86 182 0.9570236206054688
86 183 0.3947790265083313
86 185 0.9544265866279602
86 186 0.9445214867591858
86 187 0.9505395293235779
86 188 0.8176462054252625
86 189 0.949767529964447
86 190 0.9166776537895203
86 191 0.5241343975067139
86 192 0.934230387210846
86 193 0.9581151604652405
86 194 0.8120294213294983
86 195 0.6604017019271851
86 196 0.9663506746292114
86 197 0.7481338977813721
86 198 0.9595833420753479
86 199 0.7330822944641113
86 200 0.9318159222602844
86 201 0.8073011040687561
86 202 0.30290281772613525
86 203 0.5228390693664551
86 204 0.962154746055603
86 205 0.9564773440361023
86 206 0.10378044843673706
86 207 0.9466368556022644
86 208 0.328542023897171
86 209 0.9561633467674255
86 210 0.9680166840553284
86 212 0.9563494920730591
86 213 0.9294676184654236
86 214 0.957207202911377
86 215 0.7024280428886414
86 216 0.9413514733314514
86 217 0.9637823104858398
86 218 0.8580426573753357
86 219 0.513702929019928
86 220 0.1640913039445877
86 221 0.5647501945495605
86 222 0.8798183798789978
86 223 0.9538789391517639
86 224 0.4999862313270569
86 225 0.9203293919563293
86 226 0.9599325060844421
86 227 0.5196602940559387
86 228 0.9549272060394287
86 229 0.11772403120994568
86 230 0.950684130191803
86 231 0.2320178598165512
86 232 0.20959101617336273
86 233 0.7291189432144165
86 234 0.30700522661209106
86 235 0.9581151604652405
86 236 0.09406469762325287
86 238 0.9090113043785095
86 239 0.9457259774208069
86 240 0.957255482673645
86 241 0.9610681533813477
86 242 0.9404529333114624
86 243 0.9323243498802185
86 244 0.1915137618780136
86 245 0.17733114957809448
86 246 0.9448011517524719
86 247 0.9292265772819519
86 248 0.9205313920974731
86 249 0.9517825245857239
86 250 0.33784037828445435
86 251 0.9022026658058167
86 252 0.9188680648803711
86 253 0.7092990279197693
86 254 0.9515921473503113
86 255 0.9340553283691406
87 88 0.46930012106895447
87 89 0.45940083265304565
87 90 0.4581884443759918
87 91 0.3591046631336212
87 92 0.06386904418468475
87 93 0.5113819241523743
87 94 0.4454447329044342
87 95 0.46770766377449036
87 96 0.47381719946861267
87 97 0.21811917424201965
87 98 0.47428882122039795
87 99 0.4461737275123596
87 100 0.5060608386993408
87 101 0.48406246304512024
87 102 0.49123433232307434
87 104 0.4662063717842102
87 105 0.47104373574256897
87 106 0.4490205645561218
87 109 0.49002522230148315
87 110 0.49484023451805115
87 111 0.12434118986129761
87 112 0.4678283929824829
87 113 0.4127110540866852
87 114 0.1278962641954422
87 115 0.39665311574935913
87 116 0.3882192373275757
87 117 0.0801742821931839
87 118 0.1146041601896286
87 119 0.11459723860025406
87 120 0.20324838161468506
87 121 0.4705270528793335
87 122 0.20377501845359802
87 123 0.08513850718736649
87 124 0.07460471242666245
87 125 0.2423659712076187
87 126 0.4959394633769989
87 127 0.48355481028556824
87 128 0.4195857346057892
87 129 0.3838743269443512
87 130 0.07460471242666245
87 131 0.49301040172576904
87 132 0.47816768288612366
87 133 0.204212486743927
87 134 0.22348856925964355
87 135 0.3857794404029846
87 136 0.07895419746637344
87 137 0.06291221082210541
87 138 0.4615764021873474
87 139 0.48699724674224854
87 140 0.27124840021133423
87 141 0.4752379357814789
87 142 0.1516486257314682
87 143 0.49112048745155334
87 144 0.39807042479515076
87 145 0.17245526611804962
87 146 0.40136343240737915
87 147 0.47670668363571167
87 148 0.31847265362739563
87 149 0.4468732476234436
87 150 0.342530757188797
87 151 0.487142413854599
87 152 0.41333407163619995
87 153 0.45328888297080994
87 154 0.4810403883457184
87 155 0.24223396182060242
87 156 0.34147852659225464
87 157 0.41426944732666016
87 158 0.47012412548065186
87 159 0.3034782409667969
87 161 0.48935648798942566
87 162 0.5151325464248657
87 163 0.3961661756038666
87 164 0.11769798398017883
87 165 0.11037036776542664
87 166 0.4261641502380371
87 167 0.4534986913204193
87 168 0.28443679213523865
87 169 0.131590336561203
87 171 0.440950870513916
87 172 0.391351580619812
87 173 0.21273033320903778
87 174 0.4230233430862427
87 175 0.43699222803115845
87 176 0.46800023317337036
87 177 0.4131177067756653
87 178 0.45584753155708313
87 180 0.48204129934310913
87 181 0.44048935174942017
87 182 0.47102051973342896
87 183 0.1153872013092041
87 185 0.4899453818798065
87 186 0.4774293005466461
87 187 0.4344843626022339
87 188 0.4895547330379486
87 189 0.48224595189094543
87 190 0.4743146002292633
87 191 0.4936736822128296
87 192 0.47871169447898865
87 193 0.4918178617954254
87 194 0.4260845482349396
87 195 0.4860166907310486
87 196 0.4701315462589264
87 197 0.2863996624946594
87 198 0.49311041831970215
87 199 0.5120232105255127
87 200 0.3606761395931244
87 201 0.3474263548851013
87 203 0.3209281861782074
87 204 0.48116686940193176
87 205 0.46487054228782654
87 207 0.4774293005466461
87 208 0.35291391611099243
87 209 0.4244849681854248
87 210 0.4647238254547119
87 212 0.4941518306732178
87 213 0.44082218408584595
87 214 0.441464364528656
87 215 0.4154845178127289
87 216 0.4986480474472046
87 217 0.45514047145843506
87 218 0.4749417304992676
87 219 0.5674833655357361
87 220 0.05560706928372383
87 221 0.29248929023742676
87 222 0.4609885513782501
87 223 0.4667578935623169
87 224 0.1815372258424759
87 225 0.37955227494239807
87 226 0.4699573516845703
87 227 0.1433972418308258
87 228 0.48380839824676514
87 230 0.4416458010673523
87 231 0.10951469838619232
87 233 0.2539847791194916
87 234 0.5350503921508789
87 235 0.48543062806129456
87 238 0.3273438513278961
87 239 0.43517565727233887
87 240 0.43464505672454834
87 241 0.4520869255065918
87 242 0.4986456334590912
87 243 0.3913080394268036
87 245 0.18609684705734253
87 246 0.49972963333129883
87 247 0.4432671368122101
87 248 0.5029754042625427
87 249 0.4390507936477661
87 250 0.5041627287864685
87 251 0.308720201253891
87 252 0.49212923645973206
87 253 0.38686197996139526
87 254 0.48157134652137756
87 255 0.3685641586780548
88 89 0.9598342776298523
88 90 0.9653186202049255
88 91 0.9188257455825806
88 92 0.23273733258247375
88 93 0.8995271325111389
88 94 0.9566190242767334
88 95 0.7892792224884033
88 96 0.9296964406967163
88 97 0.43481022119522095
88 98 0.9567043781280518
88 99 0.9609172344207764
88 100 0.9284848570823669
88 101 0.9560753703117371
88 102 0.957585334777832
88 104 0.9656984806060791
88 105 0.8963482975959778
88 106 0.96312016248703
88 107 0.2922825217247009
88 109 0.9594177603721619
88 110 0.9267146587371826
88 111 0.08539125323295593
88 112 0.9526843428611755
88 113 0.796051025390625
88 114 0.3709704279899597
88 115 0.6465790867805481
88 116 0.8236021995544434
88 117 0.1629316359758377
88 118 0.46098271012306213
88 119 0.33728402853012085
88 120 0.5546975135803223
88 121 0.9597944021224976
88 122 0.2813657522201538
88 123 0.2888638973236084
88 124 0.08539125323295593
88 125 0.36799004673957825
88 126 0.9380461573600769
88 127 0.9592523574829102
88 128 0.9636195302009583
88 129 0.898320734500885
88 130 0.14638501405715942
88 131 0.9494031071662903
88 132 0.9528926610946655
88 133 0.1767767071723938
88 134 0.58990877866745
88 135 0.9472495913505554
88 136 0.1484643667936325
88 137 0.5207738280296326
88 138 0.9549455046653748
88 139 0.9669333696365356
88 140 0.7014414668083191
88 141 0.9737445116043091
88 142 0.7024040222167969
88 143 0.9446285963058472
88 144 0.9467841982841492
88 145 0.28321075439453125
88 146 0.7508710026741028
88 147 0.9396176934242249
88 148 0.84571373462677
88 149 0.9561607241630554
88 150 0.7762944102287292
88 151 0.9505789875984192
88 152 0.8770601749420166
88 153 0.9463227987289429
88 154 0.9470580816268921
88 155 0.31151247024536133
88 156 0.8132601380348206
88 157 0.9144622683525085
88 158 0.9528489708900452
88 159 0.45770999789237976
88 160 0.10704360902309418
88 161 0.9528489708900452
88 162 0.45074567198753357
88 163 0.22596922516822815
88 164 0.07216878235340118
88 165 0.8170304894447327
88 166 0.9620397090911865
88 167 0.965360701084137
88 168 0.21650634706020355
88 169 0.08606629818677902
88 170 0.10704360902309418
88 171 0.9571624994277954
88 172 0.9418286085128784
88 173 0.8058972954750061
88 174 0.9624614119529724
88 175 0.9614989161491394
88 176 0.6695811748504639
88 177 0.9276333451271057
88 178 0.940443217754364
88 179 0.2500336170196533
88 180 0.9583333134651184
88 181 0.9592922329902649
88 182 0.9608009457588196
88 183 0.4208199083805084
88 185 0.9582074284553528
88 186 0.9483882188796997
88 187 0.9522604942321777
88 188 0.8228281736373901
88 189 0.9515151977539062
88 190 0.9099180102348328
88 191 0.5093141198158264
88 192 0.929649829864502
88 193 0.95561683177948
88 194 0.7900063991546631
88 195 0.6571513414382935
88 196 0.9669333696365356
88 197 0.7567861080169678
88 198 0.9549869298934937
88 199 0.706054151058197
88 200 0.9357810020446777
88 201 0.8286603093147278
88 202 0.3243739604949951
88 203 0.5214757323265076
88 204 0.9658570885658264
88 205 0.9539833068847656
88 206 0.1035098284482956
88 207 0.9462783336639404
88 208 0.33695945143699646
88 209 0.9651225209236145
88 210 0.9716814756393433
88 212 0.9507076740264893
88 213 0.9345373511314392
88 214 0.9588757753372192
88 215 0.6949350833892822
88 216 0.932487964630127
88 217 0.9664373397827148
88 218 0.8487808704376221
88 219 0.4881572723388672
88 220 0.16366341710090637
88 221 0.5526496767997742
88 222 0.8820242881774902
88 223 0.9545280337333679
88 224 0.5125347971916199
88 225 0.9276717305183411
88 226 0.9615830779075623
88 227 0.5553271174430847
88 228 0.9545280337333679
88 229 0.13307267427444458
88 230 0.9576243758201599
88 231 0.2520747482776642
88 232 0.2500336170196533
88 233 0.7502396106719971
88 234 0.296110063791275
88 235 0.9587500095367432
88 236 0.14433756470680237
88 238 0.9186567068099976
88 239 0.9485178589820862
88 240 0.9620397090911865
88 241 0.9637435078620911
88 242 0.9380006194114685
88 243 0.9352253079414368
88 244 0.1963203251361847
88 245 0.17116329073905945
88 246 0.9391539692878723
88 247 0.9246507287025452
88 248 0.9148558974266052
88 249 0.9545280337333679
88 250 0.30913710594177246
88 251 0.9185054898262024
88 252 0.9142873287200928
88 253 0.7116356492042542
88 254 0.9522604942321777
88 255 0.9422546029090881
89 90 0.9657930731773376
89 91 0.9235319495201111
89 92 0.23310182988643646
89 93 0.899829089641571
89 94 0.9570701718330383
89 95 0.8005061149597168
89 96 0.9300797581672668
89 97 0.4491715729236603
89 98 0.9561128616333008
89 99 0.9582468867301941
89 100 0.9245575070381165
89 101 0.9565250277519226
89 102 0.9506904482841492
89 104 0.9599231481552124
89 105 0.8977521657943726
89 106 0.9719126224517822
89 107 0.2927402853965759
89 109 0.9577937722206116
89 110 0.9216829538345337
89 111 0.07330713421106339
89 112 0.9457417130470276
89 113 0.794794499874115
89 114 0.34696346521377563
89 115 0.647591769695282
89 116 0.8321813941001892
89 117 0.1800682097673416
89 118 0.45945248007774353
89 119 0.3348489999771118
89 120 0.5555661916732788
89 121 0.9612976312637329
89 122 0.2780984044075012
89 123 0.2823448181152344
89 124 0.07330713421106339
89 125 0.3628961145877838
89 126 0.9363234043121338
89 127 0.9534287452697754
89 128 0.9640876650810242
89 129 0.9074934720993042
89 130 0.16494105756282806
89 131 0.9424282312393188
89 132 0.9543850421905518
89 133 0.14754463732242584
89 134 0.5751468539237976
89 135 0.9582628607749939
89 136 0.15516197681427002
89 137 0.527384877204895
89 138 0.9522415995597839
89 139 0.9643046259880066
89 140 0.6851575970649719
89 141 0.975269615650177
89 142 0.6949073076248169
89 143 0.9418749213218689
89 144 0.947209894657135
89 145 0.2836543321609497
89 146 0.741167426109314
89 147 0.936830997467041
89 148 0.8517440557479858
89 149 0.9555673599243164
89 150 0.7566375136375427
89 151 0.9478504061698914
89 152 0.8587067127227783
89 153 0.9467494487762451
89 154 0.9357664585113525
89 155 0.30235084891319275
89 156 0.8108867406845093
89 157 0.9059391617774963
89 158 0.9501417875289917
89 159 0.4673283100128174
89 160 0.10721126198768616
89 161 0.9501417875289917
89 162 0.4537316858768463
89 163 0.2217966765165329
89 164 0.07228181511163712
89 165 0.8195424675941467
89 166 0.9677130579948425
89 167 0.9658363461494446
89 168 0.2120266556739807
89 169 0.07542596012353897
89 170 0.10721126198768616
89 171 0.9597081542015076
89 172 0.944365918636322
89 173 0.8059002757072449
89 174 0.9608355760574341
89 175 0.9609203934669495
89 176 0.6838950514793396
89 177 0.9204031229019165
89 178 0.9376298189163208
89 179 0.25042521953582764
89 180 0.9598342776298523
89 181 0.968113124370575
89 182 0.9602115154266357
89 183 0.39190152287483215
89 185 0.9534287452697754
89 186 0.9467037916183472
89 187 0.9558550119400024
89 188 0.8106867671012878
89 189 0.9466591477394104
89 190 0.9080610275268555
89 191 0.5293612480163574
89 192 0.926810085773468
89 193 0.9560675024986267
89 194 0.7987200021743774
89 195 0.6627725958824158
89 196 0.9694834351539612
89 197 0.76460862159729
89 198 0.952287495136261
89 199 0.7183403372764587
89 200 0.9361791014671326
89 201 0.820063054561615
89 202 0.32488197088241577
89 203 0.5025833249092102
89 204 0.9632225036621094
89 205 0.9586203694343567
89 206 0.11231128126382828
89 207 0.9445906281471252
89 208 0.3251023292541504
89 209 0.965591311454773
89 210 0.9721702337265015
89 212 0.9574516415596008
89 213 0.9284959435462952
89 214 0.9572492837905884
89 215 0.7116166353225708
89 216 0.9318087697029114
89 217 0.9658804535865784
89 218 0.8524553775787354
89 219 0.4889218211174011
89 220 0.16938374936580658
89 221 0.5712561011314392
89 222 0.8912931680679321
89 223 0.9539288282394409
89 224 0.5113555192947388
89 225 0.9302088022232056
89 226 0.9651691913604736
89 227 0.5302409529685974
89 228 0.9581172466278076
89 229 0.12544101476669312
89 230 0.954931378364563
89 231 0.2524695098400116
89 232 0.25042521953582764
89 233 0.7324258089065552
89 234 0.26961255073547363
89 235 0.9560675024986267
89 236 0.13010726869106293
89 238 0.9222836494445801
89 239 0.946843683719635
89 240 0.9656297564506531
89 241 0.9673287272453308
89 242 0.9373394250869751
89 243 0.9388261437416077
89 244 0.19662779569625854
89 245 0.15428823232650757
89 246 0.9374362826347351
89 247 0.9325675964355469
89 248 0.9108216166496277
89 249 0.9549759030342102
89 250 0.28794777393341064
89 251 0.9166467785835266
89 252 0.9113431572914124
89 253 0.7043648362159729
89 254 0.9516488313674927
89 255 0.952251672744751
90 91 0.9427985548973083
90 92 0.2269650101661682
90 93 0.914195716381073
90 94 0.9626200795173645
90 95 0.8083521127700806
90 96 0.9457153677940369
90 97 0.42554962635040283
90 98 0.9709799289703369
90 99 0.9658217430114746
90 100 0.9403072595596313
90 101 0.9620854258537292
90 102 0.962563157081604
90 104 0.9674481749534607
90 105 0.9034656286239624
90 106 0.9700459837913513
90 107 0.2731148600578308
90 109 0.9684532880783081
90 110 0.931104838848114
90 112 0.9545996785163879
90 113 0.8064401745796204
90 114 0.37428760528564453
90 115 0.6771349906921387
90 116 0.8273664116859436
90 117 0.17876537144184113
90 118 0.4516563415527344
90 119 0.32654261589050293
90 120 0.5371270179748535
90 121 0.9657654762268066
90 122 0.23191246390342712
90 123 0.2768414616584778
90 124 0.0849061980843544
90 125 0.35182663798332214
90 126 0.9506749510765076
90 127 0.9621154069900513
90 128 0.9684817790985107
90 129 0.9251577854156494
90 130 0.1637476682662964
90 131 0.9513605237007141
90 132 0.965179979801178
90 133 0.15233618021011353
90 134 0.5675249695777893
90 135 0.9523807168006897
90 136 0.15403930842876434
90 137 0.5274047255516052
90 138 0.9589015245437622
90 139 0.972751796245575
90 140 0.6945809125900269
90 141 0.9753928184509277
90 142 0.7055262327194214
90 143 0.9560727477073669
90 144 0.9550496339797974
90 145 0.25965896248817444
90 146 0.7452555894851685
90 147 0.9437922239303589
90 148 0.867772102355957
90 149 0.9652601480484009
90 150 0.7705896496772766
90 151 0.9545996785163879
90 152 0.8743821978569031
90 153 0.9556168913841248
90 154 0.946962833404541
90 155 0.30654969811439514
90 156 0.8291582465171814
90 157 0.910365879535675
90 158 0.9641129970550537
90 159 0.4529007375240326
90 160 0.08708363026380539
90 161 0.9589015245437622
90 162 0.45044881105422974
90 163 0.21120449900627136
90 164 0.07175883650779724
90 165 0.8246241211891174
90 166 0.9689844846725464
90 167 0.9773667454719543
90 168 0.2104925960302353
90 169 0.07488022744655609
90 170 0.10643555223941803
90 171 0.9652323722839355
90 172 0.9522974491119385
90 173 0.7950689792633057
90 174 0.9683992862701416
90 175 0.9694879651069641
90 176 0.6877263784408569
90 177 0.9331392645835876
90 178 0.9382925629615784
90 179 0.240462064743042
90 180 0.9642828702926636
90 181 0.9642221927642822
90 182 0.9626200795173645
90 183 0.3964068293571472
90 185 0.9621154069900513
90 186 0.9513925313949585
90 187 0.9593784809112549
90 188 0.8193662762641907
90 189 0.953460693359375
90 190 0.9177829623222351
90 191 0.515976071357727
90 192 0.9382292628288269
90 193 0.9626500606536865
90 194 0.8189188241958618
90 195 0.6579772233963013
90 196 0.9737800359725952
90 197 0.7551229000091553
90 198 0.9610152244567871
90 199 0.7131429314613342
90 200 0.9484812021255493
90 201 0.8067618608474731
90 202 0.3003968298435211
90 203 0.49307698011398315
90 204 0.9758107662200928
90 205 0.9672858715057373
90 206 0.12007549405097961
90 207 0.9524415135383606
90 208 0.316602498292923
90 209 0.9720627665519714
90 210 0.9794954061508179
90 212 0.9567845463752747
90 213 0.9420017600059509
90 214 0.9679219126701355
90 215 0.71209716796875
90 216 0.9441842436790466
90 217 0.9753361344337463
90 218 0.8602566123008728
90 219 0.4813728928565979
90 220 0.17900711297988892
90 221 0.5600779056549072
90 222 0.8982681632041931
90 223 0.9605409502983093
90 224 0.5076557397842407
90 225 0.928860068321228
90 226 0.9674786925315857
90 227 0.5337668061256409
90 228 0.9626200795173645
90 229 0.10118340700864792
90 230 0.9605098962783813
90 231 0.23420724272727966
90 232 0.22008390724658966
90 233 0.7473244667053223
90 234 0.26766183972358704
90 235 0.9668039083480835
90 236 0.14351767301559448
90 238 0.9177829623222351
90 239 0.9629961848258972
90 240 0.9689844846725464
90 241 0.9716641902923584
90 242 0.9443044662475586
90 243 0.950059175491333
90 244 0.16882605850696564
90 245 0.1588449478149414
90 246 0.9517569541931152
90 247 0.9343826770782471
90 248 0.9237707853317261
90 249 0.9688573479652405
90 250 0.3073810636997223
90 251 0.9274728894233704
90 252 0.9242997169494629
90 253 0.7089806795120239
90 254 0.9572906494140625
90 255 0.9506491422653198
91 92 0.2382761389017105
91 93 0.8732395172119141
91 94 0.9156458973884583
91 95 0.7445102334022522
91 96 0.8966923952102661
91 97 0.3160571753978729
91 98 0.9344226717948914
91 99 0.9290960431098938
91 100 0.8839648365974426
91 101 0.9106670618057251
91 102 0.9088243246078491
91 104 0.9223430156707764
91 105 0.8634299635887146
91 106 0.9283722639083862
91 107 0.24629022181034088
91 109 0.9200425744056702
91 110 0.8795318007469177
91 112 0.902176022529602
91 113 0.7722729444503784
91 114 0.34738245606422424
91 115 0.6233879923820496
91 116 0.7647727131843567
91 117 0.1290261596441269
91 118 0.4694705903530121
91 119 0.28722453117370605
91 120 0.4692821800708771
91 121 0.9255887269973755
91 122 0.1275320053100586
91 123 0.28700530529022217
91 124 0.0764036774635315
91 125 0.34867626428604126
91 126 0.9049015641212463
91 127 0.9108027219772339
91 128 0.9277685284614563
91 129 0.9250137209892273
91 130 0.17827525734901428
91 131 0.8984548449516296
91 132 0.930207371711731
91 133 0.1414748579263687
91 134 0.5285983681678772
91 135 0.9214898943901062
91 136 0.09433439373970032
91 137 0.5355680584907532
91 138 0.9191516041755676
91 139 0.9229936003684998
91 140 0.6672977209091187
91 141 0.9292477369308472
91 142 0.6645278334617615
91 143 0.9055540561676025
91 144 0.9167048931121826
91 145 0.2649206519126892
91 146 0.6831796169281006
91 147 0.8920775651931763
91 148 0.8484859466552734
91 149 0.9338216185569763
91 150 0.7314929962158203
91 151 0.9032748937606812
91 152 0.8260415196418762
91 153 0.9042373299598694
91 154 0.8909680247306824
91 155 0.2916558086872101
91 156 0.7817853093147278
91 157 0.872728168964386
91 158 0.9322823882102966
91 159 0.4569167196750641
91 160 0.09142357856035233
91 161 0.9071151614189148
91 162 0.3921010196208954
91 163 0.2028595209121704
91 164 0.07533504068851471
91 165 0.849022626876831
91 166 0.9358498454093933
91 167 0.9429091811180115
91 168 0.19587109982967377
91 169 0.06738170981407166
91 170 0.11173993349075317
91 171 0.920619785785675
91 172 0.9156132340431213
91 173 0.7664471864700317
91 174 0.9328463673591614
91 175 0.9287323951721191
91 176 0.64365553855896
91 177 0.8925390839576721
91 178 0.8890054821968079
91 179 0.25244584679603577
91 180 0.9166510105133057
91 181 0.927283763885498
91 182 0.9145545363426208
91 183 0.3211129307746887
91 185 0.9118934869766235
91 186 0.9007980227470398
91 187 0.9184175133705139
91 188 0.7711265087127686
91 189 0.9039667844772339
91 190 0.8608983755111694
91 191 0.4855152368545532
91 192 0.8876078724861145
91 193 0.9146866202354431
91 194 0.797393798828125
91 195 0.5711203217506409
91 196 0.9240731596946716
91 197 0.7097444534301758
91 198 0.9083458781242371
91 199 0.6438095569610596
91 200 0.9189829230308533
91 201 0.7760651707649231
91 202 0.28549066185951233
91 203 0.41288769245147705
91 204 0.9347490668296814
91 205 0.9248621463775635
91 206 0.1080511137843132
91 207 0.9162150621414185
91 208 0.2968839108943939
91 209 0.9346495270729065
91 210 0.9314013123512268
91 212 0.906978189945221
91 213 0.8950815796852112
91 214 0.9194343090057373
91 215 0.6811006665229797
91 216 0.8875436782836914
91 217 0.9311519265174866
91 218 0.8346914052963257
91 219 0.3537540137767792
91 220 0.19362300634384155
91 221 0.5399156212806702
91 222 0.8819664716720581
91 223 0.9178285598754883
91 224 0.49783825874328613
91 225 0.873455286026001
91 226 0.9213876724243164
91 227 0.46954968571662903
91 228 0.9189199805259705
91 229 0.07354109734296799
91 230 0.9144231677055359
91 231 0.2286246120929718
91 232 0.21821589767932892
91 233 0.7209548354148865
91 234 0.13347555696964264
91 235 0.9168670177459717
91 236 0.15067008137702942
91 238 0.8905451893806458
91 239 0.9264650940895081
91 240 0.9282501339912415
91 241 0.9346303939819336
91 242 0.8903414607048035
91 243 0.927276611328125
91 244 0.17170101404190063
91 245 0.15484972298145294
91 246 0.8972763419151306
91 247 0.8820675611495972
91 248 0.8649641871452332
91 249 0.9407470226287842
91 250 0.2129819095134735
91 251 0.9267284274101257
91 252 0.873441219329834
91 253 0.6583753824234009
91 254 0.9074578881263733
91 255 0.9169850945472717
92 93 0.21841460466384888
92 94 0.22011414170265198
92 95 0.16072453558444977
92 96 0.12425652146339417
92 98 0.19724002480506897
92 99 0.23285864293575287
92 100 0.1385212242603302
92 101 0.20674628019332886
92 102 0.22057753801345825
92 104 0.2233211249113083
92 105 0.24940119683742523
92 106 0.2187412828207016
92 107 0.07565344870090485
92 108 0.1961161494255066
92 109 0.17437145113945007
92 110 0.07416632771492004
92 112 0.2035386562347412
92 113 0.1825636625289917
92 116 0.21889255940914154
92 118 0.44444963335990906
92 119 0.08898624777793884
92 121 0.22437095642089844
92 123 0.2841206192970276
92 125 0.30406516790390015
92 126 0.21909815073013306
92 127 0.1840806007385254
92 128 0.23225396871566772
92 129 0.20465056598186493
92 130 0.10482849180698395
92 131 0.17242828011512756
92 132 0.22945985198020935
92 134 0.11215286701917648
92 135 0.236207515001297
92 138 0.19817407429218292
92 139 0.22217175364494324
92 140 0.10564102232456207
92 141 0.23046784102916718
92 142 0.09834662079811096
92 143 0.14528055489063263
92 144 0.23582826554775238
92 145 0.11062441766262054
92 147 0.15071164071559906
92 148 0.1968291699886322
92 149 0.23322372138500214
92 150 0.07835057377815247
92 151 0.2216309905052185
92 153 0.21733923256397247
92 154 0.1415776014328003
92 156 0.18775483965873718
92 157 0.13761551678180695
92 158 0.22519780695438385
92 159 0.3914181590080261
92 160 0.3344968259334564
92 161 0.18015825748443604
92 162 0.1369393765926361
92 165 0.2590599060058594
92 166 0.23237453401088715
92 167 0.2222858965396881
92 168 0.08268982917070389
92 171 0.21101921796798706
92 172 0.2324143946170807
92 173 0.23228655755519867
92 174 0.22849977016448975
92 175 0.2324952632188797
92 176 0.2149832844734192
92 177 0.1350313127040863
92 178 0.23444870114326477
92 180 0.21483445167541504
92 181 0.22873865067958832
92 182 0.2335905134677887
92 184 0.0980580747127533
92 185 0.21101921796798706
92 186 0.19037491083145142
92 187 0.22555498778820038
92 188 0.08904063701629639
92 189 0.2132665514945984
92 190 0.14080318808555603
92 191 0.1486436277627945
92 192 0.15664377808570862
92 193 0.21988354623317719
92 195 0.3217562735080719
92 196 0.23105861246585846
92 197 0.2733456790447235
92 198 0.14397481083869934
92 199 0.29377683997154236
92 200 0.238131582736969
92 201 0.2547001540660858
92 204 0.23129621148109436
92 205 0.1707904040813446
92 207 0.16771121323108673
92 208 0.22580525279045105
92 209 0.23261621594429016
92 210 0.20830747485160828
92 212 0.23445317149162292
92 213 0.17018376290798187
92 214 0.19235572218894958
92 215 0.11554476618766785
92 216 0.1468631774187088
92 217 0.21317549049854279
92 218 0.2615741789340973
92 221 0.3805391192436218
92 222 0.24169541895389557
92 223 0.21112988889217377
92 224 0.11903798580169678
92 225 0.22789959609508514
92 226 0.23201341927051544
92 227 0.2942816913127899
92 228 0.20663776993751526
92 229 0.1345345675945282
92 230 0.23383602499961853
92 231 0.5859321355819702
92 232 0.211340993642807
92 233 0.08728013932704926
92 235 0.21988354623317719
92 236 0.21706077456474304
92 238 0.24405884742736816
92 239 0.23495042324066162
92 240 0.23237453401088715
92 241 0.22708196938037872
92 242 0.23304441571235657
92 243 0.23367957770824432
92 244 0.13678821921348572
92 245 0.12257259339094162
92 246 0.22342076897621155
92 247 0.14800229668617249
92 248 0.21108391880989075
92 249 0.22011414170265198
92 251 0.24518482387065887
92 252 0.17835070192813873
92 253 0.16787247359752655
92 254 0.21202169358730316
92 255 0.23761390149593353
93 94 0.8961699604988098
93 95 0.8518713116645813
93 96 0.8919740319252014
93 97 0.3308628797531128
93 98 0.9241787791252136
93 99 0.8999959826469421
93 100 0.8903756141662598
93 101 0.9010793566703796
93 102 0.9036139249801636
93 104 0.9009672403335571
93 105 0.8845918774604797
93 106 0.9027047753334045
93 107 0.16437605023384094
93 109 0.9250856637954712
93 110 0.8789722919464111
93 111 0.06470628827810287
93 112 0.8878276348114014
93 113 0.8445045351982117
93 114 0.34435662627220154
93 115 0.7018128037452698
93 116 0.802959144115448
93 117 0.16092824935913086
93 118 0.3745342195034027
93 119 0.3201490342617035
93 120 0.4057685136795044
93 121 0.9029868245124817
93 122 0.16495594382286072
93 123 0.2362959086894989
93 124 0.09058879315853119
93 125 0.3213198781013489
93 126 0.9354115724563599
93 127 0.8979172706604004
93 128 0.9009672403335571
93 129 0.8918944001197815
93 130 0.18117758631706238
93 131 0.8906748294830322
93 132 0.9286882281303406
93 133 0.1625317484140396
93 134 0.3765966296195984
93 135 0.8815360069274902
93 136 0.1575009971857071
93 137 0.4910861849784851
93 138 0.8929699659347534
93 139 0.9073012471199036
93 140 0.5830347537994385
93 141 0.9126414656639099
93 142 0.561523973941803
93 143 0.905724287033081
93 144 0.8845996856689453
93 145 0.2731354832649231
93 146 0.7000636458396912
93 147 0.8908141851425171
93 148 0.8336392045021057
93 149 0.9080513119697571
93 150 0.6729305982589722
93 151 0.8989953398704529
93 152 0.7755753397941589
93 153 0.8988352417945862
93 154 0.8795380592346191
93 155 0.34069421887397766
93 156 0.7970883250236511
93 157 0.8318689465522766
93 158 0.9252191781997681
93 159 0.471426784992218
93 160 0.051617760211229324
93 161 0.9074265360832214
93 162 0.46127599477767944
93 163 0.24451784789562225
93 164 0.07656151056289673
93 165 0.7192549109458923
93 166 0.9014348983764648
93 167 0.9176462888717651
93 168 0.229684516787529
93 169 0.1027180403470993
93 170 0.11355907469987869
93 171 0.8968086838722229
93 172 0.8810118436813354
93 173 0.6828930974006653
93 174 0.897146999835968
93 175 0.9019033312797546
93 176 0.7415604591369629
93 177 0.8599342703819275
93 178 0.8682928681373596
93 179 0.2478588968515396
93 180 0.9194183945655823
93 181 0.8958700895309448
93 182 0.8950608372688293
93 183 0.30545490980148315
93 185 0.9078941345214844
93 186 0.8919610381126404
93 187 0.8899310231208801
93 188 0.7668690085411072
93 189 0.8861934542655945
93 190 0.8482609391212463
93 191 0.5668207406997681
93 192 0.8975081443786621
93 193 0.9196062088012695
93 194 0.8314928412437439
93 195 0.6144651174545288
93 196 0.90949547290802
93 197 0.6763059496879578
93 198 0.8998056650161743
93 199 0.7386677265167236
93 200 0.872887134552002
93 201 0.7035409808158875
93 202 0.1990484893321991
93 203 0.3507184386253357
93 204 0.929100513458252
93 205 0.9132860898971558
93 206 0.11896105855703354
93 207 0.8986758589744568
93 208 0.32467392086982727
93 209 0.899058997631073
93 210 0.9126414656639099
93 212 0.9050455689430237
93 213 0.8664990067481995
93 214 0.9001635313034058
93 215 0.7552518248558044
93 216 0.9167240262031555
93 217 0.9101254940032959
93 218 0.8470383286476135
93 219 0.4879106879234314
93 220 0.19677521288394928
93 221 0.5862880349159241
93 222 0.8664872646331787
93 223 0.8961699604988098
93 224 0.32539910078048706
93 225 0.8520763516426086
93 226 0.912152111530304
93 227 0.4123898446559906
93 228 0.917243242263794
93 230 0.8948912620544434
93 231 0.18412376940250397
93 232 0.1043616309762001
93 233 0.6177600026130676
93 234 0.3284122943878174
93 235 0.9007708430290222
93 236 0.06890536099672318
93 238 0.8424667716026306
93 239 0.9091962575912476
93 240 0.9036416411399841
93 241 0.9058720469474792
93 242 0.8834000825881958
93 243 0.88128262758255
93 244 0.06754697114229202
93 245 0.17552883923053741
93 246 0.8927457928657532
93 247 0.8644532561302185
93 248 0.88136225938797
93 249 0.9094794392585754
93 250 0.3377920687198639
93 251 0.8428610563278198
93 252 0.8656432628631592
93 253 0.6409682035446167
93 254 0.9044104814529419
93 255 0.8732460141181946
94 95 0.8034358024597168
94 96 0.93095463514328
94 97 0.4592525362968445
94 98 0.9539288282394409
94 99 0.9539795517921448
94 100 0.9221814274787903
94 101 0.9564306139945984
94 102 0.9505804181098938
94 104 0.9629787802696228
94 105 0.8873104453086853
94 106 0.9593513607978821
94 107 0.2968883812427521
94 109 0.9566685557365417
94 110 0.921449601650238
94 111 0.08570428937673569
94 112 0.9508939981460571
94 113 0.7964606881141663
94 114 0.3695926368236542
94 115 0.6834998726844788
94 116 0.848534882068634
94 117 0.17480678856372833
94 118 0.4446171224117279
94 119 0.35039839148521423
94 120 0.5421758890151978
94 121 0.9549272060394287
94 122 0.28239715099334717
94 123 0.2759506404399872
94 124 0.07346081733703613
94 125 0.3125176429748535
94 126 0.9340213537216187
94 127 0.9533299803733826
94 128 0.9608922004699707
94 129 0.9093958735466003
94 130 0.15304337441921234
94 131 0.9433440566062927
94 132 0.9490290284156799
94 133 0.17151057720184326
94 134 0.5658734440803528
94 135 0.9539053440093994
94 136 0.16196587681770325
94 137 0.5342980623245239
94 138 0.9531857967376709
94 139 0.9621744155883789
94 140 0.689497172832489
94 141 0.9679965376853943
94 142 0.7107221484184265
94 143 0.9427889585494995
94 144 0.9407207369804382
94 145 0.24733349680900574
94 146 0.7508979439735413
94 147 0.9345277547836304
94 148 0.8629609942436218
94 149 0.9544275999069214
94 150 0.7634528279304504
94 151 0.9445547461509705
94 152 0.8605069518089294
94 153 0.9466188549995422
94 154 0.94092857837677
94 155 0.29009175300598145
94 156 0.8357338309288025
94 157 0.8967535495758057
94 158 0.9510816335678101
94 159 0.41924718022346497
94 160 0.10743601620197296
94 161 0.9489774703979492
94 162 0.44782835245132446
94 163 0.20865380764007568
94 164 0.05794667825102806
94 165 0.8138507008552551
94 166 0.9593032002449036
94 167 0.9626687169075012
94 168 0.18832670152187347
94 169 0.06478635221719742
94 170 0.10743601620197296
94 171 0.9596225619316101
94 172 0.9399586319923401
94 173 0.7974948883056641
94 174 0.9576170444488525
94 175 0.9639793038368225
94 176 0.6868058443069458
94 177 0.9179820418357849
94 178 0.9310048818588257
94 179 0.23860837519168854
94 180 0.9608009457588196
94 181 0.9544275999069214
94 182 0.961175262928009
94 183 0.41248273849487305
94 185 0.9512324333190918
94 186 0.9412768483161926
94 187 0.9525901079177856
94 188 0.8050455451011658
94 189 0.9497036337852478
94 190 0.9154463410377502
94 191 0.4938203692436218
94 192 0.9255244731903076
94 193 0.9528307318687439
94 194 0.8053890466690063
94 195 0.6457557082176208
94 196 0.9673641324043274
94 197 0.7781835794448853
94 198 0.9521819353103638
94 199 0.7002395391464233
94 200 0.9424206018447876
94 201 0.7907949090003967
94 202 0.32875484228134155
94 203 0.5154871940612793
94 204 0.9610857963562012
94 205 0.9522311091423035
94 206 0.12120416760444641
94 207 0.9433944225311279
94 208 0.28234604001045227
94 209 0.9634358286857605
94 210 0.9700671434402466
94 212 0.9478737115859985
94 213 0.9358144998550415
94 214 0.961345911026001
94 215 0.7017441391944885
94 216 0.9305460453033447
94 217 0.9699801802635193
94 218 0.8460172414779663
94 219 0.48994681239128113
94 220 0.16426339745521545
94 221 0.5795649290084839
94 222 0.8818701505661011
94 223 0.9517313838005066
94 224 0.49057984352111816
94 225 0.9278131127357483
94 226 0.9588547348976135
94 227 0.5517891645431519
94 228 0.9517313838005066
94 229 0.1178474947810173
94 230 0.9527316093444824
94 231 0.2447037547826767
94 232 0.23860837519168854
94 233 0.732602059841156
94 234 0.2769322097301483
94 235 0.9538789391517639
94 236 0.10865002125501633
94 238 0.9132537245750427
94 239 0.9488286375999451
94 240 0.960347056388855
94 241 0.961035966873169
94 242 0.9371696710586548
94 243 0.9365131258964539
94 244 0.19704000651836395
94 245 0.13170626759529114
94 246 0.9383364319801331
94 247 0.9399245381355286
94 248 0.9160181879997253
94 249 0.9517313838005066
94 250 0.29475685954093933
94 251 0.9196698665618896
94 252 0.9088683128356934
94 253 0.7044410109519958
94 254 0.9462676048278809
94 255 0.9382370710372925
95 96 0.8102830648422241
95 97 0.3842232823371887
95 98 0.8117456436157227
95 99 0.7859480977058411
95 100 0.8065418004989624
95 101 0.8176309466362
95 102 0.8126517534255981
95 104 0.7988386750221252
95 105 0.7843277454376221
95 106 0.7971810698509216
95 107 0.21919280290603638
95 109 0.8233348727226257
95 110 0.7799882292747498
95 111 0.10221429169178009
95 112 0.7913312315940857
95 113 0.7883340716362
95 114 0.33630695939064026
95 115 0.7291728854179382
95 116 0.8072736859321594
95 117 0.13450413942337036
95 118 0.24225430190563202
95 119 0.3718591034412384
95 120 0.3471786379814148
95 121 0.8013439178466797
95 122 0.2348722368478775
95 123 0.15830585360527039
95 124 0.08761224895715714
95 125 0.16264179348945618
95 126 0.8291046023368835
95 127 0.8017638325691223
95 128 0.7926172018051147
95 129 0.807469367980957
95 130 0.18982653319835663
95 131 0.791340708732605
95 132 0.8147308230400085
95 133 0.11990875750780106
95 134 0.20829716324806213
95 135 0.7858619689941406
95 136 0.18544018268585205
95 137 0.45483076572418213
95 138 0.7879852056503296
95 139 0.8033926486968994
95 140 0.4154886305332184
95 141 0.805042564868927
95 142 0.45378443598747253
95 143 0.8006182909011841
95 144 0.7820732593536377
95 145 0.12767775356769562
95 146 0.6550032496452332
95 147 0.7952014207839966
95 148 0.7789308428764343
95 149 0.7959266901016235
95 150 0.5254220962524414
95 151 0.8001518249511719
95 152 0.658757209777832
95 153 0.8161414861679077
95 154 0.7862952351570129
95 155 0.31137728691101074
95 156 0.7962207198143005
95 157 0.7099176049232483
95 158 0.8168445229530334
95 159 0.3563905358314514
95 161 0.8093160390853882
95 162 0.4141981899738312
95 163 0.23261940479278564
95 165 0.5862076282501221
95 166 0.7942736148834229
95 167 0.8062824010848999
95 168 0.19005104899406433
95 169 0.07726673781871796
95 171 0.7930081486701965
95 172 0.7922124862670898
95 173 0.5718781352043152
95 174 0.7913508415222168
95 175 0.7996686697006226
95 176 0.7627425193786621
95 177 0.7549597024917603
95 178 0.7581648230552673
95 179 0.157006174325943
95 180 0.8216983079910278
95 181 0.7859307527542114
95 182 0.7896698117256165
95 183 0.34465473890304565
95 185 0.8130210638046265
95 186 0.7766042351722717
95 187 0.7854647040367126
95 188 0.6361947059631348
95 189 0.7799636125564575
95 190 0.7871400117874146
95 191 0.5130301713943481
95 192 0.8060429096221924
95 193 0.8000938296318054
95 194 0.7714092135429382
95 195 0.6000245213508606
95 196 0.8120578527450562
95 197 0.6694955229759216
95 198 0.7971827983856201
95 199 0.7599711418151855
95 200 0.7858843803405762
95 201 0.5366101264953613
95 202 0.2474328577518463
95 203 0.31799495220184326
95 204 0.8166103959083557
95 205 0.811370313167572
95 206 0.12390242516994476
95 207 0.7816553115844727
95 208 0.21462354063987732
95 209 0.7876222729682922
95 210 0.8087467551231384
95 212 0.8076589107513428
95 213 0.7803652882575989
95 214 0.8063158392906189
95 215 0.7301939129829407
95 216 0.83363276720047
95 217 0.8128784894943237
95 218 0.7539423108100891
95 219 0.4394546151161194
95 220 0.1371348649263382
95 221 0.5979194045066833
95 222 0.7285509705543518
95 223 0.793424129486084
95 224 0.13028202950954437
95 225 0.748927116394043
95 226 0.8141704797744751
95 227 0.4342920482158661
95 228 0.8121960759162903
95 230 0.7867413759231567
95 231 0.13850189745426178
95 233 0.43929654359817505
95 234 0.2980577349662781
95 235 0.8000938296318054
95 238 0.7269931435585022
95 239 0.809371829032898
95 240 0.7980085015296936
95 241 0.8000856041908264
95 242 0.7930870056152344
95 243 0.7786543369293213
95 244 0.08891801536083221
95 245 0.13658960163593292
95 246 0.828207790851593
95 247 0.775674045085907
95 248 0.8245865702629089
95 249 0.8059387803077698
95 250 0.2849312722682953
95 251 0.7461100220680237
95 252 0.7583740949630737
95 253 0.5311446785926819
95 254 0.8055726289749146
95 255 0.7663537859916687
96 97 0.42602044343948364
96 98 0.9429528713226318
96 99 0.9291093945503235
96 100 0.9381266832351685
96 101 0.9368213415145874
96 102 0.9383008480072021
96 104 0.9352476596832275
96 105 0.8654167056083679
96 106 0.9401044249534607
96 107 0.24622169137001038
96 109 0.9501288533210754
96 110 0.9251488447189331
96 112 0.9297930598258972
96 113 0.7876887321472168
96 114 0.3618118464946747
96 115 0.7063879370689392
96 116 0.7994632124900818
96 117 0.18486304581165314
96 118 0.3375796973705292
96 119 0.28900623321533203
96 120 0.5200338959693909
96 121 0.9364225268363953
96 122 0.22840283811092377
96 123 0.2397632747888565
96 124 0.07525914907455444
96 125 0.2590450942516327
96 126 0.9241161346435547
96 127 0.9326154589653015
96 128 0.9320410490036011
96 129 0.9043232798576355
96 130 0.1756046861410141
96 131 0.9219159483909607
96 132 0.9324234127998352
96 133 0.15147341787815094
96 134 0.515312135219574
96 135 0.9131211638450623
96 136 0.1460191309452057
96 137 0.5017629861831665
96 138 0.9301729202270508
96 139 0.9410676956176758
96 140 0.6825823783874512
96 141 0.9407827258110046
96 142 0.6766374111175537
96 143 0.9506580233573914
96 144 0.915996253490448
96 145 0.18909570574760437
96 146 0.7413569688796997
96 147 0.9213384389877319
96 148 0.83577561378479
96 149 0.9337860941886902
96 150 0.7580351829528809
96 151 0.9211337566375732
96 152 0.8577460050582886
96 153 0.9394523501396179
96 154 0.9224313497543335
96 155 0.30379751324653625
96 156 0.8137574195861816
96 157 0.8812311887741089
96 158 0.9366399645805359
96 159 0.374679297208786
96 161 0.9377177953720093
96 162 0.4424058198928833
96 163 0.22770264744758606
96 164 0.05936521664261818
96 165 0.7616568803787231
96 166 0.9314554333686829
96 167 0.9436789155006409
96 168 0.21272537112236023
96 169 0.08849644660949707
96 170 0.07004203647375107
96 171 0.9336898326873779
96 172 0.9171651601791382
96 173 0.7472091913223267
96 174 0.933883011341095
96 175 0.9330093860626221
96 176 0.6869741082191467
96 177 0.9081401228904724
96 178 0.9009906649589539
96 179 0.19808842241764069
96 180 0.9339807629585266
96 181 0.9273461103439331
96 182 0.9288045763969421
96 183 0.38968491554260254
96 185 0.9358387589454651
96 186 0.925269365310669
96 187 0.9240913987159729
96 188 0.800938069820404
96 189 0.9208300709724426
96 190 0.9176393151283264
96 191 0.4960280954837799
96 192 0.9514890313148499
96 193 0.9353486895561218
96 194 0.8494104743003845
96 195 0.625421404838562
96 196 0.9400043487548828
96 197 0.7086520791053772
96 198 0.9356534481048584
96 199 0.7001643776893616
96 200 0.9096000790596008
96 201 0.7504714727401733
96 202 0.2681342661380768
96 203 0.507872462272644
96 204 0.9409709572792053
96 205 0.9400479793548584
96 206 0.10643250495195389
96 207 0.9306929707527161
96 208 0.25111398100852966
96 209 0.9313536882400513
96 210 0.9439646601676941
96 212 0.9246818423271179
96 213 0.9268025755882263
96 214 0.9367063045501709
96 215 0.6898167729377747
96 216 0.9357531070709229
96 217 0.9490874409675598
96 218 0.8414483666419983
96 219 0.5123113989830017
96 220 0.17389406263828278
96 221 0.5245423316955566
96 222 0.8606569766998291
96 223 0.9320296049118042
96 224 0.472067654132843
96 225 0.8893095254898071
96 226 0.9332112073898315
96 227 0.4796459674835205
96 228 0.9298796653747559
96 229 0.08048827201128006
96 230 0.9254761934280396
96 231 0.12322253733873367
96 232 0.1390833556652069
96 233 0.7045851349830627
96 234 0.29063135385513306
96 235 0.942865788936615
96 236 0.0964684709906578
96 238 0.8772047758102417
96 239 0.9233992099761963
96 240 0.9335942268371582
96 241 0.9366128444671631
96 242 0.91090327501297
96 243 0.9068069458007812
96 244 0.1145712211728096
96 245 0.15839660167694092
96 246 0.946030855178833
96 247 0.9142337441444397
96 248 0.92048180103302
96 249 0.9320296049118042
96 250 0.34647372364997864
96 251 0.8767383694648743
96 252 0.9052843451499939
96 253 0.6843819618225098
96 254 0.9230117797851562
96 255 0.9065291285514832
97 98 0.39217010140419006
97 99 0.4236484169960022
97 100 0.4203893542289734
97 101 0.4594936966896057
97 102 0.4396125376224518
97 104 0.4498095214366913
97 105 0.3586048185825348
97 106 0.44276461005210876
97 107 0.24627044796943665
97 109 0.42980971932411194
97 110 0.419672429561615
97 111 0.10663823783397675
97 112 0.4601167142391205
97 113 0.21848873794078827
97 114 0.21460530161857605
97 115 0.33363813161849976
97 116 0.43739041686058044
97 117 0.18417736887931824
97 118 0.18183189630508423
97 119 0.20690856873989105
97 120 0.38427671790122986
97 121 0.4268171787261963
97 122 0.4773612916469574
97 124 0.07997867465019226
97 125 0.08042177557945251
97 126 0.37611109018325806
97 127 0.45672813057899475
97 128 0.4384506642818451
97 129 0.3510073125362396
97 131 0.45236045122146606
97 132 0.40276604890823364
97 133 0.10302232950925827
97 134 0.3688879609107971
97 135 0.45515596866607666
97 136 0.14106912910938263
97 137 0.14331836998462677
97 138 0.42380833625793457
97 139 0.4542746841907501
97 140 0.2749834656715393
97 141 0.44860461354255676
97 142 0.3876723051071167
97 143 0.4064188599586487
97 144 0.4221310019493103
97 146 0.38873088359832764
97 147 0.4134818911552429
97 148 0.3491140902042389
97 149 0.39693763852119446
97 150 0.3131197690963745
97 151 0.43250972032546997
97 152 0.4532357156276703
97 153 0.43757668137550354
97 154 0.45297175645828247
97 155 0.07018451392650604
97 156 0.3819924592971802
97 157 0.4103192985057831
97 158 0.3779912292957306
97 159 0.1456739753484726
97 161 0.4604620337486267
97 162 0.35820895433425903
97 163 0.1382753998041153
97 165 0.2689104974269867
97 166 0.44777005910873413
97 167 0.41832831501960754
97 168 0.09463204443454742
97 171 0.44530993700027466
97 172 0.4009983539581299
97 173 0.3901643753051758
97 174 0.4215905964374542
97 175 0.4502768814563751
97 176 0.3248260021209717
97 177 0.39787757396698
97 178 0.4325666129589081
97 179 0.08957898616790771
97 180 0.43253371119499207
97 181 0.44028139114379883
97 182 0.4592525362968445
97 183 0.3495836555957794
97 185 0.44530993700027466
97 186 0.4357384145259857
97 187 0.4382475018501282
97 188 0.3596472144126892
97 189 0.45466840267181396
97 190 0.47028496861457825
97 191 0.176411435008049
97 192 0.3960268199443817
97 193 0.41084006428718567
97 194 0.27460965514183044
97 195 0.5210257172584534
97 196 0.4497545659542084
97 197 0.5126817226409912
97 198 0.45311179757118225
97 199 0.3720359802246094
97 200 0.42159539461135864
97 201 0.3994416296482086
97 202 0.29189905524253845
97 203 0.5246692895889282
97 204 0.40496909618377686
97 205 0.4069148004055023
97 207 0.3896285593509674
97 208 0.10809577256441116
97 209 0.44823578000068665
97 210 0.4531131684780121
97 212 0.46094855666160583
97 213 0.44684138894081116
97 214 0.45051109790802
97 215 0.32168710231781006
97 216 0.43885841965675354
97 217 0.44726496934890747
97 218 0.3402881324291229
97 219 0.3967569172382355
97 221 0.26710501313209534
97 222 0.2901242673397064
97 223 0.4341193437576294
97 224 0.2940830886363983
97 225 0.4565710723400116
97 226 0.4470742642879486
97 227 0.4166797697544098
97 228 0.39984676241874695
97 229 0.10264286398887634
97 230 0.44372454285621643
97 231 0.09031025320291519
97 232 0.18811587989330292
97 233 0.3077947199344635
97 234 0.19855087995529175
97 235 0.44507673382759094
97 238 0.42731475830078125
97 239 0.386087566614151
97 240 0.45231595635414124
97 241 0.4348278045654297
97 242 0.45554181933403015
97 243 0.38686755299568176
97 244 0.1971287876367569
97 246 0.4360024631023407
97 247 0.46343448758125305
97 248 0.43661370873451233
97 249 0.41584062576293945
97 250 0.10809577256441116
97 251 0.3837195336818695
97 252 0.38434457778930664
97 253 0.34764018654823303
97 254 0.39006319642066956
97 255 0.4369482696056366
98 99 0.9603345394134521
98 100 0.9363970756530762
98 101 0.9523343443870544
98 102 0.9538384675979614
98 104 0.9599231481552124
98 105 0.8966341614723206
98 106 0.9604661464691162
98 107 0.25394338369369507
98 109 0.9671736359596252
98 110 0.9346492290496826
98 112 0.9457417130470276
98 113 0.8248339891433716
98 114 0.3688194453716278
98 115 0.6895653009414673
98 116 0.8176029920578003
98 117 0.1800682097673416
98 118 0.41891252994537354
98 119 0.3229959309101105
98 120 0.528332531452179
98 121 0.9550215005874634
98 122 0.17056702077388763
98 123 0.285830557346344
98 124 0.06108928471803665
98 125 0.3146989941596985
98 126 0.949091374874115
98 127 0.955521821975708
98 128 0.9588820338249207
98 129 0.9230251312255859
98 130 0.17104998230934143
98 131 0.944543719291687
98 132 0.9606777429580688
98 133 0.1770535707473755
98 134 0.543775200843811
98 135 0.9413212537765503
98 136 0.1486968994140625
98 137 0.5331803560256958
98 138 0.9574909806251526
98 139 0.9643046259880066
98 140 0.6967459321022034
98 141 0.9670045971870422
98 142 0.6906089782714844
98 143 0.9577491879463196
98 144 0.9429813027381897
98 145 0.25418373942375183
98 146 0.7330077886581421
98 147 0.9464122653007507
98 148 0.8588026762008667
98 149 0.9587038159370422
98 150 0.7788147926330566
98 151 0.9478504061698914
98 152 0.8610275983810425
98 153 0.9509713053703308
98 154 0.9389601349830627
98 155 0.3120003342628479
98 156 0.8279068470001221
98 157 0.9070452451705933
98 158 0.9711394309997559
98 159 0.43172234296798706
98 160 0.06822534650564194
98 161 0.9553912281990051
98 162 0.42865103483200073
98 163 0.21274375915527344
98 164 0.07228181511163712
98 165 0.8183100819587708
98 166 0.9583380222320557
98 167 0.9813808798789978
98 168 0.19275149703025818
98 169 0.09697623550891876
98 170 0.10721126198768616
98 171 0.955521821975708
98 172 0.943303644657135
98 173 0.7857527732849121
98 174 0.9597912430763245
98 175 0.9577937722206116
98 176 0.688316822052002
98 177 0.9334276914596558
98 178 0.9290571808815002
98 179 0.24631986021995544
98 180 0.9608775973320007
98 181 0.954521894454956
98 182 0.9528816342353821
98 183 0.3894367218017578
98 185 0.9565684199333191
98 186 0.9467037916183472
98 187 0.9505972862243652
98 188 0.8167913556098938
98 189 0.9424282312393188
98 190 0.9157193303108215
98 191 0.5158866047859192
98 192 0.9343276619911194
98 193 0.9581595659255981
98 194 0.8323634266853333
98 195 0.6260368824005127
98 196 0.9643046259880066
98 197 0.7314224243164062
98 198 0.952287495136261
98 199 0.709955096244812
98 200 0.940449059009552
98 201 0.7916144132614136
98 202 0.28984567523002625
98 203 0.4769614338874817
98 204 0.9787750840187073
98 205 0.9649064540863037
98 206 0.10367194563150406
98 207 0.956213116645813
98 208 0.2910439968109131
98 209 0.9582920074462891
98 210 0.9680377244949341
98 212 0.9490437507629395
98 213 0.9381454586982727
98 214 0.9582920074462891
98 215 0.7158692479133606
98 216 0.9435766935348511
98 217 0.9731271862983704
98 218 0.8618358373641968
98 219 0.4909421503543854
98 220 0.19123969972133636
98 221 0.5464189052581787
98 222 0.9014343023300171
98 223 0.9528816342353821
98 224 0.4915355145931244
98 225 0.9182831048965454
98 226 0.9610089659690857
98 227 0.4950151741504669
98 228 0.9623057842254639
98 229 0.08624070137739182
98 230 0.9517866969108582
98 231 0.19452568888664246
98 232 0.18884524703025818
98 233 0.7378512024879456
98 234 0.27972301840782166
98 235 0.9581595659255981
98 236 0.12287908792495728
98 238 0.9080610275268555
98 239 0.9615887403488159
98 240 0.9583380222320557
98 241 0.9631770849227905
98 242 0.9352090954780579
98 243 0.9409622550010681
98 244 0.1434851437807083
98 245 0.17714574933052063
98 246 0.9438134431838989
98 247 0.9304113388061523
98 248 0.9184755682945251
98 249 0.9654471278190613
98 250 0.3312947750091553
98 251 0.9122503995895386
98 252 0.9244717359542847
98 253 0.7085575461387634
98 254 0.9516488313674927
98 255 0.9352090954780579
99 100 0.9300441145896912
99 101 0.9544805288314819
99 102 0.9538915157318115
99 104 0.9610016942024231
99 105 0.8889977335929871
99 106 0.9625826478004456
99 107 0.2853882312774658
99 109 0.9588767886161804
99 110 0.9250389337539673
99 111 0.07323065400123596
99 112 0.951074481010437
99 113 0.7952156066894531
99 114 0.3602471649646759
99 115 0.6469160914421082
99 116 0.8131091594696045
99 117 0.17425908148288727
99 118 0.45897310972213745
99 119 0.325619101524353
99 120 0.5604276061058044
99 121 0.9550700187683105
99 122 0.25187948346138
99 123 0.2959786355495453
99 124 0.08543576300144196
99 125 0.365349680185318
99 126 0.9374722242355347
99 127 0.9555704593658447
99 128 0.9672420024871826
99 129 0.9010053873062134
99 130 0.15256386995315552
99 131 0.9435582756996155
99 132 0.9554847478866577
99 133 0.17686884105205536
99 134 0.588475227355957
99 135 0.950916588306427
99 136 0.12916673719882965
99 137 0.5268346071243286
99 138 0.9543944597244263
99 139 0.9664025902748108
99 140 0.7061482071876526
99 141 0.968059778213501
99 142 0.6999076008796692
99 143 0.9440638422966003
99 144 0.9472777247428894
99 145 0.2796784043312073
99 146 0.7227333784103394
99 147 0.9390439987182617
99 148 0.8438041806221008
99 149 0.9608367085456848
99 150 0.7766990065574646
99 151 0.9500212669372559
99 152 0.8647661209106445
99 153 0.946816086769104
99 154 0.9411709904670715
99 155 0.30524855852127075
99 156 0.8161129951477051
99 157 0.9116238951683044
99 158 0.9543944597244263
99 159 0.4557255208492279
99 160 0.10709939897060394
99 161 0.9522969126701355
99 162 0.4190930724143982
99 163 0.21704351902008057
99 164 0.07220640033483505
99 165 0.833460807800293
99 166 0.9635816812515259
99 167 0.9700047373771667
99 168 0.21661920845508575
99 169 0.09687504917383194
99 170 0.10709939897060394
99 171 0.9587069153785706
99 172 0.9401971101760864
99 173 0.8038015961647034
99 174 0.9587898850440979
99 175 0.9620001316070557
99 176 0.6596235632896423
99 177 0.9205271005630493
99 178 0.9312992691993713
99 179 0.24196183681488037
99 180 0.9588328003883362
99 181 0.9597923159599304
99 182 0.9581636786460876
99 183 0.393954873085022
99 185 0.9597523808479309
99 186 0.9499380588531494
99 187 0.9527568221092224
99 188 0.81593918800354
99 189 0.9446148872375488
99 190 0.9136710166931152
99 191 0.5057336688041687
99 192 0.9279887676239014
99 193 0.9550700187683105
99 194 0.7941523194313049
99 195 0.6406742930412292
99 196 0.9653679132461548
99 197 0.7478981018066406
99 198 0.9523416757583618
99 199 0.6938573122024536
99 200 0.940534234046936
99 201 0.8266210556030273
99 202 0.3213611841201782
99 203 0.5059966444969177
99 204 0.9673963189125061
99 205 0.9544805288314819
99 206 0.08630315959453583
99 207 0.9457160830497742
99 208 0.3309491276741028
99 209 0.9614588618278503
99 210 0.9690918922424316
99 212 0.9501533508300781
99 213 0.9307402968406677
99 214 0.9593755602836609
99 215 0.69246506690979
99 216 0.9319053292274475
99 217 0.9659067988395691
99 218 0.859765350818634
99 219 0.4763023555278778
99 220 0.18558189272880554
99 221 0.5600266456604004
99 222 0.8971170783042908
99 223 0.9581636786460876
99 224 0.5266613960266113
99 225 0.9194910526275635
99 226 0.9620842933654785
99 227 0.5370959639549255
99 228 0.9560716152191162
99 229 0.13314202427864075
99 230 0.9612650275230408
99 231 0.25220611691474915
99 232 0.2501639425754547
99 233 0.7614700794219971
99 234 0.27943119406700134
99 235 0.9582048654556274
99 236 0.1444128006696701
99 238 0.9333433508872986
99 239 0.9532206058502197
99 240 0.9604598879814148
99 241 0.9642459154129028
99 242 0.9363614916801453
99 243 0.9410474300384521
99 244 0.19642265141010284
99 245 0.18266935646533966
99 246 0.9396434426307678
99 247 0.9262096285820007
99 248 0.9120559096336365
99 249 0.9550256133079529
99 250 0.30929824709892273
99 251 0.9123966097831726
99 252 0.9213213920593262
99 253 0.7273635268211365
99 254 0.9496054649353027
99 255 0.9427458047866821
100 101 0.9259031414985657
100 102 0.9403356313705444
100 104 0.9319185614585876
100 105 0.8498650193214417
100 106 0.9292919039726257
100 107 0.20344410836696625
100 109 0.9554306864738464
100 110 0.9282207489013672
100 111 0.08809387683868408
100 112 0.92093425989151
100 113 0.7722548246383667
100 114 0.32080236077308655
100 115 0.6917485594749451
100 116 0.7720853090286255
100 117 0.1680884063243866
100 118 0.31782180070877075
100 119 0.30827948451042175
100 120 0.5217606425285339
100 121 0.9309123158454895
100 122 0.25971606373786926
100 123 0.23337851464748383
100 124 0.07550903409719467
100 125 0.32999205589294434
100 126 0.9348564147949219
100 127 0.9400241374969482
100 128 0.9287014007568359
100 129 0.8833287954330444
100 130 0.12584839761257172
100 131 0.9206191301345825
100 132 0.9365997314453125
100 133 0.18237166106700897
100 134 0.5331801772117615
100 135 0.9096091985702515
100 136 0.10654833912849426
100 137 0.4775610864162445
100 138 0.9246101379394531
100 139 0.9399248957633972
100 140 0.6923090815544128
100 141 0.9375216364860535
100 142 0.6611741185188293
100 143 0.9385535717010498
100 144 0.9114153385162354
100 145 0.23525726795196533
100 146 0.7214060425758362
100 147 0.9243977069854736
100 148 0.8167386651039124
100 149 0.9282715916633606
100 150 0.7592083811759949
100 151 0.9252783060073853
100 152 0.8582035899162292
100 153 0.9273514151573181
100 154 0.9189149141311646
100 155 0.30811935663223267
100 156 0.8177117109298706
100 157 0.8841572403907776
100 158 0.9289358258247375
100 159 0.4240598976612091
100 161 0.9289358258247375
100 162 0.4603146016597748
100 163 0.23778356611728668
100 164 0.059562332928180695
100 165 0.75276118516922
100 166 0.9281105399131775
100 167 0.9361380934715271
100 168 0.2134317010641098
100 169 0.09988907724618912
100 170 0.07027460634708405
100 171 0.9238539934158325
100 172 0.9059861898422241
100 173 0.7341257333755493
100 174 0.9251505136489868
100 175 0.9285928010940552
100 176 0.672555148601532
100 177 0.896621823310852
100 178 0.8962559700012207
100 179 0.16914567351341248
100 180 0.9306342005729675
100 181 0.9239640831947327
100 182 0.9254171848297119
100 183 0.38844001293182373
100 185 0.941102147102356
100 186 0.9294298887252808
100 187 0.918494701385498
100 188 0.8337795734405518
100 189 0.9173506498336792
100 190 0.9116709232330322
100 191 0.5155200362205505
100 192 0.9358429908752441
100 193 0.9319897890090942
100 194 0.8214274048805237
100 195 0.6353812217712402
100 196 0.9356573820114136
100 197 0.680924117565155
100 198 0.93984055519104
100 199 0.7053682208061218
100 200 0.9005253911018372
100 201 0.7657038569450378
100 202 0.24605906009674072
100 203 0.4933178722858429
100 204 0.9419593214988708
100 205 0.929140567779541
100 206 0.06229177862405777
100 207 0.9228999614715576
100 208 0.3252996802330017
100 209 0.9290758371353149
100 210 0.942842423915863
100 212 0.9245044589042664
100 213 0.9088969230651855
100 214 0.9290758371353149
100 215 0.6994079351425171
100 216 0.9421660304069519
100 217 0.9373101592063904
100 218 0.8551123142242432
100 219 0.5306607484817505
100 220 0.15758712589740753
100 221 0.5189744830131531
100 222 0.870478630065918
100 223 0.9351243376731873
100 224 0.47975972294807434
100 225 0.8844454288482666
100 226 0.9298821091651917
100 227 0.47169020771980286
100 228 0.9264957308769226
100 229 0.0969066321849823
100 230 0.9274694919586182
100 231 0.17052647471427917
100 232 0.14800244569778442
100 233 0.7097187042236328
100 234 0.3193674385547638
100 235 0.9395319223403931
100 236 0.1265699565410614
100 238 0.8744828701019287
100 239 0.9221258759498596
100 240 0.9281105399131775
100 241 0.9333082437515259
100 242 0.9106363654136658
100 243 0.8999166488647461
100 244 0.08210831135511398
100 245 0.18246661126613617
100 246 0.9535512328147888
100 247 0.8995015621185303
100 248 0.9190331697463989
100 249 0.9264957308769226
100 250 0.34762418270111084
100 251 0.8683284521102905
100 252 0.9319553375244141
100 253 0.719763457775116
100 254 0.9195778369903564
100 255 0.9029563069343567
101 102 0.9521316289901733
101 104 0.9582651853561401
101 105 0.8877763748168945
101 106 0.9598551392555237
101 107 0.2899717688560486
101 109 0.9603056311607361
101 110 0.9230167865753174
101 111 0.08574929088354111
101 112 0.9556217789649963
101 113 0.8044084310531616
101 114 0.3725258708000183
101 115 0.6808528304100037
101 116 0.842890202999115
101 117 0.18618234992027283
101 118 0.41097867488861084
101 119 0.3505823612213135
101 120 0.5497419238090515
101 121 0.9627699851989746
101 122 0.2788277566432953
101 123 0.24464161694049835
101 124 0.08574929088354111
101 125 0.33542224764823914
101 126 0.9387789964675903
101 127 0.962225079536438
101 128 0.9572213292121887
101 129 0.9065365195274353
101 130 0.15924867987632751
101 131 0.947020947933197
101 132 0.9516304135322571
101 133 0.15384884178638458
101 134 0.5434539318084717
101 135 0.9395433664321899
101 136 0.16205093264579773
101 137 0.5171467661857605
101 138 0.9484230875968933
101 139 0.9657951593399048
101 140 0.672431230545044
101 141 0.9674689769744873
101 142 0.682364284992218
101 143 0.9432840347290039
101 144 0.9401547312736511
101 145 0.22899597883224487
101 146 0.7512922286987305
101 147 0.9350184202194214
101 148 0.8563368916511536
101 149 0.9517841339111328
101 150 0.7455422282218933
101 151 0.9471648931503296
101 152 0.8574684858322144
101 153 0.9545235633850098
101 154 0.9414226412773132
101 155 0.32571834325790405
101 156 0.8325158357620239
101 157 0.9005516171455383
101 158 0.9494757652282715
101 159 0.42169857025146484
101 160 0.08794834464788437
101 161 0.9589495062828064
101 162 0.4594936966896057
101 163 0.22237837314605713
101 164 0.07247138023376465
101 165 0.792036771774292
101 166 0.956673800945282
101 167 0.9621351957321167
101 168 0.21741412580013275
101 169 0.08642716705799103
101 170 0.07817630469799042
101 171 0.9548798203468323
101 172 0.9372570514678955
101 173 0.7815008759498596
101 174 0.9528842568397522
101 175 0.9582157731056213
101 176 0.703421950340271
101 177 0.9162876009941101
101 178 0.9261217713356018
101 179 0.23461757600307465
101 180 0.9613054990768433
101 181 0.9517841339111328
101 182 0.9532809853553772
101 183 0.41764187812805176
101 185 0.9569784998893738
101 186 0.9428304433822632
101 187 0.9457101225852966
101 188 0.8128129243850708
101 189 0.9448999166488647
101 190 0.9192178249359131
101 191 0.5210996270179749
101 192 0.932470977306366
101 193 0.9564773440361023
101 194 0.8158065676689148
101 195 0.6737186908721924
101 196 0.967872142791748
101 197 0.7732685208320618
101 198 0.9589911103248596
101 199 0.7300328016281128
101 200 0.9332830309867859
101 201 0.7936904430389404
101 202 0.3225405216217041
101 203 0.5295904874801636
101 204 0.9615904092788696
101 205 0.9548319578170776
101 206 0.12126781046390533
101 207 0.9438897967338562
101 208 0.2980159521102905
101 209 0.9576687812805176
101 210 0.9695407152175903
101 212 0.9494251608848572
101 213 0.937380850315094
101 214 0.9608051776885986
101 215 0.7177467346191406
101 216 0.9417608380317688
101 217 0.9632237553596497
101 218 0.8476371765136719
101 219 0.5124861001968384
101 220 0.14791467785835266
101 221 0.5709755420684814
101 222 0.8755548000335693
101 223 0.9553806781768799
101 224 0.4789142608642578
101 225 0.9228653311729431
101 226 0.9583154320716858
101 227 0.5483612418174744
101 228 0.9553806781768799
101 229 0.11790937185287476
101 230 0.9511299729347229
101 231 0.2282334566116333
101 232 0.22638538479804993
101 233 0.7125882506370544
101 234 0.3041095733642578
101 235 0.9585748910903931
101 236 0.0869656503200531
101 238 0.9060547947883606
101 239 0.9451029300689697
101 240 0.9608513116836548
101 241 0.9594593644142151
101 242 0.940865695476532
101 243 0.9295088052749634
101 244 0.1758306473493576
101 245 0.13750477135181427
101 246 0.9441573619842529
101 247 0.9339323043823242
101 248 0.9285584688186646
101 249 0.950131356716156
101 250 0.31974631547927856
101 251 0.9047250747680664
101 252 0.9071516990661621
101 253 0.6992060542106628
101 254 0.9488730430603027
101 255 0.9355259537696838
102 104 0.958733081817627
102 105 0.892546534538269
102 106 0.9551013112068176
102 107 0.27626243233680725
102 109 0.9576359391212463
102 110 0.9396654963493347
102 111 0.08588472008705139
102 112 0.9423081874847412
102 113 0.7943667769432068
102 114 0.3484228253364563
102 115 0.6849387884140015
102 116 0.8149420619010925
102 117 0.16952399909496307
102 118 0.41615116596221924
102 119 0.32137876749038696
102 120 0.5542565584182739
102 121 0.9495845437049866
102 122 0.26065024733543396
102 123 0.290533185005188
102 124 0.07361546903848648
102 125 0.3331049680709839
102 126 0.9402616620063782
102 127 0.9563879370689392
102 128 0.9545510411262512
102 129 0.8945993781089783
102 130 0.15336556732654572
102 131 0.9421435594558716
102 132 0.9510270357131958
102 133 0.16594505310058594
102 134 0.5705651640892029
102 135 0.9367740154266357
102 136 0.14932233095169067
102 137 0.5063238739967346
102 138 0.9457038640975952
102 139 0.9694007039070129
102 140 0.7084042429924011
102 141 0.963809609413147
102 142 0.706463098526001
102 143 0.9468992352485657
102 144 0.938454806804657
102 145 0.2441548854112625
102 146 0.741553544998169
102 147 0.9397023916244507
102 148 0.8458754420280457
102 149 0.9543371796607971
102 150 0.7834005951881409
102 151 0.941249430179596
102 152 0.866979718208313
102 153 0.9433122873306274
102 154 0.9461166858673096
102 155 0.3036225736141205
102 156 0.8326098918914795
102 157 0.9030846953392029
102 158 0.9488667249679565
102 159 0.4402424395084381
102 160 0.08808724582195282
102 161 0.9520296454429626
102 162 0.45106080174446106
102 163 0.23182058334350586
102 165 0.7908124923706055
102 166 0.9550464749336243
102 167 0.9605327844619751
102 168 0.2129184603691101
102 169 0.08656366169452667
102 170 0.0978747233748436
102 171 0.9500820636749268
102 172 0.9355369806289673
102 173 0.7713544964790344
102 174 0.9512428641319275
102 175 0.9618223309516907
102 176 0.6808511018753052
102 177 0.9199146628379822
102 178 0.92866051197052
102 179 0.21437512338161469
102 180 0.952346920967102
102 181 0.9522374272346497
102 182 0.9526834487915039
102 183 0.41087597608566284
102 185 0.9542859792709351
102 186 0.9411364197731018
102 187 0.9450918436050415
102 188 0.8128706216812134
102 189 0.9432057738304138
102 190 0.9184722900390625
102 191 0.5180564522743225
102 192 0.9436498284339905
102 193 0.95168536901474
102 194 0.8033307194709778
102 195 0.6670973300933838
102 196 0.9610795974731445
102 197 0.7331658601760864
102 198 0.9531333446502686
102 199 0.7129411697387695
102 200 0.9283251166343689
102 201 0.796186089515686
102 202 0.2910647690296173
102 203 0.5027180314064026
102 204 0.9620679020881653
102 205 0.9510795474052429
102 206 0.10410800576210022
102 207 0.9421975016593933
102 208 0.3202512860298157
102 209 0.9549926519393921
102 210 0.9648471474647522
102 212 0.9456475973129272
102 213 0.9324012398719788
102 214 0.952898383140564
102 215 0.6932569146156311
102 216 0.9368023872375488
102 217 0.9616262912750244
102 218 0.8501534461975098
102 219 0.5173531770706177
102 220 0.18107013404369354
102 221 0.532683253288269
102 222 0.8848583698272705
102 223 0.9484773874282837
102 224 0.49758362770080566
102 225 0.913435697555542
102 226 0.9556512236595154
102 227 0.543641984462738
102 228 0.9505804181098938
102 229 0.12596863508224487
102 230 0.9505268931388855
102 231 0.23690642416477203
102 232 0.2102525234222412
102 233 0.7382305860519409
102 234 0.31135857105255127
102 235 0.9579879641532898
102 236 0.13791309297084808
102 238 0.9030911326408386
102 239 0.9455379247665405
102 240 0.9540004730224609
102 241 0.9588900804519653
102 242 0.9305856227874756
102 243 0.9320493936538696
102 244 0.16009850800037384
102 245 0.17215242981910706
102 246 0.9499177932739258
102 247 0.919167697429657
102 248 0.9289268851280212
102 249 0.9505804181098938
102 250 0.3389067053794861
102 251 0.8995316028594971
102 252 0.925064206123352
102 253 0.7031172513961792
102 254 0.9440358877182007
102 255 0.9305856227874756
104 105 0.891144871711731
104 106 0.9642303586006165
104 107 0.29518967866897583
104 109 0.9626173377037048
104 110 0.9301729202270508
104 111 0.08521391451358795
104 112 0.9591097831726074
104 113 0.791903555393219
104 114 0.3783661723136902
104 115 0.6840699315071106
104 116 0.8182604908943176
104 117 0.18501989543437958
104 118 0.41963285207748413
104 119 0.3483934700489044
104 120 0.5716351270675659
104 121 0.9661388397216797
104 122 0.2807813584804535
104 123 0.29868313670158386
104 124 0.08521391451358795
104 125 0.3361528217792511
104 126 0.9424588680267334
104 127 0.9645595550537109
104 128 0.9657676219940186
104 129 0.9008764624595642
104 130 0.1704278290271759
104 131 0.9463774561882019
104 132 0.9550934433937073
104 133 0.1764095574617386
104 134 0.5938932299613953
104 135 0.9473923444747925
104 136 0.16103914380073547
104 137 0.5235418081283569
104 138 0.9613307118415833
104 139 0.9680211544036865
104 140 0.7158606052398682
104 141 0.9717221856117249
104 142 0.7223590612411499
104 143 0.9489933848381042
104 144 0.9469245076179504
104 145 0.22022537887096405
104 146 0.734406590461731
104 147 0.94190913438797
104 148 0.8498181700706482
104 149 0.9593833684921265
104 150 0.7967788577079773
104 151 0.9496552348136902
104 152 0.8879567980766296
104 153 0.9559252858161926
104 154 0.942969799041748
104 155 0.2563839256763458
104 156 0.8430649042129517
104 157 0.9136651754379272
104 158 0.9550543427467346
104 159 0.39689284563064575
104 160 0.09711026400327682
104 161 0.9540082812309265
104 162 0.4520812928676605
104 163 0.1894199401140213
104 164 0.07201889902353287
104 165 0.8202452659606934
104 166 0.9652311205863953
104 167 0.9674859046936035
104 168 0.19205039739608765
104 169 0.06441566348075867
104 170 0.0679771825671196
104 171 0.9656022787094116
104 172 0.9419893622398376
104 173 0.8117514252662659
104 174 0.963584303855896
104 175 0.9626173377037048
104 176 0.663784921169281
104 177 0.9311139583587646
104 178 0.9352869987487793
104 179 0.18406793475151062
104 180 0.9625800251960754
104 181 0.9593833684921265
104 182 0.9608922004699707
104 183 0.4174900949001312
104 185 0.9572601318359375
104 186 0.9474713206291199
104 187 0.9544737339019775
104 188 0.8259851336479187
104 189 0.9463774561882019
104 190 0.9363700747489929
104 191 0.47373324632644653
104 192 0.9362794160842896
104 193 0.9578010439872742
104 194 0.8032639026641846
104 195 0.6451109647750854
104 196 0.9690532088279724
104 197 0.7565369606018066
104 198 0.9561384320259094
104 199 0.6990179419517517
104 200 0.9487278461456299
104 201 0.8096857666969299
104 202 0.3237002491950989
104 203 0.5243202447891235
104 204 0.9669504165649414
104 205 0.9561774730682373
104 206 0.12051066756248474
104 207 0.9495768547058105
104 208 0.28998538851737976
104 209 0.9641570448875427
104 210 0.9706928133964539
104 212 0.9529218673706055
104 213 0.9635762572288513
104 214 0.9662349820137024
104 215 0.6878421306610107
104 216 0.9380127787590027
104 217 0.9726819396018982
104 218 0.8551962375640869
104 219 0.4992213845252991
104 220 0.19054409861564636
104 221 0.5585724711418152
104 222 0.8846832513809204
104 223 0.9619354605674744
104 224 0.5252938270568848
104 225 0.9268252849578857
104 226 0.9637311697006226
104 227 0.5467847585678101
104 228 0.956718921661377
104 229 0.1327963024377823
104 230 0.9587688446044922
104 231 0.23093225061893463
104 232 0.2536047101020813
104 233 0.7621955871582031
104 234 0.30221086740493774
104 235 0.965096652507782
104 236 0.14403779804706573
104 238 0.9265594482421875
104 239 0.9517947435379028
104 240 0.9621174335479736
104 241 0.9658784866333008
104 242 0.9392364621162415
104 243 0.9364755153656006
104 244 0.18532273173332214
104 245 0.1821950078010559
104 246 0.9583832025527954
104 247 0.9409915804862976
104 248 0.9205819964408875
104 249 0.9577622413635254
104 250 0.3270047903060913
104 251 0.9144077301025391
104 252 0.9167488217353821
104 253 0.7310446500778198
104 254 0.9523782730102539
104 255 0.9413589835166931
105 106 0.902929961681366
105 107 0.267926424741745
105 109 0.8920707702636719
105 110 0.8497138023376465
105 111 0.06536087393760681
105 112 0.8753760457038879
105 113 0.8209078907966614
105 114 0.3566093444824219
105 115 0.6110761761665344
105 116 0.8097823262214661
105 117 0.1264326423406601
105 118 0.47471120953559875
105 119 0.33289915323257446
105 120 0.41181591153144836
105 121 0.887499988079071
105 122 0.2261335253715515
105 123 0.2946285009384155
105 124 0.07843304425477982
105 125 0.33670392632484436
105 126 0.8845390677452087
105 127 0.8846057653427124
105 128 0.891144871711731
105 129 0.8759905099868774
105 130 0.18301044404506683
105 131 0.8804466128349304
105 132 0.8943209052085876
105 133 0.050515685230493546
105 134 0.4382132589817047
105 135 0.8802578449249268
105 136 0.15217719972133636
105 137 0.502254843711853
105 138 0.882907509803772
105 139 0.9020732045173645
105 140 0.5703349709510803
105 141 0.9019774198532104
105 142 0.5978642106056213
105 143 0.8775215148925781
105 144 0.8980728387832642
105 145 0.2640743851661682
105 146 0.6693148612976074
105 147 0.8667943477630615
105 148 0.8219333291053772
105 149 0.8948657512664795
105 150 0.6727592945098877
105 151 0.8821444511413574
105 152 0.7635563611984253
105 153 0.8898599743843079
105 154 0.8667943477630615
105 155 0.337257981300354
105 156 0.7674306631088257
105 157 0.8213483095169067
105 158 0.897510290145874
105 159 0.4785768687725067
105 160 0.11470787227153778
105 161 0.8941404819488525
105 162 0.4391079843044281
105 163 0.23730553686618805
105 164 0.07733602076768875
105 165 0.7212569713592529
105 166 0.8916074633598328
105 167 0.9058629870414734
105 168 0.23200806975364685
105 169 0.10375718027353287
105 170 0.11470787227153778
105 171 0.8846057653427124
105 172 0.8978803157806396
105 173 0.7180941700935364
105 174 0.8916963338851929
105 175 0.8987613320350647
105 176 0.7112149596214294
105 177 0.8465694189071655
105 178 0.8759302496910095
105 179 0.27232825756073
105 180 0.8963482975959778
105 181 0.89039146900177
105 182 0.8850696682929993
105 183 0.35073918104171753
105 185 0.8913243412971497
105 186 0.8806359171867371
105 187 0.8865580558776855
105 188 0.719762921333313
105 189 0.8781832456588745
105 190 0.8310900926589966
105 191 0.5478402376174927
105 192 0.8675205111503601
105 193 0.8930957913398743
105 194 0.7652462720870972
105 195 0.6305074095726013
105 196 0.9076142311096191
105 197 0.7456393241882324
105 198 0.8842219114303589
105 199 0.7326828837394714
105 200 0.8691542148590088
105 201 0.725215494632721
105 202 0.27944228053092957
105 203 0.3690275251865387
105 204 0.9018914699554443
105 205 0.8978647589683533
105 206 0.12016449868679047
105 207 0.8772445321083069
105 208 0.31470757722854614
105 209 0.8925347924232483
105 210 0.9008721113204956
105 212 0.8950852155685425
105 213 0.859204888343811
105 214 0.8903034925460815
105 215 0.6976747512817383
105 216 0.8664776086807251
105 217 0.9005028605461121
105 218 0.7953885197639465
105 219 0.41070547699928284
105 220 0.2046119123697281
105 221 0.5827284455299377
105 222 0.8439077734947205
105 223 0.8850696682929993
105 224 0.3880673944950104
105 225 0.8548963665962219
105 226 0.9058007597923279
105 227 0.5058249831199646
105 228 0.9085968732833862
105 229 0.08388270437717438
105 230 0.8893645405769348
105 231 0.2524101436138153
105 232 0.23279672861099243
105 233 0.6196559071540833
105 234 0.277647465467453
105 235 0.885261595249176
105 236 0.11600403487682343
105 238 0.8334311842918396
105 239 0.8845880627632141
105 240 0.9038671255111694
105 241 0.9083731174468994
105 242 0.8729629516601562
105 243 0.8833414912223816
105 244 0.18763330578804016
105 245 0.18341849744319916
105 246 0.8665246963500977
105 247 0.852435290813446
105 248 0.8505024313926697
105 249 0.8996341228485107
105 250 0.3113948702812195
105 251 0.8584433794021606
105 252 0.8392838835716248
105 253 0.6130611896514893
105 254 0.9056843519210815
105 255 0.8752422332763672
106 107 0.2950366735458374
106 109 0.9621184468269348
106 110 0.9296908378601074
106 111 0.0730026438832283
106 112 0.9512630105018616
106 113 0.8027111887931824
106 114 0.37817007303237915
106 115 0.6523659825325012
106 116 0.8299345970153809
106 117 0.18492402136325836
106 118 0.4553011655807495
106 119 0.3334581255912781
106 120 0.5695309042930603
106 121 0.9635547399520874
106 122 0.2658655345439911
106 123 0.2881145775318146
106 124 0.0730026438832283
106 125 0.33597859740257263
106 126 0.9409108757972717
106 127 0.9588484764099121
106 128 0.9704511761665344
106 129 0.9103527665138245
106 130 0.17033949494361877
106 131 0.9511536359786987
106 132 0.9556428790092468
106 133 0.12929996848106384
106 134 0.5831716656684875
106 135 0.95217365026474
106 136 0.15451745688915253
106 137 0.5367369651794434
106 138 0.95665043592453
106 139 0.9695824384689331
106 140 0.702506959438324
106 141 0.9732763171195984
106 142 0.717704176902771
106 143 0.9474475979804993
106 144 0.9527503252029419
106 145 0.27513906359672546
106 146 0.7516317367553711
106 147 0.9424811005592346
106 148 0.857578694820404
106 149 0.9588861465454102
106 150 0.7781780958175659
106 151 0.9523130059242249
106 152 0.872473955154419
106 153 0.9533277153968811
106 154 0.9477818608283997
106 155 0.3042981028556824
106 156 0.8172038793563843
106 157 0.9264103174209595
106 158 0.9556049108505249
106 159 0.4454420208930969
106 160 0.10676592588424683
106 161 0.95665043592453
106 162 0.44276461005210876
106 163 0.2163677215576172
106 164 0.07198157161474228
106 165 0.8247292637825012
106 166 0.9699175953865051
106 167 0.970080554485321
106 168 0.21114595234394073
106 169 0.053651899099349976
106 170 0.10676592588424683
106 171 0.9640596508979797
106 172 0.9520797729492188
106 173 0.8063147068023682
106 174 0.9714052677154541
106 175 0.9641941785812378
106 176 0.669312059879303
106 177 0.93171226978302
106 178 0.9412050247192383
106 179 0.25347328186035156
106 180 0.9610422849655151
106 181 0.9651328921318054
106 182 0.9593513607978821
106 183 0.4123646318912506
106 185 0.9598907232284546
106 186 0.9511890411376953
106 187 0.9581676721572876
106 188 0.8133986592292786
106 189 0.9501003623008728
106 190 0.9173632264137268
106 191 0.4984081983566284
106 192 0.9347245693206787
106 193 0.9583463072776794
106 194 0.8078110218048096
106 195 0.6432523131370544
106 196 0.9706138968467712
106 197 0.7614325881004333
106 198 0.959820568561554
106 199 0.7083978056907654
106 200 0.9429209232330322
106 201 0.8178884983062744
106 202 0.32670438289642334
106 203 0.5181602835655212
106 204 0.9674817323684692
106 205 0.9619418382644653
106 206 0.11184477061033249
106 207 0.9480324387550354
106 208 0.30833518505096436
106 209 0.9678109884262085
106 210 0.9732763171195984
106 212 0.9534747004508972
106 213 0.9363840818405151
106 214 0.9657341837882996
106 215 0.6973673105239868
106 216 0.9353958368301392
106 217 0.9721778631210327
106 218 0.8500822186470032
106 219 0.47683125734329224
106 220 0.1795627474784851
106 221 0.5512161254882812
106 222 0.8887131810188293
106 223 0.9583086371421814
106 224 0.5171265602111816
106 225 0.9349822402000427
106 226 0.964267373085022
106 227 0.5446550846099854
106 228 0.9593513607978821
106 229 0.1327274739742279
106 230 0.9572281241416931
106 231 0.24317751824855804
106 232 0.2493850141763687
106 233 0.752345621585846
106 234 0.2651365101337433
106 235 0.9614713191986084
106 236 0.14396314322948456
106 238 0.9249897599220276
106 239 0.9533991813659668
106 240 0.9688801765441895
106 241 0.9674450755119324
106 242 0.9398103952407837
106 243 0.9423719048500061
106 244 0.19581106305122375
106 245 0.15364736318588257
106 246 0.9420099258422852
106 247 0.9308412075042725
106 248 0.9146605134010315
106 249 0.9572658538818359
106 250 0.30216848850250244
106 251 0.9161228537559509
106 252 0.9140946865081787
106 253 0.7000473737716675
106 254 0.9581676721572876
106 255 0.9535999894142151
107 108 0.15430334210395813
107 109 0.23217566311359406
107 110 0.24435633420944214
107 112 0.29893428087234497
107 113 0.2239098995923996
107 114 0.19364917278289795
107 115 0.16191379725933075
107 116 0.32394465804100037
107 118 0.15203960239887238
107 119 0.2800559997558594
107 120 0.3493056297302246
107 121 0.278923898935318
107 122 0.22528177499771118
107 123 0.18824832141399384
107 125 0.07655590027570724
107 126 0.2082991600036621
107 127 0.28966763615608215
107 128 0.29518967866897583
107 129 0.21344274282455444
107 131 0.28204214572906494
107 132 0.20885774493217468
107 134 0.25884145498275757
107 135 0.28591859340667725
107 136 0.2182179093360901
107 137 0.2934228181838989
107 138 0.29767027497291565
107 139 0.29017433524131775
107 140 0.26891088485717773
107 141 0.28594523668289185
107 142 0.38689354062080383
107 143 0.25361669063568115
107 144 0.29616424441337585
107 146 0.3259075880050659
107 147 0.26231175661087036
107 148 0.23825286328792572
107 149 0.27172034978866577
107 150 0.31703606247901917
107 151 0.2811405658721924
107 152 0.30942586064338684
107 153 0.2850026786327362
107 154 0.2946515381336212
107 156 0.27082863450050354
107 157 0.2800223231315613
107 158 0.2764081060886383
107 160 0.16448792815208435
107 161 0.25868964195251465
107 162 0.06156761199235916
107 165 0.30782070755958557
107 166 0.29182687401771545
107 167 0.2833276391029358
107 171 0.29673272371292114
107 172 0.29401445388793945
107 173 0.35702359676361084
107 174 0.296112596988678
107 175 0.29197850823402405
107 176 0.10944867134094238
107 177 0.2930815815925598
107 178 0.2893540859222412
107 179 0.05542739853262901
107 180 0.2887610197067261
107 181 0.2858356535434723
107 182 0.2862851917743683
107 183 0.4159739315509796
107 185 0.26847246289253235
107 186 0.26747530698776245
107 187 0.2803958058357239
107 188 0.15247654914855957
107 189 0.28204214572906494
107 190 0.2843439280986786
107 192 0.24649332463741302
107 193 0.22243298590183258
107 194 0.16402778029441833
107 195 0.1498272866010666
107 196 0.2936704158782959
107 197 0.35396483540534973
107 198 0.29381683468818665
107 199 0.10849539935588837
107 200 0.3026599586009979
107 201 0.27137094736099243
107 202 0.49453791975975037
107 203 0.319319486618042
107 204 0.26247531175613403
107 205 0.27229058742523193
107 206 0.11664237082004547
107 207 0.2639089524745941
107 209 0.29565006494522095
107 210 0.2929195463657379
107 212 0.25541552901268005
107 213 0.3003699779510498
107 214 0.29213041067123413
107 216 0.25276851654052734
107 217 0.2900254726409912
107 218 0.1385228931903839
107 219 0.06137378141283989
107 220 0.055328331887722015
107 221 0.1497032791376114
107 222 0.1255088597536087
107 223 0.2862851917743683
107 224 0.1739373505115509
107 225 0.3073893189430237
107 226 0.2808418273925781
107 227 0.3754696249961853
107 228 0.289819598197937
107 229 0.21170243620872498
107 230 0.29366227984428406
107 231 0.18160958588123322
107 232 0.27713698148727417
107 233 0.34793633222579956
107 235 0.2683318555355072
107 236 0.09759000688791275
107 238 0.3028078079223633
107 239 0.2737320363521576
107 240 0.2883108854293823
107 241 0.287268728017807
107 242 0.2624541223049164
107 243 0.2992200553417206
107 244 0.35874801874160767
107 246 0.2582985460758209
107 247 0.27656301856040955
107 248 0.24358387291431427
107 249 0.25447574257850647
107 251 0.307914674282074
107 252 0.18463890254497528
107 253 0.14151573181152344
107 254 0.29459306597709656
107 255 0.3020019829273224
108 118 0.09853293001651764
108 119 0.06482037156820297
108 123 0.07624928653240204
108 125 0.12403473258018494
108 156 0.05318697541952133
108 159 0.09735847264528275
108 160 0.42640140652656555
108 165 0.05391639098525047
108 173 0.055089935660362244
108 195 0.06696495413780212
108 197 0.058074790984392166
108 201 0.05411337688565254
108 208 0.1354570835828781
108 218 0.051298920065164566
108 221 0.07761505246162415
108 224 0.08671099692583084
108 229 0.17149858176708221
108 231 0.18107149004936218
108 232 0.08980264514684677
108 233 0.05933908373117447
108 236 0.15811388194561005
108 244 0.11624763906002045
108 245 0.125
108 253 0.06114178150892258
109 110 0.9473049640655518
109 111 0.0853024423122406
109 112 0.9495903253555298
109 113 0.8176940679550171
109 114 0.3596850037574768
109 115 0.6907612681388855
109 116 0.8203222751617432
109 117 0.17959964275360107
109 118 0.3886198103427887
109 119 0.3398887515068054
109 120 0.5360120534896851
109 121 0.9598394632339478
109 122 0.2588830888271332
109 123 0.24684344232082367
109 124 0.0853024423122406
109 125 0.3308465778827667
109 126 0.9593565464019775
109 127 0.963473916053772
109 128 0.9615789651870728
109 129 0.91287761926651
109 130 0.16451185941696167
109 131 0.9494706392288208
109 132 0.9665461778640747
109 133 0.17070640623569489
109 134 0.5493135452270508
109 135 0.9441522359848022
109 136 0.15475820004940033
109 137 0.5183053612709045
109 138 0.9560465812683105
109 139 0.9669607281684875
109 140 0.6862642765045166
109 141 0.9696404933929443
109 142 0.6802374720573425
109 143 0.9626457095146179
109 144 0.9457994699478149
109 145 0.2571965157985687
109 146 0.7446643710136414
109 147 0.9503203630447388
109 148 0.8565679788589478
109 149 0.9582945704460144
109 150 0.7650777697563171
109 151 0.950641930103302
109 152 0.8680462837219238
109 153 0.9548130631446838
109 154 0.94501131772995
109 155 0.32402098178863525
109 156 0.8366655111312866
109 157 0.9079947471618652
109 158 0.9612823724746704
109 159 0.43503811955451965
109 161 0.9654709696769714
109 162 0.4502768814563751
109 163 0.23024889826774597
109 164 0.07209372520446777
109 165 0.7989721298217773
109 166 0.961039125919342
109 167 0.9684910774230957
109 168 0.2114749401807785
109 169 0.09672388434410095
109 170 0.10693227499723434
109 171 0.9582546949386597
109 172 0.9408490657806396
109 173 0.7811961770057678
109 174 0.9583353996276855
109 175 0.9604989290237427
109 176 0.6953461766242981
109 177 0.9288336634635925
109 178 0.9319835901260376
109 179 0.23339496552944183
109 180 0.9667018055915833
109 181 0.9572518467903137
109 182 0.9556241035461426
109 183 0.3957985043525696
109 185 0.963473916053772
109 186 0.9526710510253906
109 187 0.9512701034545898
109 188 0.830496609210968
109 189 0.9452507495880127
109 190 0.9231572151184082
109 191 0.5337436199188232
109 192 0.9468924403190613
109 193 0.9660993218421936
109 194 0.8339258432388306
109 195 0.6518878936767578
109 196 0.9679937958717346
109 197 0.7387871146202087
109 198 0.9644541144371033
109 199 0.7248346209526062
109 200 0.9358724355697632
109 201 0.7969565391540527
109 202 0.2859145998954773
109 203 0.4973439872264862
109 204 0.9720916152000427
109 205 0.9644854068756104
109 206 0.12063587456941605
109 207 0.9558326005935669
109 208 0.3088155686855316
109 209 0.9599584937095642
109 210 0.9717013835906982
109 212 0.9528636932373047
109 213 0.9367735981941223
109 214 0.9620386362075806
109 215 0.7267313003540039
109 216 0.9656631350517273
109 217 0.9695624113082886
109 218 0.8642712831497192
109 219 0.5118305087089539
109 220 0.1852922886610031
109 221 0.5573833584785461
109 222 0.8968409895896912
109 223 0.9618905186653137
109 224 0.48234912753105164
109 225 0.9213002324104309
109 226 0.9626576900482178
109 227 0.5011237263679504
109 228 0.9598016738891602
109 229 0.07819662988185883
109 230 0.9545374512672424
109 231 0.1775072067975998
109 232 0.18016453087329865
109 233 0.7264614701271057
109 234 0.30924761295318604
109 235 0.9640126824378967
109 236 0.08651246130466461
109 238 0.91115403175354
109 239 0.9538341760635376
109 240 0.961039125919342
109 241 0.9658467173576355
109 242 0.9391499161720276
109 243 0.9353178143501282
109 244 0.09010741859674454
109 245 0.17098528146743774
109 246 0.9530184268951416
109 247 0.9322914481163025
109 248 0.9302630424499512
109 249 0.9598016738891602
109 250 0.33660897612571716
109 251 0.9065878987312317
109 252 0.929704487323761
109 253 0.7234407067298889
109 254 0.9544165134429932
109 255 0.9380874633789062
110 111 0.08843771368265152
110 112 0.9125359654426575
110 113 0.7791517972946167
110 114 0.3277045488357544
110 115 0.6851478815078735
110 116 0.7838923931121826
110 117 0.1745632290840149
110 118 0.3144043982028961
110 119 0.3248036205768585
110 120 0.5651001334190369
110 121 0.9269741773605347
110 122 0.24155843257904053
110 123 0.24149829149246216
110 124 0.06316979974508286
110 125 0.29316815733909607
110 126 0.9209012985229492
110 127 0.9350353479385376
110 128 0.9269431829452515
110 129 0.8672742247581482
110 130 0.12002260982990265
110 131 0.9187436103820801
110 132 0.9239879250526428
110 133 0.16477511823177338
110 134 0.5568878650665283
110 135 0.9054949879646301
110 136 0.12033472955226898
110 137 0.5073915123939514
110 138 0.919533908367157
110 139 0.9403802752494812
110 140 0.696509063243866
110 141 0.9379758238792419
110 142 0.6800522804260254
110 143 0.9356507062911987
110 144 0.9073205590248108
110 145 0.24760334193706512
110 146 0.7537529468536377
110 147 0.9368122816085815
110 148 0.8272254467010498
110 149 0.925408124923706
110 150 0.7743123769760132
110 151 0.9125359654426575
110 152 0.8699526786804199
110 153 0.9200568199157715
110 154 0.9291064739227295
110 155 0.31597402691841125
110 156 0.7982749938964844
110 157 0.8956149220466614
110 158 0.9238764047622681
110 159 0.3842940926551819
110 161 0.9412465691566467
110 162 0.40552616119384766
110 163 0.2199891358613968
110 165 0.7671685218811035
110 166 0.9252700805664062
110 167 0.9365769624710083
110 168 0.17440150678157806
110 169 0.07799472659826279
110 170 0.11086253821849823
110 171 0.9198842644691467
110 172 0.9051284790039062
110 173 0.7448036670684814
110 174 0.9244416356086731
110 175 0.9279062151908875
110 176 0.64317387342453
110 177 0.9102224111557007
110 178 0.8986459970474243
110 179 0.2292378693819046
110 180 0.9277935028076172
110 181 0.925408124923706
110 182 0.921449601650238
110 183 0.41289466619491577
110 185 0.9296242594718933
110 186 0.9188540577888489
110 187 0.9177301526069641
110 188 0.8420838117599487
110 189 0.9176498651504517
110 190 0.9027848243713379
110 191 0.49961748719215393
110 192 0.9195063710212708
110 193 0.9280558228492737
110 194 0.8181909918785095
110 195 0.587212085723877
110 196 0.9318119287490845
110 197 0.679463803768158
110 198 0.9413397312164307
110 199 0.6589863896369934
110 200 0.8985209465026855
110 201 0.7559022307395935
110 202 0.29312971234321594
110 203 0.5115476250648499
110 204 0.9349143505096436
110 205 0.9371004104614258
110 206 0.1072026938199997
110 207 0.9363352656364441
110 208 0.27854445576667786
110 209 0.9262323379516602
110 210 0.9401124715805054
110 212 0.9215921759605408
110 213 0.91355299949646
110 214 0.9316236972808838
110 215 0.6933426856994629
110 216 0.9336746335029602
110 217 0.9356158971786499
110 218 0.8050999045372009
110 219 0.524375319480896
110 220 0.1695023477077484
110 221 0.45679232478141785
110 222 0.8575637340545654
110 223 0.921449601650238
110 224 0.48573124408721924
110 225 0.8867762684822083
110 226 0.9259831309318542
110 227 0.48311686515808105
110 228 0.9311946630477905
110 229 0.10539193451404572
110 230 0.9213340878486633
110 231 0.11983442306518555
110 232 0.17405098676681519
110 233 0.7321243286132812
110 234 0.3171290159225464
110 235 0.9345456957817078
110 236 0.08969221264123917
110 238 0.8699768781661987
110 239 0.9159231185913086
110 240 0.9252700805664062
110 241 0.9315846562385559
110 242 0.9053791165351868
110 243 0.9034289717674255
110 244 0.09891454130411148
110 245 0.1713608056306839
110 246 0.9144099354743958
110 247 0.9041271209716797
110 248 0.8875696063041687
110 249 0.9257807731628418
110 250 0.34577929973602295
110 251 0.8648983836174011
110 252 0.9107040762901306
110 253 0.7008956074714661
110 254 0.9209922552108765
110 255 0.8987705111503601
111 112 0.08629488945007324
111 115 0.05258304625749588
111 116 0.09943342208862305
111 119 0.17323973774909973
111 120 0.12737159430980682
111 121 0.0733838602900505
111 122 0.30348849296569824
111 124 0.1428571492433548
111 126 0.08708596229553223
111 127 0.08565936237573624
111 128 0.07304049283266068
111 131 0.08657162636518478
111 132 0.0613139346241951
111 135 0.08666446805000305
111 136 0.1511857807636261
111 138 0.06137857586145401
111 139 0.08477533608675003
111 141 0.08455857634544373
111 143 0.08661800622940063
111 144 0.0865253210067749
111 146 0.06360433995723724
111 147 0.08713317662477493
111 149 0.061121225357055664
111 151 0.08629488945007324
111 152 0.06784067302942276
111 153 0.08638684451580048
111 154 0.08713317662477493
111 155 0.11282661557197571
111 156 0.08528890460729599
111 157 0.09053574502468109
111 158 0.06137857586145401
111 159 0.07806044071912766
111 161 0.0859300047159195
111 163 0.10585121810436249
111 166 0.07307840883731842
111 168 0.11268723011016846
111 171 0.07342230528593063
111 173 0.05889362096786499
111 175 0.0853024423122406
111 176 0.06893478333950043
111 178 0.08770580589771271
111 180 0.08539125323295593
111 181 0.08556970953941345
111 182 0.08570428937673569
111 183 0.11527808010578156
111 185 0.08565936237573624
111 186 0.08647909015417099
111 187 0.08606629818677902
111 188 0.09992864727973938
111 189 0.08657162636518478
111 190 0.0895451158285141
111 191 0.09002983570098877
111 192 0.08789920061826706
111 193 0.08561450242996216
111 195 0.12527996301651
111 196 0.08477533608675003
111 197 0.10864797234535217
111 198 0.08583950251340866
111 199 0.11438579857349396
111 201 0.10123685747385025
111 202 0.07448388636112213
111 203 0.09217959642410278
111 204 0.07273928821086884
111 206 0.10101525485515594
111 207 0.08647909015417099
111 208 0.10860729217529297
111 209 0.07315441220998764
111 210 0.08455857634544373
111 212 0.08602079749107361
111 213 0.06268145143985748
111 214 0.07315441220998764
111 215 0.06629934906959534
111 216 0.08756159245967865
111 218 0.08226127177476883
111 219 0.14173667132854462
111 221 0.12446096539497375
111 222 0.05270005390048027
111 223 0.08570428937673569
111 225 0.0887356549501419
111 226 0.08512565493583679
111 227 0.13006649911403656
111 228 0.07346081733703613
111 229 0.09166985005140305
111 230 0.0857943668961525
111 234 0.1576220840215683
111 235 0.08561450242996216
111 238 0.07675295323133469
111 239 0.06157374009490013
111 240 0.08525814861059189
111 241 0.08494995534420013
111 242 0.08718046545982361
111 246 0.08699176460504532
111 247 0.06302911043167114
111 248 0.08949387073516846
111 252 0.07675295323133469
111 253 0.08170414716005325
111 254 0.08606629818677902
111 255 0.08718046545982361
112 113 0.7792168855667114
112 114 0.36938294768333435
112 115 0.6715719699859619
112 116 0.8139309287071228
112 117 0.18168918788433075
112 118 0.4204111099243164
112 119 0.33188343048095703
112 120 0.5623993873596191
112 121 0.9488424062728882
112 122 0.2843432128429413
112 123 0.24619819223880768
112 124 0.08629488945007324
112 125 0.3489990234375
112 126 0.9265012741088867
112 127 0.9556755423545837
112 128 0.9507057666778564
112 129 0.8876779079437256
112 130 0.10478665679693222
112 131 0.9402396082878113
112 132 0.9428703188896179
112 133 0.17864739894866943
112 134 0.5838414430618286
112 135 0.9369743466377258
112 136 0.14351218938827515
112 137 0.5321323871612549
112 138 0.9491609930992126
112 139 0.9552186131477356
112 140 0.6927870512008667
112 141 0.9579883217811584
112 142 0.7112827301025391
112 143 0.9386077523231506
112 144 0.9333366751670837
112 145 0.23788698017597198
112 146 0.7533282041549683
112 147 0.9270035624504089
112 148 0.8332967162132263
112 149 0.9451813101768494
112 150 0.7713465094566345
112 151 0.9446808695793152
112 152 0.8816580772399902
112 153 0.9446225166320801
112 154 0.9463385343551636
112 155 0.27910900115966797
112 156 0.8230929374694824
112 157 0.906281590461731
112 158 0.9428050518035889
112 159 0.3996821939945221
112 160 0.10817637294530869
112 161 0.9428050518035889
112 162 0.45321497321128845
112 163 0.21465887129306793
112 164 0.07293249666690826
112 165 0.7958328127861023
112 166 0.9501482248306274
112 167 0.9546637535095215
112 168 0.1993488073348999
112 169 0.08697707206010818
112 170 0.07867372035980225
112 171 0.9567314982414246
112 172 0.9282147884368896
112 173 0.7801206111907959
112 174 0.9484093189239502
112 175 0.9495903253555298
112 176 0.6543592214584351
112 177 0.9166419506072998
112 178 0.9212022423744202
112 179 0.20297208428382874
112 180 0.9505789875984192
112 181 0.9451813101768494
112 182 0.9487809538841248
112 183 0.4202992022037506
112 185 0.9482836127281189
112 186 0.9424328207969666
112 187 0.9389953017234802
112 188 0.8179846405982971
112 189 0.9391723871231079
112 190 0.9162353873252869
112 191 0.48751190304756165
112 192 0.9221498966217041
112 193 0.9446206092834473
112 194 0.7996236681938171
112 195 0.6517500877380371
112 196 0.9583539366722107
112 197 0.7540794610977173
112 198 0.9481614232063293
112 199 0.6867333054542542
112 200 0.9316816329956055
112 201 0.8087247014045715
112 202 0.3310203552246094
112 203 0.5349488258361816
112 204 0.9541085362434387
112 205 0.9450507164001465
112 206 0.10460519790649414
112 207 0.9381684064865112
112 208 0.3124084770679474
112 209 0.9542928338050842
112 210 0.9652853608131409
112 212 0.9406198263168335
112 213 0.9379360675811768
112 214 0.957449197769165
112 215 0.6951373815536499
112 216 0.9261641502380371
112 217 0.9578623175621033
112 218 0.8364667296409607
112 219 0.5177854299545288
112 220 0.14334262907505035
112 221 0.5477576851844788
112 222 0.8674823641777039
112 223 0.9519505500793457
112 224 0.5059595704078674
112 225 0.9177981019020081
112 226 0.9507704973220825
112 227 0.5462383031845093
112 228 0.9434981942176819
112 229 0.12657023966312408
112 230 0.9561240673065186
112 231 0.22968563437461853
112 232 0.24853724241256714
112 233 0.7472303509712219
112 234 0.3060445487499237
112 235 0.9551750421524048
112 236 0.13127849996089935
112 238 0.9140276312828064
112 239 0.9383639693260193
112 240 0.9490971565246582
112 241 0.952997088432312
112 242 0.9318056702613831
112 243 0.9224908947944641
112 244 0.19839783012866974
112 245 0.15567712485790253
112 246 0.9394405484199524
112 247 0.927908718585968
112 248 0.9135045409202576
112 249 0.9445547461509705
112 250 0.3124084770679474
112 251 0.8993917107582092
112 252 0.9029885530471802
112 253 0.7135258316993713
112 254 0.9389953017234802
112 255 0.9296562075614929
113 114 0.3599695563316345
113 115 0.637439489364624
113 116 0.8018110394477844
113 117 0.12132564932107925
113 118 0.31294023990631104
113 119 0.347848117351532
113 120 0.3653564155101776
113 121 0.7906144261360168
113 122 0.0932716354727745
113 123 0.29644641280174255
113 124 0.05853936821222305
113 125 0.1697991043329239
113 126 0.8220456838607788
113 127 0.7835070490837097
113 128 0.8081156611442566
113 129 0.8079543709754944
113 130 0.20488779246807098
113 131 0.7766478061676025
113 132 0.8102797865867615
113 133 0.0565544068813324
113 134 0.22337864339351654
113 135 0.7749439477920532
113 136 0.17036868631839752
113 137 0.541469395160675
113 138 0.7922704815864563
113 139 0.7989939451217651
113 140 0.45806416869163513
113 141 0.804375946521759
113 142 0.4925610423088074
113 143 0.8024167418479919
113 144 0.8142209053039551
113 145 0.18532797694206238
113 146 0.5831709504127502
113 147 0.7816855907440186
113 148 0.7877264022827148
113 149 0.7964622974395752
113 150 0.560979962348938
113 151 0.7779539823532104
113 152 0.6435572504997253
113 153 0.8242961168289185
113 154 0.7702089548110962
113 155 0.3775743246078491
113 156 0.7543225884437561
113 157 0.7274120450019836
113 158 0.8312551379203796
113 159 0.3278694748878479
113 161 0.801073431968689
113 162 0.31680864095687866
113 163 0.14096955955028534
113 164 0.051948536187410355
113 165 0.6436197757720947
113 166 0.7948100566864014
113 167 0.8155413269996643
113 168 0.14430148899555206
113 169 0.09034702181816101
113 170 0.12842021882534027
113 171 0.7897751331329346
113 172 0.8143508434295654
113 173 0.6546122431755066
113 174 0.8043874502182007
113 175 0.7989682555198669
113 176 0.7238497138023376
113 177 0.7592558264732361
113 178 0.7598678469657898
113 179 0.2655430734157562
113 180 0.8135466575622559
113 181 0.7839393615722656
113 182 0.7801551818847656
113 183 0.3454289436340332
113 184 0.05475856736302376
113 185 0.8035648465156555
113 186 0.7846767902374268
113 187 0.7771526575088501
113 188 0.6215369701385498
113 189 0.7652451395988464
113 190 0.7495937943458557
113 191 0.4542330503463745
113 192 0.7924168705940247
113 193 0.8056498765945435
113 194 0.7731420397758484
113 195 0.46386346220970154
113 196 0.8151226043701172
113 197 0.6598691344261169
113 198 0.7889235615730286
113 199 0.6829994320869446
113 200 0.8106654286384583
113 201 0.5555945634841919
113 202 0.2670646905899048
113 203 0.27621468901634216
113 204 0.8258964419364929
113 205 0.8119379878044128
113 206 0.13452915847301483
113 207 0.7884736061096191
113 208 0.14093129336833954
113 209 0.7931386828422546
113 210 0.800663411617279
113 212 0.7981430292129517
113 213 0.7795497179031372
113 214 0.8081270456314087
113 215 0.6554245352745056
113 216 0.8124392628669739
113 217 0.8109844326972961
113 218 0.7373769879341125
113 219 0.2904011607170105
113 220 0.20943683385849
113 221 0.558886706829071
113 222 0.7382857799530029
113 223 0.7964606881141663
113 224 0.22078989446163177
113 225 0.7506093978881836
113 226 0.7985581755638123
113 227 0.4130600690841675
113 228 0.8190375566482544
113 229 0.056346096098423004
113 230 0.7859975099563599
113 231 0.15368583798408508
113 232 0.12293660640716553
113 233 0.48252448439598083
113 234 0.1695479154586792
113 235 0.7856026291847229
113 236 0.069264717400074
113 238 0.740420401096344
113 239 0.8376829624176025
113 240 0.803544282913208
113 241 0.7993963360786438
113 242 0.7642475962638855
113 243 0.7957556247711182
113 244 0.07638664543628693
113 245 0.18481016159057617
113 246 0.7829630970954895
113 247 0.7670853137969971
113 248 0.774049699306488
113 249 0.8077490925788879
113 250 0.26702770590782166
113 251 0.7846487164497375
113 252 0.748283326625824
113 253 0.48546531796455383
113 254 0.8187183737754822
113 255 0.769351065158844
114 115 0.31354472041130066
114 116 0.3620964288711548
114 117 0.2206837236881256
114 118 0.11188091337680817
114 119 0.11621275544166565
114 120 0.27531784772872925
114 121 0.35553115606307983
114 122 0.09694584459066391
114 123 0.14581653475761414
114 124 0.0958314836025238
114 126 0.3338230848312378
114 127 0.35845375061035156
114 128 0.3783661723136902
114 129 0.35096800327301025
114 130 0.2395787239074707
114 131 0.36780208349227905
114 132 0.33727124333381653
114 134 0.19594095647335052
114 135 0.3211338222026825
114 136 0.27044937014579773
114 137 0.28789350390434265
114 138 0.36233118176460266
114 139 0.36558660864830017
114 140 0.25753140449523926
114 141 0.36195072531700134
114 142 0.3708619773387909
114 143 0.3652322292327881
114 144 0.3676053285598755
114 146 0.33066993951797485
114 147 0.361837774515152
114 148 0.3598722517490387
114 149 0.36354541778564453
114 150 0.3001473546028137
114 151 0.35284343361854553
114 152 0.348901629447937
114 153 0.3725360929965973
114 154 0.37575459480285645
114 155 0.20183037221431732
114 156 0.3242100477218628
114 157 0.3586152493953705
114 158 0.35135146975517273
114 161 0.3568413555622101
114 162 0.11922517418861389
114 165 0.3222120404243469
114 166 0.3513278365135193
114 167 0.3711933195590973
114 168 0.07559289783239365
114 170 0.05096472054719925
114 171 0.3830803334712982
114 172 0.3693874478340149
114 173 0.3884859085083008
114 174 0.37954917550086975
114 175 0.36240991950035095
114 176 0.2774571478366852
114 177 0.3660697937011719
114 178 0.33900073170661926
114 179 0.23613636195659637
114 180 0.34642091393470764
114 181 0.3198106288909912
114 182 0.36411717534065247
114 183 0.3222120404243469
114 184 0.05976143106818199
114 185 0.3447722792625427
114 186 0.353596568107605
114 187 0.376652330160141
114 188 0.18514199554920197
114 189 0.3318515121936798
114 190 0.3832954466342926
114 191 0.10568923503160477
114 192 0.35659530758857727
114 193 0.3391220271587372
114 194 0.3551034927368164
114 195 0.20409800112247467
114 196 0.3791268467903137
114 197 0.36788704991340637
114 198 0.35646554827690125
114 199 0.20461954176425934
114 200 0.37956854701042175
114 201 0.26194530725479126
114 202 0.2331714630126953
114 203 0.30917981266975403
114 204 0.35240834951400757
114 205 0.358830064535141
114 206 0.11293850094079971
114 207 0.3342592716217041
114 209 0.36805108189582825
114 210 0.3592495918273926
114 212 0.3462270200252533
114 213 0.38403838872909546
114 214 0.3816825747489929
114 215 0.18901857733726501
114 216 0.3580227196216583
114 217 0.378932386636734
114 218 0.3004382848739624
114 219 0.08979763835668564
114 220 0.12857143580913544
114 221 0.2365577071905136
114 222 0.23568180203437805
114 223 0.37780582904815674
114 224 0.19691500067710876
114 225 0.365657776594162
114 226 0.34262412786483765
114 227 0.3247685432434082
114 228 0.35864174365997314
114 229 0.081992007791996
114 230 0.3507968485355377
114 232 0.18246899545192719
114 233 0.2978798449039459
114 234 0.07049074023962021
114 235 0.3527962863445282
114 236 0.07559289038181305
114 238 0.3403892517089844
114 239 0.36623695492744446
114 240 0.35677480697631836
114 241 0.3500578701496124
114 242 0.345324844121933
114 243 0.3518509864807129
114 244 0.12504826486110687
114 245 0.05976143106818199
114 246 0.3529139459133148
114 247 0.34106844663619995
114 248 0.33447688817977905
114 249 0.3559040129184723
114 250 0.15380708873271942
114 251 0.3706957697868347
114 252 0.23455393314361572
114 253 0.16077250242233276
114 254 0.36840447783470154
114 255 0.34810972213745117
115 116 0.5960504412651062
115 117 0.1856711506843567
115 119 0.3315848112106323
115 120 0.34380945563316345
115 121 0.6767813563346863
115 122 0.08511120080947876
115 123 0.13501687347888947
115 124 0.05258304625749588
115 126 0.6990981698036194
115 127 0.6786373257637024
115 128 0.6676403284072876
115 129 0.6843655109405518
115 130 0.2015683650970459
115 131 0.6585515737533569
115 132 0.6740462779998779
115 133 0.17780017852783203
115 134 0.19502437114715576
115 135 0.6334343552589417
115 136 0.21331989765167236
115 137 0.36859220266342163
115 138 0.6807815432548523
115 139 0.6760914325714111
115 140 0.5091255903244019
115 141 0.6625058650970459
115 142 0.49948322772979736
115 143 0.7014143466949463
115 144 0.6324173212051392
115 146 0.534564197063446
115 147 0.702531635761261
115 148 0.6683365702629089
115 149 0.6674282550811768
115 150 0.5895218849182129
115 151 0.6564464569091797
115 152 0.615948498249054
115 153 0.6980283260345459
115 154 0.6612961292266846
115 155 0.1430456042289734
115 156 0.732509195804596
115 157 0.6014281511306763
115 158 0.6822876930236816
115 159 0.07662023603916168
115 161 0.6657200455665588
115 162 0.32709619402885437
115 163 0.09091100096702576
115 165 0.4826606810092926
115 166 0.6560317873954773
115 167 0.6764387488365173
115 171 0.6726316809654236
115 172 0.6507226228713989
115 173 0.4732952415943146
115 174 0.6637346148490906
115 175 0.6653436422348022
115 176 0.5772495865821838
115 177 0.650860607624054
115 178 0.631821870803833
115 179 0.0530054084956646
115 180 0.6825001239776611
115 181 0.6359316110610962
115 182 0.6534559726715088
115 183 0.2545902729034424
115 185 0.6621218323707581
115 186 0.6517844796180725
115 187 0.6592331528663635
115 188 0.5797523856163025
115 189 0.6418601870536804
115 190 0.7219784259796143
115 191 0.2651063799858093
115 192 0.7040858864784241
115 193 0.6752806901931763
115 194 0.7507844567298889
115 195 0.40184372663497925
115 196 0.6790632605552673
115 197 0.46466076374053955
115 198 0.6785600185394287
115 199 0.4952147305011749
115 200 0.6799419522285461
115 201 0.32472389936447144
115 202 0.11423387378454208
115 203 0.30536630749702454
115 204 0.6767866611480713
115 205 0.6763439178466797
115 206 0.12393943965435028
115 207 0.6623949408531189
115 209 0.647738516330719
115 210 0.6713985204696655
115 212 0.6694388389587402
115 213 0.6952324509620667
115 214 0.6851367950439453
115 215 0.5348445773124695
115 216 0.6967772841453552
115 217 0.6876258850097656
115 218 0.6442663669586182
115 219 0.4956209361553192
115 220 0.17244958877563477
115 221 0.3919450640678406
115 222 0.6352813839912415
115 223 0.6865043044090271
115 224 0.2530595362186432
115 225 0.6283534169197083
115 226 0.6609805226325989
115 227 0.2473544180393219
115 228 0.6714823246002197
115 230 0.6421124935150146
115 233 0.4631016254425049
115 234 0.25624504685401917
115 235 0.672279417514801
115 238 0.5838608145713806
115 239 0.6814353466033936
115 240 0.6575261950492859
115 241 0.6521714329719543
115 242 0.6647111177444458
115 243 0.6420071125030518
115 245 0.13936299085617065
115 246 0.7074905037879944
115 247 0.6774352192878723
115 248 0.694898784160614
115 249 0.6865043044090271
115 250 0.3509032130241394
115 251 0.6007453799247742
115 252 0.6450719833374023
115 253 0.5112541317939758
115 254 0.6486733555793762
115 255 0.5990040302276611
116 117 0.1700982302427292
116 118 0.39800944924354553
116 119 0.39274871349334717
116 120 0.42427730560302734
116 121 0.8184587359428406
116 122 0.27159208059310913
116 123 0.2472088485956192
116 124 0.08522864431142807
116 125 0.16810548305511475
116 126 0.8028367757797241
116 127 0.822537899017334
116 128 0.8255231380462646
116 129 0.7932400107383728
116 130 0.15625253319740295
116 131 0.811622142791748
116 132 0.8181710243225098
116 134 0.34244504570961
116 135 0.8223409056663513
116 136 0.18039503693580627
116 137 0.5457712411880493
116 138 0.8092687129974365
116 139 0.8260912895202637
116 140 0.43618273735046387
116 141 0.8335880637168884
116 142 0.5280606150627136
116 143 0.7997531294822693
116 144 0.8333112597465515
116 145 0.17131604254245758
116 146 0.6988459825515747
116 147 0.7970834374427795
116 148 0.7974040508270264
116 149 0.8180304765701294
116 150 0.5293276906013489
116 151 0.8151566982269287
116 152 0.677261233329773
116 153 0.8393402695655823
116 154 0.8168867230415344
116 155 0.3328225016593933
116 156 0.7434631586074829
116 157 0.740759015083313
116 158 0.8190336227416992
116 159 0.3466944992542267
116 160 0.10198342055082321
116 161 0.8324604034423828
116 162 0.4002785086631775
116 163 0.18945270776748657
116 165 0.644765317440033
116 166 0.8235294222831726
116 167 0.8277204632759094
116 168 0.19048291444778442
116 170 0.12464640289545059
116 171 0.8201043009757996
116 172 0.8410561680793762
116 173 0.6792953610420227
116 174 0.8220331072807312
116 175 0.8397095203399658
116 176 0.7351367473602295
116 177 0.7760624885559082
116 178 0.793600857257843
116 179 0.25773969292640686
116 180 0.8333059549331665
116 181 0.821677029132843
116 182 0.8217518329620361
116 183 0.444171667098999
116 184 0.053149402141571045
116 185 0.8249713778495789
116 186 0.7923283576965332
116 187 0.8154424428939819
116 188 0.6117889881134033
116 189 0.8103923797607422
116 190 0.7848044037818909
116 191 0.4744546413421631
116 192 0.7941021919250488
116 193 0.8148102760314941
116 194 0.722896933555603
116 195 0.5837001204490662
116 196 0.8489713668823242
116 197 0.8025264739990234
116 198 0.8169516921043396
116 199 0.7409200668334961
116 200 0.8215929865837097
116 201 0.626988410949707
116 202 0.3629032373428345
116 203 0.43537232279777527
116 204 0.8293516039848328
116 205 0.8258374929428101
116 206 0.14062009751796722
116 207 0.7996988296508789
116 208 0.1655876636505127
116 209 0.8280229568481445
116 210 0.8311858177185059
116 212 0.8186770081520081
116 213 0.8027629852294922
116 214 0.8340846300125122
116 215 0.6740700006484985
116 216 0.8184155821800232
116 217 0.8413142561912537
116 218 0.7048019766807556
116 219 0.3171006739139557
116 220 0.08258339017629623
116 221 0.6208416819572449
116 222 0.7074198126792908
116 223 0.8095777034759521
116 224 0.23964916169643402
116 225 0.8067007660865784
116 226 0.835550844669342
116 227 0.5561171770095825
116 228 0.8205344080924988
116 229 0.1093805655837059
116 230 0.8177407383918762
116 231 0.2213483601808548
116 232 0.18137237429618835
116 233 0.49357548356056213
116 234 0.2037477195262909
116 235 0.8123780488967896
116 238 0.7733567357063293
116 239 0.8351073265075684
116 240 0.8441177010536194
116 241 0.8289995193481445
116 242 0.8012311458587646
116 243 0.8207995295524597
116 244 0.19153325259685516
116 245 0.09965512901544571
116 246 0.7982612252235413
116 247 0.8022016286849976
116 248 0.8046951293945312
116 249 0.8193170428276062
116 250 0.23038281500339508
116 251 0.8012034893035889
116 252 0.7428295016288757
116 253 0.46307507157325745
116 254 0.8252227902412415
116 255 0.8136149048805237
117 120 0.2248750478029251
117 121 0.18588967621326447
117 123 0.05631382763385773
117 126 0.16616524755954742
117 127 0.18598708510398865
117 128 0.18501989543437958
117 129 0.14935824275016785
117 130 0.09869275242090225
117 131 0.17087985575199127
117 132 0.16378691792488098
117 134 0.14078457653522491
117 135 0.16536100208759308
117 136 0.20889319479465485
117 138 0.17526717483997345
117 139 0.18406765162944794
117 140 0.17941395938396454
117 141 0.18359701335430145
117 142 0.16974885761737823
117 143 0.17667044699192047
117 144 0.17648139595985413
117 146 0.13182303309440613
117 147 0.18918709456920624
117 148 0.1520480215549469
117 149 0.18579243123531342
117 150 0.18265525996685028
117 151 0.17601139843463898
117 152 0.18122169375419617
117 153 0.18188278377056122
117 154 0.17198827862739563
117 156 0.11784356087446213
117 157 0.19061806797981262
117 158 0.13569070398807526
117 161 0.18657472729682922
117 162 0.09822793304920197
117 165 0.11945967376232147
117 166 0.18511593341827393
117 167 0.17300088703632355
117 171 0.18598708510398865
117 172 0.17161640524864197
117 173 0.1695275753736496
117 174 0.17997421324253082
117 175 0.16276217997074127
117 176 0.12699612975120544
117 177 0.1870385855436325
117 178 0.16734792292118073
117 179 0.0663236528635025
117 180 0.17416830360889435
117 181 0.15201199054718018
117 182 0.1635289341211319
117 185 0.17471514642238617
117 186 0.187766894698143
117 187 0.18687063455581665
117 188 0.18409503996372223
117 189 0.1423998773097992
117 190 0.19442398846149445
117 192 0.17928363382816315
117 193 0.18588967621326447
117 194 0.15433460474014282
117 195 0.12364224344491959
117 196 0.18406765162944794
117 197 0.1286732256412506
117 198 0.18637821078300476
117 199 0.11289050430059433
117 200 0.17820507287979126
117 201 0.11989614367485046
117 203 0.15920552611351013
117 204 0.16750630736351013
117 205 0.18618234992027283
117 207 0.1479375660419464
117 209 0.16846224665641785
117 210 0.17246992886066437
117 212 0.1754523366689682
117 213 0.18476133048534393
117 214 0.18530845642089844
117 215 0.0992395207285881
117 216 0.1728338897228241
117 217 0.18397323787212372
117 218 0.14523260295391083
117 219 0.09791868925094604
117 220 0.08827348798513412
117 221 0.0859837755560875
117 222 0.1638350784778595
117 223 0.18608462810516357
117 224 0.1814475655555725
117 225 0.18098969757556915
117 226 0.16802570223808289
117 227 0.059904228895902634
117 228 0.17480678856372833
117 230 0.15805593132972717
117 232 0.0663236528635025
117 233 0.15338686108589172
117 234 0.07259540259838104
117 235 0.18588967621326447
117 238 0.15318253636360168
117 239 0.16448093950748444
117 240 0.17389680445194244
117 241 0.15650030970573425
117 242 0.18355371057987213
117 243 0.15529556572437286
117 245 0.06154574826359749
117 246 0.17170913517475128
117 247 0.18578608334064484
117 248 0.14131835103034973
117 249 0.18608462810516357
117 250 0.18340978026390076
117 251 0.1538892686367035
117 252 0.17085745930671692
117 253 0.14299464225769043
117 254 0.18120789527893066
117 255 0.15487344563007355
118 119 0.07025635242462158
118 120 0.1839223951101303
118 121 0.42160555720329285
118 122 0.13586528599262238
118 123 0.2479311227798462
118 124 0.07900209724903107
118 125 0.34220215678215027
118 126 0.37610524892807007
118 127 0.40378040075302124
118 128 0.4398290812969208
118 129 0.40650084614753723
118 131 0.4240390658378601
118 132 0.4407975673675537
118 134 0.3718967139720917
118 135 0.46785610914230347
118 137 0.19569748640060425
118 138 0.41410771012306213
118 139 0.43979790806770325
118 140 0.2778700292110443
118 141 0.4564875364303589
118 142 0.3180861473083496
118 143 0.3649602234363556
118 144 0.4602692127227783
118 145 0.3493604063987732
118 146 0.23742540180683136
118 147 0.36483630537986755
118 148 0.34992262721061707
118 149 0.45743927359580994
118 150 0.2755550146102905
118 151 0.44540852308273315
118 152 0.3126406967639923
118 153 0.39810994267463684
118 154 0.40613850951194763
118 155 0.12478955090045929
118 156 0.23058941960334778
118 157 0.3862357437610626
118 158 0.4254221022129059
118 159 0.49883681535720825
118 160 0.21007291972637177
118 161 0.41637060046195984
118 162 0.2506331503391266
118 163 0.16585563123226166
118 165 0.44890958070755005
118 166 0.46026411652565
118 167 0.44449108839035034
118 168 0.24927076697349548
118 170 0.16805832087993622
118 171 0.4421282708644867
118 172 0.467079758644104
118 173 0.4396820068359375
118 174 0.44795742630958557
118 175 0.45825687050819397
118 176 0.2859145998954773
118 177 0.3976980745792389
118 178 0.47116807103157043
118 179 0.2566070258617401
118 180 0.40926268696784973
118 181 0.4619460999965668
118 182 0.462672621011734
118 183 0.09031316637992859
118 185 0.43084949254989624
118 186 0.4258631467819214
118 187 0.4532945156097412
118 188 0.2736785113811493
118 189 0.4536762237548828
118 190 0.32777369022369385
118 191 0.2738329768180847
118 192 0.3448963165283203
118 193 0.4418967366218567
118 194 0.1772567331790924
118 195 0.40579256415367126
118 196 0.45096027851104736
118 197 0.48639369010925293
118 198 0.3910665512084961
118 199 0.3705054223537445
118 200 0.43025240302085876
118 201 0.5358609557151794
118 202 0.14416740834712982
118 203 0.1954105794429779
118 204 0.44248488545417786
118 205 0.4222693145275116
118 207 0.4099217355251312
118 208 0.3136541247367859
118 209 0.46299031376838684
118 210 0.4475804269313812
118 212 0.4485243260860443
118 213 0.3813013732433319
118 214 0.4180397689342499
118 215 0.2474854737520218
118 216 0.3182072639465332
118 217 0.44180363416671753
118 218 0.40184327960014343
118 219 0.074027881026268
118 221 0.3862057328224182
118 222 0.4371585249900818
118 223 0.4085060656070709
118 224 0.3588433265686035
118 225 0.4533328711986542
118 226 0.4573071300983429
118 227 0.40759584307670593
118 228 0.43784627318382263
118 229 0.10138954222202301
118 230 0.45186227560043335
118 231 0.48172059655189514
118 232 0.3362436890602112
118 233 0.33911749720573425
118 235 0.42836928367614746
118 236 0.20253250002861023
118 238 0.46454253792762756
118 239 0.4403952658176422
118 240 0.4580188989639282
118 241 0.45860034227371216
118 242 0.4453877806663513
118 243 0.4442996084690094
118 244 0.3207181692123413
118 245 0.07389969378709793
118 246 0.35508081316947937
118 247 0.39503487944602966
118 248 0.35822367668151855
118 249 0.43558934330940247
118 251 0.4761615991592407
118 252 0.3914419412612915
118 253 0.27110153436660767
118 254 0.4442286491394043
118 255 0.47293755412101746
119 120 0.2316911220550537
119 121 0.3440985381603241
119 122 0.2418508380651474
119 123 0.10873515903949738
119 125 0.08843975514173508
119 126 0.3379431962966919
119 127 0.34724676609039307
119 128 0.34544098377227783
119 129 0.3209023177623749
119 130 0.06929589062929153
119 131 0.3329477310180664
119 132 0.30931293964385986
119 133 0.06694619357585907
119 134 0.11367766559123993
119 135 0.3423130214214325
119 136 0.16500572860240936
119 137 0.3122643232345581
119 138 0.35132119059562683
119 139 0.33778849244117737
119 140 0.18074427545070648
119 141 0.3398546278476715
119 142 0.2600444555282593
119 143 0.32412269711494446
119 144 0.3537551164627075
119 145 0.0522337481379509
119 146 0.3393790125846863
119 147 0.341145396232605
119 148 0.3503017723560333
119 149 0.31130558252334595
119 150 0.2959595322608948
119 151 0.3498230576515198
119 152 0.2994588017463684
119 153 0.34121647477149963
119 154 0.32001250982284546
119 155 0.10033640265464783
119 156 0.3792359530925751
119 157 0.24781332910060883
119 158 0.34536659717559814
119 159 0.11990544199943542
119 160 0.055278997868299484
119 161 0.3334573805332184
119 162 0.12285196781158447
119 165 0.3250238597393036
119 166 0.34857431054115295
119 167 0.3291456401348114
119 170 0.055278997868299484
119 171 0.332407146692276
119 172 0.34040775895118713
119 173 0.2963888943195343
119 174 0.33763590455055237
119 175 0.34284430742263794
119 176 0.29258495569229126
119 177 0.32318711280822754
119 178 0.32819318771362305
119 179 0.09313666820526123
119 180 0.3520771563053131
119 181 0.3320592939853668
119 182 0.32664257287979126
119 183 0.3005596995353699
119 185 0.332407146692276
119 186 0.28764697909355164
119 187 0.3488963842391968
119 188 0.2735234797000885
119 189 0.3329477310180664
119 190 0.338178426027298
119 191 0.12555380165576935
119 192 0.3015071749687195
119 193 0.31443488597869873
119 194 0.2862226366996765
119 195 0.21703465282917023
119 196 0.34660038352012634
119 197 0.33503422141075134
119 198 0.33905455470085144
119 199 0.30120572447776794
119 200 0.3511558175086975
119 201 0.1823977679014206
119 202 0.2890399396419525
119 203 0.13973022997379303
119 204 0.33225521445274353
119 205 0.3297851085662842
119 206 0.1959983855485916
119 207 0.33259183168411255
119 208 0.07024303823709488
119 209 0.32823723554611206
119 210 0.33692485094070435
119 212 0.3397706151008606
119 213 0.322292685508728
119 214 0.345979779958725
119 215 0.2693392336368561
119 216 0.34889036417007446
119 217 0.3376152217388153
119 218 0.27266764640808105
119 219 0.09739921241998672
119 220 0.06198013573884964
119 221 0.2867690920829773
119 222 0.2748052775859833
119 223 0.3414899408817291
119 225 0.3504939079284668
119 226 0.3480326533317566
119 227 0.26813897490501404
119 228 0.3474288880825043
119 229 0.06669960916042328
119 230 0.32401323318481445
119 231 0.11737122386693954
119 232 0.1280629187822342
119 233 0.2077046036720276
119 234 0.08601517975330353
119 235 0.32630035281181335
119 238 0.3102554380893707
119 239 0.34049123525619507
119 240 0.34857431054115295
119 241 0.3355409502983093
119 242 0.3383099138736725
119 243 0.3362031579017639
119 244 0.09042257815599442
119 246 0.3255212903022766
119 247 0.3424243927001953
119 248 0.3193802237510681
119 249 0.335550993680954
119 250 0.05268227681517601
119 251 0.35220611095428467
119 252 0.26681968569755554
119 253 0.217977836728096
119 254 0.3429323434829712
119 255 0.33528932929039
120 121 0.5452428460121155
120 122 0.32213178277015686
120 123 0.2059207409620285
120 125 0.14285540580749512
120 126 0.49730387330055237
120 127 0.5691680908203125
120 128 0.5716351270675659
120 129 0.39901286363601685
120 131 0.5403115749359131
120 132 0.5011194348335266
120 133 0.0820351094007492
120 134 0.5995927453041077
120 135 0.5151342749595642
120 136 0.07863183319568634
120 137 0.389358252286911
120 138 0.5636696815490723
120 139 0.566893458366394
120 140 0.5763564705848694
120 141 0.5618538856506348
120 142 0.6373110413551331
120 143 0.5203744769096375
120 144 0.5436961650848389
120 145 0.09600995481014252
120 146 0.47730669379234314
120 147 0.5586140751838684
120 148 0.42516767978668213
120 149 0.5286088585853577
120 150 0.5961313247680664
120 151 0.5220971703529358
120 152 0.6048682332038879
120 153 0.5556631684303284
120 154 0.5697124004364014
120 155 0.08941897749900818
120 156 0.47738537192344666
120 157 0.5900377631187439
120 158 0.5052961111068726
120 159 0.0657321885228157
120 160 0.06773825734853745
120 161 0.5472520589828491
120 162 0.11488685756921768
120 165 0.5203343033790588
120 166 0.5610724091529846
120 167 0.5401759147644043
120 171 0.5691680908203125
120 172 0.5334119200706482
120 173 0.5951091051101685
120 174 0.564349353313446
120 175 0.5468771457672119
120 176 0.17414328455924988
120 177 0.573300302028656
120 178 0.5566995739936829
120 179 0.11412860453128815
120 180 0.538382887840271
120 181 0.5558567643165588
120 182 0.5458146929740906
120 183 0.5224756002426147
120 185 0.5437101125717163
120 186 0.5654356479644775
120 187 0.5572554469108582
120 188 0.5642778277397156
120 189 0.527446985244751
120 190 0.5892844200134277
120 191 0.09364914894104004
120 192 0.5336694121360779
120 193 0.5107107758522034
120 194 0.38320934772491455
120 195 0.2739303708076477
120 196 0.5524961352348328
120 197 0.41285356879234314
120 198 0.5612537860870361
120 199 0.2695358395576477
120 200 0.5545706748962402
120 201 0.5544721484184265
120 202 0.47040361166000366
120 203 0.5342183709144592
120 204 0.5242400765419006
120 205 0.5388198494911194
120 206 0.09006532281637192
120 207 0.5415698289871216
120 208 0.09145469963550568
120 209 0.554408848285675
120 210 0.5618538856506348
120 212 0.5460042357444763
120 213 0.5812232494354248
120 214 0.5707149505615234
120 215 0.2315242886543274
120 216 0.5241844058036804
120 217 0.5612064599990845
120 218 0.39728134870529175
120 219 0.3510349690914154
120 220 0.1044309064745903
120 221 0.12021701037883759
120 222 0.4111400246620178
120 223 0.5676472187042236
120 224 0.5027851462364197
120 225 0.5839573740959167
120 226 0.5367082357406616
120 227 0.4670911133289337
120 228 0.5367177724838257
120 229 0.13622158765792847
120 230 0.5591373443603516
120 231 0.07910394668579102
120 232 0.299587607383728
120 233 0.6174439191818237
120 234 0.21665970981121063
120 235 0.5543302297592163
120 236 0.163267120718956
120 238 0.5702752470970154
120 239 0.5343524217605591
120 240 0.5375435948371887
120 241 0.5554375648498535
120 242 0.5237535834312439
120 243 0.5177580714225769
120 244 0.22160561382770538
120 245 0.1390027552843094
120 246 0.5392403602600098
120 247 0.5638415217399597
120 248 0.4711577296257019
120 249 0.5148851871490479
120 250 0.24746567010879517
120 251 0.4736025333404541
120 252 0.5132477283477783
120 253 0.44922634959220886
120 254 0.5462930798530579
120 255 0.5422607660293579
121 122 0.2635420262813568
121 123 0.27217215299606323
121 124 0.08561450242996216
121 125 0.3661140203475952
121 126 0.9404986500740051
121 127 0.9586172103881836
121 128 0.9598855376243591
121 129 0.9106643795967102
121 130 0.1651136875152588
121 131 0.942355751991272
121 132 0.9511843323707581
121 133 0.17133089900016785
121 134 0.5687699913978577
121 135 0.942306399345398
121 136 0.14885251224040985
121 137 0.48926013708114624
121 138 0.952187180519104
121 139 0.9673875570297241
121 140 0.7018252611160278
121 141 0.9731876850128174
121 142 0.6985031962394714
121 143 0.9460388422012329
121 144 0.9418516755104065
121 145 0.2618251144886017
121 146 0.7419431209564209
121 147 0.9378114938735962
121 148 0.846747100353241
121 149 0.9576139450073242
121 150 0.7757121324539185
121 151 0.9488424062728882
121 152 0.87006014585495
121 153 0.9519665241241455
121 154 0.934614360332489
121 155 0.28978782892227173
121 156 0.8190372586250305
121 157 0.9046726226806641
121 158 0.952187180519104
121 159 0.44108501076698303
121 160 0.10732346028089523
121 161 0.9542891383171082
121 162 0.4564889371395111
121 163 0.22202880680561066
121 164 0.07235746085643768
121 165 0.8080633282661438
121 166 0.9603837728500366
121 167 0.9658097624778748
121 168 0.2122485637664795
121 169 0.07550489157438278
121 171 0.9586172103881836
121 172 0.9389739036560059
121 173 0.7878355979919434
121 174 0.9597502946853638
121 175 0.9577528834342957
121 176 0.6801844239234924
121 177 0.9246258735656738
121 178 0.9332475662231445
121 179 0.20959101617336273
121 180 0.9597944021224976
121 181 0.9555208086967468
121 182 0.9559754133224487
121 183 0.3824421763420105
121 185 0.9533788561820984
121 186 0.9455791711807251
121 187 0.9526447653770447
121 188 0.8310902714729309
121 189 0.948708713054657
121 190 0.9188680648803711
121 191 0.5125725865364075
121 192 0.9363805055618286
121 193 0.9581151604652405
121 194 0.8120294213294983
121 195 0.663466215133667
121 196 0.9653138518333435
121 197 0.7454763054847717
121 198 0.9532841444015503
121 199 0.7134960889816284
121 200 0.9371589422225952
121 201 0.7998719811439514
121 202 0.2997143864631653
121 203 0.512974202632904
121 204 0.9631926417350769
121 205 0.9564773440361023
121 206 0.11242882162332535
121 207 0.9445214867591858
121 208 0.3254425525665283
121 209 0.959294855594635
121 210 0.9700850248336792
121 212 0.9542453289031982
121 213 0.9359073638916016
121 214 0.959294855594635
121 215 0.7038470506668091
121 216 0.9327840209007263
121 217 0.9658549427986145
121 218 0.8580426573753357
121 219 0.4874110519886017
121 220 0.1640913039445877
121 221 0.5665261149406433
121 222 0.8899701237678528
121 223 0.9570236206054688
121 224 0.511890709400177
121 225 0.918158769607544
121 226 0.9588913321495056
121 227 0.5196602940559387
121 228 0.9570236206054688
121 229 0.1255722939968109
121 230 0.950684130191803
121 231 0.24444739520549774
121 232 0.2301391363143921
121 233 0.7359078526496887
121 234 0.29013681411743164
121 235 0.9612565636634827
121 236 0.1302434355020523
121 238 0.9090113043785095
121 239 0.9478346109390259
121 240 0.9593409299850464
121 241 0.9631461501121521
121 242 0.9436517953872681
121 243 0.9312552213668823
121 244 0.16491462290287018
121 245 0.1658904254436493
121 246 0.9458650946617126
121 247 0.9259888529777527
121 248 0.9227205514907837
121 249 0.9517825245857239
121 250 0.328542023897171
121 251 0.9165059328079224
121 252 0.9122969508171082
121 253 0.7176930904388428
121 254 0.9494868516921997
121 255 0.9372541308403015
122 123 0.06184633821249008
122 124 0.08671099692583084
122 125 0.19115036725997925
122 126 0.23786628246307373
122 127 0.27853530645370483
122 128 0.26230889558792114
122 129 0.12991319596767426
122 131 0.2815017104148865
122 132 0.20841041207313538
122 133 0.06282808631658554
122 134 0.2844931483268738
122 135 0.27053141593933105
122 136 0.06882471591234207
122 137 0.07540617138147354
122 138 0.257062166929245
122 139 0.27933627367019653
122 140 0.13878493010997772
122 141 0.278622031211853
122 142 0.2237108200788498
122 143 0.22907739877700806
122 144 0.2588430345058441
122 145 0.10457739233970642
122 146 0.25576722621917725
122 147 0.2493283450603485
122 148 0.15863656997680664
122 149 0.2300148755311966
122 150 0.1527646780014038
122 151 0.27686047554016113
122 152 0.2635374367237091
122 153 0.2546834349632263
122 154 0.2795499861240387
122 155 0.10272473841905594
122 156 0.22432973980903625
122 157 0.24336378276348114
122 158 0.19745352864265442
122 159 0.16583313047885895
122 160 0.13834288716316223
122 161 0.27196431159973145
122 162 0.21036258339881897
122 163 0.16062314808368683
122 165 0.13994228839874268
122 166 0.25505226850509644
122 167 0.20593246817588806
122 168 0.11969747394323349
122 171 0.26739391684532166
122 172 0.23748065531253815
122 173 0.2770397961139679
122 174 0.23348069190979004
122 175 0.26627975702285767
122 176 0.16736730933189392
122 177 0.20027868449687958
122 178 0.27758461236953735
122 180 0.2813657522201538
122 181 0.2671140730381012
122 182 0.28239715099334717
122 183 0.33236292004585266
122 184 0.08111070841550827
122 185 0.2711077332496643
122 186 0.27745142579078674
122 187 0.2686641812324524
122 188 0.28594210743904114
122 189 0.2815017104148865
122 190 0.28728818893432617
122 191 0.19126111268997192
122 192 0.24389846622943878
122 193 0.25240644812583923
122 194 0.07958994060754776
122 195 0.3802102208137512
122 196 0.27566078305244446
122 197 0.32031315565109253
122 198 0.279121071100235
122 199 0.2876366972923279
122 200 0.2045513242483139
122 201 0.31163138151168823
122 202 0.2486550509929657
122 203 0.3846624195575714
122 204 0.20971763134002686
122 205 0.21934451162815094
122 206 0.09197089821100235
122 207 0.22870998084545135
122 208 0.2417144626379013
122 209 0.2664182782173157
122 210 0.27495595812797546
122 212 0.2834400534629822
122 213 0.2549095153808594
122 214 0.2701185345649719
122 215 0.1760595291852951
122 216 0.2581467628479004
122 217 0.2534778416156769
122 218 0.1747574508190155
122 219 0.2796004116535187
122 221 0.22033941745758057
122 222 0.14394474029541016
122 223 0.271249920129776
122 224 0.14769700169563293
122 225 0.2885383665561676
122 226 0.28049054741859436
122 227 0.3552631437778473
122 228 0.2340923696756363
122 229 0.19474521279335022
122 230 0.27525463700294495
122 231 0.1321815401315689
122 232 0.2185187190771103
122 233 0.18289534747600555
122 234 0.2989780306816101
122 235 0.2672538757324219
122 236 0.051298920065164566
122 238 0.2717590928077698
122 239 0.19434396922588348
122 240 0.26614147424697876
122 241 0.2725455164909363
122 242 0.2872612178325653
122 243 0.2084529995918274
122 244 0.18857857584953308
122 246 0.2677815556526184
122 247 0.27162623405456543
122 248 0.26384350657463074
122 249 0.18578758835792542
122 250 0.09888318926095963
122 251 0.19500921666622162
122 252 0.21352501213550568
122 253 0.2677996754646301
122 254 0.2686641812324524
122 255 0.2721422016620636
123 125 0.11349071562290192
123 126 0.27684998512268066
123 127 0.2618411183357239
123 128 0.29868313670158386
123 129 0.23685191571712494
123 130 0.3464341461658478
123 131 0.2540445327758789
123 132 0.25539466738700867
123 134 0.2383720874786377
123 135 0.2896387577056885
123 136 0.12939932942390442
123 137 0.23843690752983093
123 138 0.29418864846229553
123 139 0.29714590311050415
123 140 0.3237508237361908
123 141 0.286047101020813
123 142 0.29155582189559937
123 143 0.27183207869529724
123 144 0.30327972769737244
123 146 0.0680483803153038
123 147 0.2592436671257019
123 148 0.2668616771697998
123 149 0.28946757316589355
123 150 0.28721722960472107
123 151 0.2532324492931366
123 152 0.2051614671945572
123 153 0.2957526445388794
123 154 0.24858981370925903
123 155 0.11802738904953003
123 156 0.2757718861103058
123 157 0.27305716276168823
123 158 0.29769086837768555
123 159 0.15589380264282227
123 160 0.13005122542381287
123 161 0.2591661512851715
123 165 0.3206647038459778
123 166 0.29883816838264465
123 167 0.2834707200527191
123 171 0.27929720282554626
123 172 0.2976628243923187
123 173 0.3612488806247711
123 174 0.2996170222759247
123 175 0.28856346011161804
123 176 0.1524192988872528
123 177 0.23896421492099762
123 178 0.30741745233535767
123 179 0.06847388297319412
123 180 0.25058072805404663
123 181 0.28946757316589355
123 182 0.2724575698375702
123 183 0.23022080957889557
123 184 0.07624928653240204
123 185 0.28278839588165283
123 186 0.29254385828971863
123 187 0.2911474406719208
123 188 0.17512987554073334
123 189 0.21876056492328644
123 190 0.2737189829349518
123 192 0.24719277024269104
123 193 0.27217215299606323
123 194 0.17042255401611328
123 195 0.14296883344650269
123 196 0.2798699736595154
123 197 0.28340232372283936
123 198 0.2344033122062683
123 199 0.20046673715114594
123 200 0.3026809096336365
123 201 0.2640708088874817
123 202 0.19125141203403473
123 203 0.13149361312389374
123 204 0.29399269819259644
123 205 0.23415698111057281
123 206 0.05763904005289078
123 207 0.2467237114906311
123 208 0.0722995474934578
123 209 0.28871357440948486
123 210 0.24124452471733093
123 212 0.24541620910167694
123 213 0.29685676097869873
123 214 0.2574072778224945
123 216 0.2069871425628662
123 217 0.2866332530975342
123 218 0.2346903383731842
123 220 0.29163306951522827
123 221 0.1952970325946808
123 222 0.2518405318260193
123 223 0.286429762840271
123 224 0.19173790514469147
123 225 0.3001773953437805
123 226 0.2914348840713501
123 227 0.2906777858734131
123 228 0.268964558839798
123 229 0.26153290271759033
123 230 0.2902275323867798
123 231 0.27613145112991333
123 232 0.3286746144294739
123 233 0.25337550044059753
123 235 0.2582145929336548
123 236 0.2893456816673279
123 238 0.29926609992980957
123 239 0.3021508455276489
123 240 0.29536330699920654
123 241 0.2839087247848511
123 242 0.23451189696788788
123 243 0.30640897154808044
123 244 0.10636559128761292
123 245 0.2096855342388153
123 246 0.27300503849983215
123 247 0.22657471895217896
123 248 0.2443823665380478
123 249 0.2794436812400818
123 250 0.0722995474934578
123 251 0.2969803512096405
123 252 0.2481718808412552
123 253 0.23310086131095886
123 254 0.28062403202056885
123 255 0.2949165105819702
124 126 0.08708596229553223
124 127 0.08565936237573624
124 128 0.07304049283266068
124 129 0.0778302401304245
124 130 0.0714285746216774
124 131 0.08657162636518478
124 132 0.08583950251340866
124 135 0.07428383082151413
124 136 0.07559289038181305
124 139 0.08477533608675003
124 141 0.08455857634544373
124 143 0.08661800622940063
124 144 0.07416456192731857
124 146 0.11130759119987488
124 147 0.06223798543214798
124 148 0.055022139102220535
124 149 0.07334546744823456
124 151 0.08629488945007324
124 152 0.09497693926095963
124 153 0.08638684451580048
124 154 0.08713317662477493
124 155 0.11282661557197571
124 156 0.056859273463487625
124 157 0.09053574502468109
124 158 0.07365428656339645
124 159 0.05204029381275177
124 161 0.0859300047159195
124 162 0.15995734930038452
124 163 0.15877681970596313
124 164 0.16903086006641388
124 166 0.08525814861059189
124 167 0.07270190864801407
124 168 0.22537446022033691
124 171 0.08565936237573624
124 172 0.06210342049598694
124 174 0.07326886802911758
124 175 0.0853024423122406
124 176 0.12063587456941605
124 177 0.0634540244936943
124 178 0.0626470074057579
124 180 0.08539125323295593
124 181 0.08556970953941345
124 182 0.07346081733703613
124 185 0.08565936237573624
124 186 0.06177078187465668
124 187 0.07377111166715622
124 188 0.057102084159851074
124 189 0.08657162636518478
124 190 0.0895451158285141
124 191 0.11253729462623596
124 192 0.08789920061826706
124 193 0.08561450242996216
124 194 0.05827783793210983
124 195 0.12527996301651
124 196 0.08477533608675003
124 197 0.10864797234535217
124 198 0.08583950251340866
124 199 0.0980449691414833
124 200 0.06240743398666382
124 204 0.07273928821086884
124 205 0.07349938899278641
124 206 0.2020305097103119
124 207 0.07412493228912354
124 208 0.10860729217529297
124 209 0.08534681797027588
124 210 0.08455857634544373
124 212 0.08602079749107361
124 213 0.07521773874759674
124 214 0.08534681797027588
124 215 0.06629934906959534
124 216 0.08756159245967865
124 217 0.07262729853391647
124 218 0.08226127177476883
124 221 0.10371747612953186
124 223 0.061217352747917175
124 225 0.06338261067867279
124 226 0.08512565493583679
124 227 0.08671099692583084
124 228 0.08570428937673569
124 230 0.0857943668961525
124 235 0.08561450242996216
124 238 0.051168639212846756
124 239 0.08620323240756989
124 240 0.08525814861059189
124 241 0.08494995534420013
124 242 0.08718046545982361
124 243 0.06244148686528206
124 246 0.08699176460504532
124 247 0.06302911043167114
124 248 0.08949387073516846
124 249 0.07346081733703613
124 251 0.08995824307203293
124 252 0.051168639212846756
124 254 0.07377111166715622
124 255 0.08718046545982361
125 126 0.35508519411087036
125 127 0.3521079421043396
125 128 0.3474520742893219
125 129 0.27391505241394043
125 131 0.352988064289093
125 132 0.35853952169418335
125 133 0.19215376675128937
125 134 0.34520095586776733
125 135 0.35336655378341675
125 138 0.3503718972206116
125 139 0.35971522331237793
125 140 0.23974165320396423
125 141 0.364401638507843
125 142 0.1554996520280838
125 143 0.3158494830131531
125 144 0.34993094205856323
125 145 0.48975518345832825
125 146 0.20293958485126495
125 147 0.3292817771434784
125 148 0.21705198287963867
125 149 0.36308586597442627
125 150 0.26900339126586914
125 151 0.37188422679901123
125 152 0.2865093946456909
125 153 0.2663237154483795
125 154 0.3003973960876465
125 155 0.09599758684635162
125 156 0.16162729263305664
125 157 0.3181304633617401
125 158 0.3275834918022156
125 159 0.5675641298294067
125 160 0.26444295048713684
125 161 0.3218863904476166
125 162 0.21652016043663025
125 163 0.18421903252601624
125 164 0.07844644784927368
125 165 0.3477502167224884
125 166 0.3561112582683563
125 167 0.3402180075645447
125 168 0.11766967922449112
125 169 0.17541159689426422
125 171 0.33223089575767517
125 172 0.30551230907440186
125 173 0.30407142639160156
125 174 0.33720386028289795
125 175 0.3336743116378784
125 176 0.15196353197097778
125 177 0.29448723793029785
125 178 0.37214964628219604
125 179 0.1113864853978157
125 180 0.35949796438217163
125 181 0.3687590956687927
125 182 0.35229259729385376
125 184 0.06201736629009247
125 185 0.3435892164707184
125 186 0.35261070728302
125 187 0.356633722782135
125 188 0.3710114657878876
125 189 0.37307682633399963
125 190 0.23153452575206757
125 191 0.4282699525356293
125 192 0.29429683089256287
125 193 0.36043781042099
125 194 0.1048051193356514
125 195 0.40699303150177
125 196 0.345663845539093
125 197 0.20889542996883392
125 198 0.3471573293209076
125 199 0.28818079829216003
125 200 0.28963005542755127
125 201 0.43292003870010376
125 203 0.14973047375679016
125 204 0.3488324284553528
125 205 0.32973712682724
125 207 0.3411436975002289
125 208 0.6216511726379395
125 209 0.35082319378852844
125 210 0.36159855127334595
125 212 0.3678514361381531
125 213 0.23563042283058167
125 214 0.30838489532470703
125 215 0.2769230604171753
125 216 0.30477702617645264
125 217 0.30616286396980286
125 218 0.3245052397251129
125 219 0.2137828916311264
125 221 0.27918189764022827
125 222 0.3913257122039795
125 223 0.34945154190063477
125 224 0.24199144542217255
125 225 0.33533763885498047
125 226 0.36684542894363403
125 227 0.15090817213058472
125 228 0.35797473788261414
125 229 0.12763068079948425
125 230 0.3583509624004364
125 231 0.4267239272594452
125 232 0.2116343230009079
125 233 0.31280454993247986
125 234 0.22859904170036316
125 235 0.35192352533340454
125 236 0.1961161196231842
125 238 0.3413650095462799
125 239 0.3171946704387665
125 240 0.34763240814208984
125 241 0.36327219009399414
125 242 0.37570059299468994
125 243 0.32166483998298645
125 244 0.14418745040893555
125 245 0.10853038728237152
125 246 0.3056773841381073
125 247 0.28373977541923523
125 248 0.3085360527038574
125 249 0.338087260723114
125 250 0.10080830007791519
125 251 0.34592205286026
125 252 0.3443334102630615
125 253 0.4019363820552826
125 254 0.35378068685531616
125 255 0.3670305609703064
126 127 0.9356629848480225
126 128 0.9424588680267334
126 129 0.9082415103912354
126 130 0.17417192459106445
126 131 0.9283954501152039
126 132 0.9547174572944641
126 133 0.17427557706832886
126 134 0.4862622022628784
126 135 0.9218437075614929
126 136 0.16457699239253998
126 137 0.5035702586174011
126 138 0.934343159198761
126 139 0.9460456967353821
126 140 0.647513747215271
126 141 0.9488866925239563
126 142 0.6375609636306763
126 143 0.9407464265823364
126 144 0.9246693849563599
126 145 0.240067720413208
126 146 0.7062283158302307
126 147 0.9355015158653259
126 148 0.8648939728736877
126 149 0.9400066137313843
126 150 0.7292683124542236
126 151 0.9307956099510193
126 152 0.8306605815887451
126 153 0.9371610283851624
126 154 0.9181573390960693
126 155 0.33079567551612854
126 156 0.8467311263084412
126 157 0.8807993531227112
126 158 0.9514478445053101
126 159 0.45546388626098633
126 160 0.06947056949138641
126 161 0.9332740902900696
126 162 0.45040464401245117
126 163 0.2258448302745819
126 164 0.07360107451677322
126 165 0.7780304551124573
126 166 0.9408266544342041
126 167 0.9465317130088806
126 168 0.19626952707767487
126 169 0.09874620288610458
126 170 0.09924367070198059
126 171 0.9345973134040833
126 172 0.919417142868042
126 173 0.7539347410202026
126 174 0.9379613995552063
126 175 0.939193069934845
126 176 0.7098845839500427
126 177 0.9007307291030884
126 178 0.910006582736969
126 179 0.21319326758384705
126 180 0.9529189467430115
126 181 0.9368129372596741
126 182 0.9340213537216187
126 183 0.35387834906578064
126 185 0.9452540874481201
126 186 0.9295547008514404
126 187 0.9304714202880859
126 188 0.8316991329193115
126 189 0.9251643419265747
126 190 0.8945561051368713
126 191 0.5449032783508301
126 192 0.9295098185539246
126 193 0.9490196108818054
126 194 0.8323298096656799
126 195 0.6530489921569824
126 196 0.9460456967353821
126 197 0.710980236530304
126 198 0.9354949593544006
126 199 0.738566517829895
126 200 0.9163092374801636
126 201 0.7632405161857605
126 202 0.2529735565185547
126 203 0.419439435005188
126 204 0.9596875905990601
126 205 0.9398458003997803
126 206 0.12315814942121506
126 207 0.9317064881324768
126 208 0.3247305452823639
126 209 0.93861985206604
126 210 0.9488866925239563
126 212 0.9364005327224731
126 213 0.9126904010772705
126 214 0.9396816492080688
126 215 0.7375956773757935
126 216 0.940101146697998
126 217 0.9466145634651184
126 218 0.8775657415390015
126 219 0.4999026656150818
126 220 0.1836026906967163
126 221 0.5816825032234192
126 222 0.8903504014015198
126 223 0.9414849877357483
126 224 0.4298708140850067
126 225 0.897508978843689
126 226 0.9478369355201721
126 227 0.47573256492614746
126 228 0.9457499384880066
126 229 0.0798315778374672
126 230 0.9350029826164246
126 231 0.2107192575931549
126 232 0.17139066755771637
126 233 0.6864064931869507
126 234 0.31571343541145325
126 235 0.9447591304779053
126 236 0.13984203338623047
126 238 0.8889859914779663
126 239 0.9448211193084717
126 240 0.9408266544342041
126 241 0.9437669515609741
126 242 0.9229940176010132
126 243 0.9157217144966125
126 244 0.059523846954107285
126 245 0.1803789585828781
126 246 0.9415590167045593
126 247 0.9078723788261414
126 248 0.9163117408752441
126 249 0.9478824138641357
126 250 0.3310359716415405
126 251 0.8841341137886047
126 252 0.9090383052825928
126 253 0.7186436653137207
126 254 0.9336836338043213
126 255 0.915401816368103
127 128 0.9572601318359375
127 129 0.8955854177474976
127 130 0.12237051874399185
127 131 0.9449682235717773
127 132 0.9527331590652466
127 133 0.17733171582221985
127 134 0.5900153517723083
127 135 0.9396185278892517
127 136 0.14245526492595673
127 137 0.4991907477378845
127 138 0.952686071395874
127 139 0.9678943753242493
127 140 0.703643798828125
127 141 0.9664543271064758
127 142 0.7031742930412292
127 143 0.9465345144271851
127 144 0.9412863850593567
127 145 0.2656519114971161
127 146 0.7545905113220215
127 147 0.9415015578269958
127 148 0.8377644419670105
127 149 0.9528800845146179
127 150 0.7787317633628845
127 151 0.9493395686149597
127 152 0.8833006620407104
127 153 0.9503510594367981
127 154 0.9478991031646729
127 155 0.29960429668426514
127 156 0.8194664716720581
127 157 0.9106860160827637
127 158 0.9484800100326538
127 159 0.4324006140232086
127 160 0.06833253055810928
127 161 0.9621498584747314
127 162 0.45216089487075806
127 163 0.2312122881412506
127 164 0.07239537686109543
127 165 0.7973777651786804
127 166 0.9567137360572815
127 167 0.9632019400596619
127 168 0.20753340423107147
127 169 0.09712859243154526
127 170 0.08785611391067505
127 171 0.9528301954269409
127 172 0.9362740516662598
127 173 0.779420018196106
127 174 0.9539769887924194
127 175 0.9572108387947083
127 176 0.6702072620391846
127 177 0.9251103401184082
127 178 0.9272969961166382
127 179 0.2014772742986679
127 180 0.9571624994277954
127 181 0.9528800845146179
127 182 0.9533299803733826
127 183 0.41967248916625977
127 185 0.958071231842041
127 186 0.9481911063194275
127 187 0.9478779435157776
127 188 0.830302894115448
127 189 0.9428495168685913
127 190 0.9270198345184326
127 191 0.505129337310791
127 192 0.9325686693191528
127 193 0.9554742574691772
127 194 0.7974787950515747
127 195 0.6576815843582153
127 196 0.9668569564819336
127 197 0.7485259175300598
127 198 0.9642878174781799
127 199 0.7082710266113281
127 200 0.9312350153923035
127 201 0.8052464723587036
127 202 0.315822035074234
127 203 0.5310090780258179
127 204 0.9616204500198364
127 205 0.9538305401802063
127 206 0.11248772591352463
127 207 0.9439581036567688
127 208 0.32251203060150146
127 209 0.9587531089782715
127 210 0.9716280698776245
127 212 0.9515873789787292
127 213 0.9353238940238953
127 214 0.9566643834114075
127 215 0.7070555090904236
127 216 0.9418447017669678
127 217 0.9642873406410217
127 218 0.8432249426841736
127 219 0.5180191397666931
127 220 0.1368144005537033
127 221 0.5472773909568787
127 222 0.8814078569412231
127 223 0.9543787240982056
127 224 0.5101737380027771
127 225 0.919725775718689
127 226 0.9583519697189331
127 227 0.5403585433959961
127 228 0.9543787240982056
127 229 0.11778571456670761
127 230 0.9532820582389832
127 231 0.22799408435821533
127 232 0.23437152802944183
127 233 0.7485197186470032
127 234 0.310541570186615
127 235 0.9607125520706177
127 236 0.11583259701728821
127 238 0.9083918333053589
127 239 0.9451665878295898
127 240 0.9567137360572815
127 241 0.9615716934204102
127 242 0.9377452731132507
127 243 0.9306734800338745
127 244 0.18096886575222015
127 245 0.1545306295156479
127 246 0.94636070728302
127 247 0.9232345819473267
127 248 0.9199185371398926
127 249 0.9522812366485596
127 250 0.33181527256965637
127 251 0.902675449848175
127 252 0.922636866569519
127 253 0.7166694402694702
127 254 0.9499843716621399
127 255 0.9334779381752014
128 129 0.9019818305969238
128 130 0.1704278290271759
128 131 0.9463774561882019
128 132 0.9550934433937073
128 133 0.16464892029762268
128 134 0.5886836647987366
128 135 0.9547773599624634
128 136 0.16103914380073547
128 137 0.5370153188705444
128 138 0.9571464657783508
128 139 0.9680211544036865
128 140 0.7100875377655029
128 141 0.9727515578269958
128 142 0.7223590612411499
128 143 0.9458300471305847
128 144 0.9574576020240784
128 145 0.2495887577533722
128 146 0.7316965460777283
128 147 0.945091187953949
128 148 0.867400586605072
128 149 0.9604250192642212
128 150 0.7837808132171631
128 151 0.9496552348136902
128 152 0.8648329377174377
128 153 0.9506672024726868
128 154 0.9408483505249023
128 155 0.31086549162864685
128 156 0.8382197022438049
128 157 0.9224821925163269
128 158 0.9540082812309265
128 159 0.42571747303009033
128 160 0.10682129114866257
128 161 0.9540082812309265
128 162 0.4066459536552429
128 163 0.13980995118618011
128 164 0.057615119963884354
128 165 0.8411198258399963
128 166 0.973534107208252
128 167 0.9685184359550476
128 168 0.1680440902709961
128 169 0.06441566348075867
128 170 0.10682129114866257
128 171 0.9614312052726746
128 172 0.9472814202308655
128 173 0.823043167591095
128 174 0.9677466750144958
128 175 0.9657326340675354
128 176 0.6608478426933289
128 177 0.9289510846138
128 178 0.9342193603515625
128 179 0.2536047101020813
128 180 0.9615405201911926
128 181 0.9645917415618896
128 182 0.9608922004699707
128 183 0.41994592547416687
128 185 0.9572601318359375
128 186 0.9485240578651428
128 187 0.953425943851471
128 188 0.8174698352813721
128 189 0.9474313259124756
128 190 0.9156587719917297
128 191 0.4852409362792969
128 192 0.9309292435646057
128 193 0.9578010439872742
128 194 0.7982977628707886
128 195 0.6359604597091675
128 196 0.9690532088279724
128 197 0.7591821551322937
128 198 0.9550934433937073
128 199 0.697625458240509
128 200 0.957236647605896
128 201 0.8146153688430786
128 202 0.326873779296875
128 203 0.5066465139389038
128 204 0.9669504165649414
128 205 0.9582651853561401
128 206 0.12051066756248474
128 207 0.9474713206291199
128 208 0.29615527391433716
128 209 0.9714298248291016
128 210 0.9727515578269958
128 212 0.9529218673706055
128 213 0.9422109127044678
128 214 0.9693518280982971
128 215 0.6963165998458862
128 216 0.934814989566803
128 217 0.9726819396018982
128 218 0.8551962375640869
128 219 0.4589616060256958
128 220 0.1850999891757965
128 221 0.5638753175735474
128 222 0.8891740441322327
128 223 0.9629787802696228
128 224 0.5193694829940796
128 225 0.9311462044715881
128 226 0.9647673964500427
128 227 0.5541737675666809
128 228 0.956718921661377
128 229 0.1327963024377823
128 230 0.9598132371902466
128 231 0.25155121088027954
128 232 0.2536047101020813
128 233 0.755438506603241
128 234 0.2451266050338745
128 235 0.9609277248382568
128 236 0.14403779804706573
128 238 0.9396403431892395
128 239 0.9601898193359375
128 240 0.9673068523406982
128 241 0.9669126868247986
128 242 0.9392364621162415
128 243 0.9428605437278748
128 244 0.19591259956359863
128 245 0.1708078235387802
128 246 0.9414393901824951
128 247 0.9388431310653687
128 248 0.9129558801651001
128 249 0.9619354605674744
128 250 0.28381550312042236
128 251 0.9231685400009155
128 252 0.913478672504425
128 253 0.7212973237037659
128 254 0.9523782730102539
128 255 0.9530331492424011
129 130 0.18160389363765717
129 131 0.8871555924415588
129 132 0.9230790138244629
129 133 0.09398894757032394
129 134 0.40153801441192627
129 135 0.9004730582237244
129 136 0.15787160396575928
129 137 0.5209558010101318
129 138 0.9006443619728088
129 139 0.9061371088027954
129 140 0.6090131402015686
129 141 0.9104014039039612
129 142 0.6176085472106934
129 143 0.8999903798103333
129 144 0.9035168290138245
129 145 0.21511143445968628
129 146 0.6959354877471924
129 147 0.8770864605903625
129 148 0.8718225359916687
129 149 0.9079678654670715
129 150 0.6855942606925964
129 151 0.8854390978813171
129 152 0.7983443737030029
129 153 0.9020708203315735
129 154 0.879347026348114
129 155 0.30734631419181824
129 156 0.8041267395019531
129 157 0.8350006937980652
129 158 0.9240522384643555
129 159 0.42055705189704895
129 160 0.0620870515704155
129 161 0.8984150886535645
129 162 0.4284709692001343
129 163 0.20664720237255096
129 164 0.07674165815114975
129 165 0.7745931148529053
129 166 0.9090856909751892
129 167 0.9242064356803894
129 168 0.18929608166217804
129 169 0.08007978647947311
129 170 0.09313058108091354
129 171 0.9078080058097839
129 172 0.912408173084259
129 173 0.7246074080467224
129 174 0.9081284999847412
129 175 0.9095580577850342
129 176 0.710443377494812
129 177 0.8688717484474182
129 178 0.8635097742080688
129 179 0.24844209849834442
129 180 0.9049667119979858
129 181 0.8990880250930786
129 182 0.8982785940170288
129 183 0.3140242397785187
129 185 0.9033634066581726
129 186 0.8828420042991638
129 187 0.8998399972915649
129 188 0.7414522171020508
129 189 0.8916475176811218
129 190 0.8490951657295227
129 191 0.486405611038208
129 192 0.8836570382118225
129 193 0.9028903245925903
129 194 0.8493245244026184
129 195 0.5882843732833862
129 196 0.9094361066818237
129 197 0.7145403623580933
129 198 0.8952418565750122
129 199 0.6810546517372131
129 200 0.9044079780578613
129 201 0.6999435424804688
129 202 0.23671488463878632
129 203 0.35991376638412476
129 204 0.9224801659584045
129 205 0.9165473580360413
129 206 0.11924096196889877
129 207 0.8929380178451538
129 208 0.22682034969329834
129 209 0.9044957160949707
129 210 0.9147889018058777
129 212 0.8982484936714172
129 213 0.8787826895713806
129 214 0.9044957160949707
129 215 0.7178982496261597
129 216 0.8927570581436157
129 217 0.9177625179290771
129 218 0.829112708568573
129 219 0.4075489640235901
129 220 0.17983484268188477
129 221 0.5669485330581665
129 222 0.8601518869400024
129 223 0.8971668481826782
129 224 0.4061277210712433
129 225 0.8575344085693359
129 226 0.9054645895957947
129 227 0.4448542892932892
129 228 0.9149544835090637
129 230 0.8947710394859314
129 231 0.18895120918750763
129 232 0.13511762022972107
129 233 0.6480141878128052
129 234 0.17532680928707123
129 235 0.9028903245925903
129 236 0.0997641533613205
129 238 0.8421258926391602
129 239 0.9135719537734985
129 240 0.9146153926849365
129 241 0.9091053605079651
129 242 0.880955159664154
129 243 0.8992316722869873
129 244 0.11284318566322327
129 245 0.12740617990493774
129 246 0.8959747552871704
129 247 0.8722104430198669
129 248 0.8787924647331238
129 249 0.931630551815033
129 250 0.23668210208415985
129 251 0.904356837272644
129 252 0.8549030423164368
129 253 0.6395087838172913
129 254 0.8942578434944153
129 255 0.8866095542907715
130 131 0.13604113459587097
130 132 0.15941622853279114
130 135 0.16094829142093658
130 136 0.22677867114543915
130 137 0.11293850094079971
130 138 0.16572214663028717
130 139 0.1574399173259735
130 140 0.08468496799468994
130 141 0.16307726502418518
130 142 0.13402384519577026
130 143 0.17323601245880127
130 144 0.1730506420135498
130 147 0.1618187576532364
130 148 0.19257748126983643
130 149 0.16502730548381805
130 150 0.12202724069356918
130 151 0.12944233417510986
130 153 0.17277368903160095
130 154 0.12447597086429596
130 155 0.16923992335796356
130 156 0.19900745153427124
130 157 0.12286994606256485
130 158 0.171860009431839
130 161 0.14117072522640228
130 164 0.08451543003320694
130 165 0.1585073620080948
130 166 0.17051629722118378
130 167 0.1635793000459671
130 171 0.16520018875598907
130 172 0.16767922043800354
130 173 0.19876596331596375
130 174 0.1709606945514679
130 175 0.1523257941007614
130 176 0.21542119979858398
130 177 0.11421724408864975
130 178 0.16914691030979156
130 179 0.09600307792425156
130 180 0.16468313336372375
130 181 0.158915176987648
130 182 0.1346781849861145
130 185 0.14684461057186127
130 186 0.14207279682159424
130 187 0.16598500311374664
130 189 0.09893900156021118
130 190 0.1790902316570282
130 191 0.05626864731311798
130 192 0.17579840123653412
130 193 0.1651136875152588
130 194 0.1966876983642578
130 195 0.08948568999767303
130 196 0.16955067217350006
130 197 0.15521140396595
130 198 0.11649647355079651
130 199 0.18791954219341278
130 200 0.17474080622196198
130 204 0.16972501575946808
130 205 0.15312373638153076
130 206 0.10101525485515594
130 207 0.14207279682159424
130 209 0.14630882441997528
130 210 0.11475807428359985
130 212 0.1536085605621338
130 213 0.175508052110672
130 214 0.1524050235748291
130 215 0.06629934906959534
130 216 0.1563599854707718
130 217 0.16946369409561157
130 218 0.1919429749250412
130 220 0.35138213634490967
130 221 0.20743495225906372
130 222 0.15151265263557434
130 223 0.1652868539094925
130 225 0.1521182507276535
130 226 0.17025130987167358
130 227 0.06503324955701828
130 228 0.15916511416435242
130 229 0.09166985005140305
130 230 0.12869155406951904
130 232 0.07200230658054352
130 235 0.13453708589076996
130 238 0.15990199148654938
130 239 0.17240646481513977
130 240 0.17051629722118378
130 241 0.1516963392496109
130 242 0.1307707130908966
130 243 0.1748361587524414
130 245 0.10022296011447906
130 246 0.17398352921009064
130 247 0.16387566924095154
130 248 0.15341806411743164
130 249 0.17140857875347137
130 250 0.09050607681274414
130 251 0.17349089682102203
130 252 0.10873336344957352
130 253 0.11438579857349396
130 254 0.15983740985393524
130 255 0.16190658509731293
131 132 0.9416475296020508
131 133 0.1792202889919281
131 134 0.5768927931785583
131 135 0.928189218044281
131 136 0.1636049896478653
131 137 0.5181952714920044
131 138 0.9447658061981201
131 139 0.9561850428581238
131 140 0.6818123459815979
131 141 0.954785943031311
131 142 0.687457799911499
131 143 0.9384040236473083
131 144 0.9299091696739197
131 145 0.27593886852264404
131 146 0.7474845051765442
131 147 0.936441957950592
131 148 0.8371598720550537
131 149 0.9418628215789795
131 150 0.7658970355987549
131 151 0.9487775564193726
131 152 0.8668661713600159
131 153 0.9337628483772278
131 154 0.940752387046814
131 155 0.2995392382144928
131 156 0.7998899221420288
131 157 0.8979910612106323
131 158 0.9383894205093384
131 159 0.42574265599250793
131 160 0.08879177272319794
131 161 0.9437031149864197
131 162 0.46390023827552795
131 163 0.23367469012737274
131 164 0.0731663778424263
131 165 0.7784252762794495
131 166 0.9458142518997192
131 167 0.9524803161621094
131 168 0.2194991409778595
131 169 0.09816300123929977
131 170 0.09865752607584
131 171 0.9460276961326599
131 172 0.9268903136253357
131 173 0.7686014175415039
131 174 0.9440506100654602
131 175 0.9452507495880127
131 176 0.6683932542800903
131 177 0.9228774905204773
131 178 0.917648196220398
131 179 0.2534898519515991
131 180 0.9494031071662903
131 181 0.9418628215789795
131 182 0.9433440566062927
131 183 0.41416215896606445
131 185 0.9470870494842529
131 186 0.9347598552703857
131 187 0.935620129108429
131 188 0.8169002532958984
131 189 0.9550321102142334
131 190 0.8992396593093872
131 191 0.5280455350875854
131 192 0.9185846447944641
131 193 0.9455322623252869
131 194 0.803449273109436
131 195 0.6491920351982117
131 196 0.9530396461486816
131 197 0.7296239137649536
131 198 0.9596949219703674
131 199 0.7030821442604065
131 200 0.9195417165756226
131 201 0.7950417995452881
131 202 0.3191854953765869
131 203 0.5226990580558777
131 204 0.9508710503578186
131 205 0.947020947933197
131 206 0.10494066029787064
131 207 0.9379684329032898
131 208 0.32281264662742615
131 209 0.9446869492530823
131 210 0.9568774104118347
131 212 0.9404447674751282
131 213 0.923579216003418
131 214 0.9499645233154297
131 215 0.698801577091217
131 216 0.9258854985237122
131 217 0.9535987377166748
131 218 0.8403360843658447
131 219 0.523535966873169
131 220 0.17698748409748077
131 221 0.531556248664856
131 222 0.8679832220077515
131 223 0.941224217414856
131 224 0.4975508153438568
131 225 0.910864531993866
131 226 0.947502851486206
131 227 0.5273465514183044
131 228 0.9454638957977295
131 229 0.10316810011863708
131 230 0.9400913119316101
131 231 0.2304222136735916
131 232 0.23271198570728302
131 233 0.7345243096351624
131 234 0.3138487935066223
131 235 0.9455322623252869
131 236 0.10243292897939682
131 238 0.894809901714325
131 239 0.9339104294776917
131 240 0.948977530002594
131 241 0.9518508315086365
131 242 0.9380284547805786
131 243 0.9211246967315674
131 244 0.18827547132968903
131 245 0.1619606763124466
131 246 0.9263153672218323
131 247 0.9199713468551636
131 248 0.91422039270401
131 249 0.941224217414856
131 250 0.33848315477371216
131 251 0.8889253735542297
131 252 0.9025620222091675
131 253 0.7129846811294556
131 254 0.938813328742981
131 255 0.9218555092811584
132 133 0.16585767269134521
132 134 0.528282105922699
132 135 0.9469083547592163
132 136 0.12977713346481323
132 137 0.5176908373832703
132 138 0.9462597370147705
132 139 0.960573673248291
132 140 0.6658692955970764
132 141 0.965376079082489
132 142 0.6615110635757446
132 143 0.9432142376899719
132 144 0.943265974521637
132 145 0.27730271220207214
132 146 0.7152292728424072
132 147 0.9381391406059265
132 148 0.8655032515525818
132 149 0.9632786512374878
132 150 0.7463265061378479
132 151 0.9492195844650269
132 152 0.8478884696960449
132 153 0.9438750147819519
132 154 0.9338651299476624
132 155 0.31960436701774597
132 156 0.8285109400749207
132 157 0.8948377966880798
132 158 0.956797182559967
132 159 0.466813325881958
132 160 0.08804087340831757
132 161 0.950474739074707
132 162 0.4554002583026886
132 163 0.23169852793216705
132 164 0.07254762947559357
132 165 0.8015285134315491
132 166 0.9576802253723145
132 167 0.9641875624656677
132 168 0.2128063589334488
132 169 0.09733285009860992
132 170 0.10760551691055298
132 171 0.9495818614959717
132 172 0.9382430911064148
132 173 0.7696845531463623
132 174 0.9517903327941895
132 175 0.9539936780929565
132 176 0.7026827335357666
132 177 0.9183409810066223
132 178 0.926020622253418
132 179 0.24310527741909027
132 180 0.9570811986923218
132 181 0.9559334516525269
132 182 0.9500799775123596
132 183 0.34881332516670227
132 185 0.9590356945991516
132 186 0.9395804405212402
132 187 0.9445942640304565
132 188 0.8161188364028931
132 189 0.94270920753479
132 190 0.9037137627601624
132 191 0.5429002046585083
132 192 0.9323741793632507
132 193 0.9648327231407166
132 194 0.8229179978370667
132 195 0.6529195308685303
132 196 0.9616132974624634
132 197 0.7381091713905334
132 198 0.9505263566970825
132 199 0.7350088953971863
132 200 0.9321221113204956
132 201 0.7945254445075989
132 202 0.25574642419815063
132 203 0.45102113485336304
132 204 0.9761305451393127
132 205 0.9589911103248596
132 206 0.11272429674863815
132 207 0.9448828101158142
132 208 0.33251306414604187
132 209 0.9534433484077454
132 210 0.965376079082489
132 212 0.9514789581298828
132 213 0.9243776202201843
132 214 0.9534433484077454
132 215 0.7355751395225525
132 216 0.9416779279708862
132 217 0.961120069026947
132 218 0.8767740726470947
132 219 0.488692045211792
132 220 0.17549073696136475
132 221 0.5751374959945679
132 222 0.9070112109184265
132 223 0.9490290284156799
132 224 0.4833966791629791
132 225 0.9129548072814941
132 226 0.963499128818512
132 227 0.4968355596065521
132 228 0.9553348422050476
132 229 0.07868894934654236
132 230 0.9489744305610657
132 231 0.22847357392311096
132 232 0.18953970074653625
132 233 0.7146992683410645
132 234 0.29766443371772766
132 235 0.9574836492538452
132 236 0.10882143676280975
132 238 0.9081060290336609
132 239 0.95455402135849
132 240 0.9597712159156799
132 241 0.9625522494316101
132 242 0.9333028793334961
132 243 0.9347746968269348
132 244 0.13334518671035767
132 245 0.17206180095672607
132 246 0.94621741771698
132 247 0.9208478927612305
132 248 0.9262429475784302
132 249 0.9626917243003845
132 250 0.3200826644897461
132 251 0.9089863300323486
132 252 0.9223809838294983
132 253 0.7097604870796204
132 254 0.9477605223655701
132 255 0.9354410767555237
133 134 0.1870310753583908
133 135 0.1674516648054123
133 137 0.05455447733402252
133 138 0.17789201438426971
133 139 0.16380152106285095
133 140 0.22089630365371704
133 141 0.1692177951335907
133 142 0.1375717967748642
133 143 0.17931631207466125
133 144 0.1074746623635292
133 145 0.14564381539821625
133 146 0.10753335803747177
133 147 0.17437006533145905
133 148 0.09302376210689545
133 149 0.16533638536930084
133 150 0.21367472410202026
133 151 0.17864739894866943
133 152 0.176958829164505
133 153 0.13114769756793976
133 154 0.16835729777812958
133 156 0.13046176731586456
133 157 0.1561889946460724
133 158 0.16603253781795502
133 159 0.11312033236026764
133 161 0.1541730761528015
133 162 0.14165571331977844
133 163 0.1022619977593422
133 165 0.1600932478904724
133 166 0.17061775922775269
133 167 0.1580326110124588
133 169 0.06085805967450142
133 171 0.17733171582221985
133 172 0.10199592262506485
133 173 0.09956912696361542
133 174 0.1533662974834442
133 175 0.1353878378868103
133 177 0.17164675891399384
133 178 0.17551597952842712
133 180 0.1767767071723938
133 181 0.15943151712417603
133 182 0.17742474377155304
133 185 0.15959854423999786
133 186 0.1730610877275467
133 187 0.1662958711385727
133 188 0.18618474900722504
133 189 0.16727226972579956
133 190 0.17301759123802185
133 191 0.13046561181545258
133 192 0.1577061414718628
133 193 0.17133089900016785
133 194 0.10556576400995255
133 195 0.1556124985218048
133 196 0.1579514592885971
133 197 0.05248195677995682
133 198 0.17178116738796234
133 199 0.06314696371555328
133 200 0.13867001235485077
133 201 0.16067816317081451
133 203 0.10018569976091385
133 204 0.16982601583003998
133 205 0.13017979264259338
133 207 0.16112583875656128
133 208 0.20984922349452972
133 209 0.13545827567577362
133 210 0.17505289614200592
133 212 0.15433597564697266
133 213 0.15139009058475494
133 214 0.15901623666286469
133 215 0.13610893487930298
133 216 0.16918505728244781
133 217 0.16956454515457153
133 218 0.1854345202445984
133 219 0.2396286278963089
133 221 0.07014042139053345
133 222 0.18455994129180908
133 223 0.17742474377155304
133 224 0.1455264389514923
133 225 0.14083686470985413
133 226 0.17035260796546936
133 228 0.14785394072532654
133 229 0.08856149017810822
133 230 0.16577045619487762
133 233 0.19151605665683746
133 234 0.20938143134117126
133 235 0.17133089900016785
133 238 0.1668383926153183
133 239 0.1546633094549179
133 240 0.14120090007781982
133 241 0.12310418486595154
133 242 0.17446468770503998
133 243 0.13874568045139313
133 246 0.1740870475769043
133 247 0.1644081324338913
133 248 0.1605672687292099
133 249 0.17151057720184326
133 250 0.13989949226379395
133 251 0.14898499846458435
133 252 0.1791967898607254
133 253 0.2210143655538559
133 254 0.15441758930683136
133 255 0.12032048404216766
134 135 0.5616165995597839
134 137 0.2416590303182602
134 138 0.5866261124610901
134 139 0.5856538414955139
134 140 0.6668301224708557
134 141 0.58243328332901
134 142 0.6739240884780884
134 143 0.5507246851921082
134 144 0.5518985986709595
134 145 0.2519180476665497
134 146 0.4218999743461609
134 147 0.5575514435768127
134 148 0.3492748439311981
134 149 0.5702162981033325
134 150 0.6658218502998352
134 151 0.5680144429206848
134 152 0.6329038143157959
134 153 0.524608850479126
134 154 0.5859616994857788
134 156 0.367019921541214
134 157 0.6236035227775574
134 158 0.5218345522880554
134 159 0.2523995041847229
134 160 0.11379481106996536
134 161 0.5638615489006042
134 162 0.19395141303539276
134 163 0.09059765189886093
134 165 0.5919963717460632
134 166 0.5855143666267395
134 167 0.5652129650115967
134 168 0.07233642786741257
134 170 0.08128201216459274
134 171 0.5830329060554504
134 172 0.5315407514572144
134 173 0.598581075668335
134 174 0.5870403051376343
134 175 0.5788652300834656
134 176 0.05162589251995087
134 177 0.6028415560722351
134 178 0.6041110754013062
134 179 0.10271082073450089
134 180 0.5464051961898804
134 181 0.5911416411399841
134 182 0.5885782241821289
134 183 0.3535533845424652
134 185 0.5638312101364136
134 186 0.5886123180389404
134 187 0.5875565409660339
134 188 0.5579719543457031
134 189 0.5768927931785583
134 190 0.5583867430686951
134 191 0.17016573250293732
134 192 0.5158805847167969
134 193 0.5617912411689758
134 194 0.26810377836227417
134 195 0.3701871633529663
134 196 0.5631951093673706
134 197 0.38746410608291626
134 198 0.5772619247436523
134 199 0.23776288330554962
134 200 0.5377037525177002
134 201 0.6993750333786011
134 202 0.29218965768814087
134 203 0.5851465463638306
134 204 0.5482099056243896
134 205 0.5609282851219177
134 207 0.570989191532135
134 208 0.309855192899704
134 209 0.5948194861412048
134 210 0.5876027941703796
134 212 0.5469275712966919
134 213 0.5776188373565674
134 214 0.5722094178199768
134 215 0.21043069660663605
134 216 0.5014085173606873
134 217 0.5801733136177063
134 218 0.41266384720802307
134 219 0.3673053979873657
134 220 0.06379473209381104
134 221 0.11540278792381287
134 222 0.5111986994743347
134 223 0.5746060609817505
134 224 0.6876117587089539
134 225 0.6021630764007568
134 226 0.5620529651641846
134 227 0.42673975229263306
134 228 0.5536477565765381
134 229 0.1830730140209198
134 230 0.5857001543045044
134 231 0.18638871610164642
134 232 0.35606417059898376
134 233 0.7239300608634949
134 234 0.24733157455921173
134 235 0.5722593665122986
134 236 0.2170092612504959
134 238 0.6058313846588135
134 239 0.5182238221168518
134 240 0.5611903071403503
134 241 0.5885912775993347
134 242 0.5614073276519775
134 243 0.5451229810714722
134 244 0.2659139931201935
134 245 0.08578044176101685
134 246 0.5318279266357422
134 247 0.5628404021263123
134 248 0.47417476773262024
134 249 0.534436047077179
134 250 0.222062885761261
134 251 0.5114662051200867
134 252 0.572985053062439
134 253 0.5617730617523193
134 254 0.559494137763977
134 255 0.5827265381813049
135 136 0.16378043591976166
135 137 0.5441991686820984
135 138 0.9415234327316284
135 139 0.9509129524230957
135 140 0.6796078085899353
135 141 0.9579035043716431
135 142 0.6867430806159973
135 143 0.927614152431488
135 144 0.940547525882721
135 145 0.279967725276947
135 146 0.7248590588569641
135 147 0.9223434925079346
135 148 0.8571315407752991
135 149 0.9481698274612427
135 150 0.7297043800354004
135 151 0.9348375797271729
135 152 0.8407506942749023
135 153 0.9326251149177551
135 154 0.9234222769737244
135 155 0.2900823950767517
135 156 0.8192265033721924
135 157 0.8911077380180359
135 158 0.9372679591178894
135 159 0.46453458070755005
135 160 0.108639657497406
135 161 0.9362041354179382
135 162 0.43898293375968933
135 163 0.21557818353176117
135 164 0.0732448473572731
135 165 0.8329591155052185
135 166 0.9637173414230347
135 167 0.9503512978553772
135 168 0.19043658673763275
135 169 0.07643087208271027
135 170 0.108639657497406
135 171 0.9481027126312256
135 172 0.9343428611755371
135 173 0.7885655164718628
135 174 0.9461212754249573
135 175 0.9568253755569458
135 176 0.6691100001335144
135 177 0.9018703699111938
135 178 0.9197182059288025
135 179 0.24960164725780487
135 180 0.9461923837661743
135 181 0.9587638974189758
135 182 0.9485999941825867
135 183 0.3696489930152893
135 185 0.9396185278892517
135 186 0.9293383359909058
135 187 0.9440822601318359
135 188 0.7856096029281616
135 189 0.9356918334960938
135 190 0.8968781232833862
135 191 0.5130069255828857
135 192 0.911952018737793
135 193 0.9412464499473572
135 194 0.7740072011947632
135 195 0.6591944098472595
135 196 0.9530121088027954
135 197 0.7788311243057251
135 198 0.9373435974121094
135 199 0.6981714367866516
135 200 0.9324266314506531
135 201 0.807174801826477
135 202 0.3195277750492096
135 203 0.4553556442260742
135 204 0.9529414176940918
135 205 0.9395433664321899
135 206 0.12256206572055817
135 207 0.9293383359909058
135 208 0.3231588304042816
135 209 0.9604930877685547
135 210 0.9589504599571228
135 212 0.9382582306861877
135 213 0.9169645309448242
135 214 0.9478132724761963
135 215 0.7196612358093262
135 216 0.9160377383232117
135 217 0.9556703567504883
135 218 0.8483664393424988
135 219 0.45039620995521545
135 220 0.16610369086265564
135 221 0.5896534323692322
135 222 0.895175576210022
135 223 0.9411724209785461
135 224 0.5041096210479736
135 225 0.920630156993866
135 226 0.9580040574073792
135 227 0.5316694378852844
135 228 0.9401113390922546
135 229 0.12711229920387268
135 230 0.9495969414710999
135 231 0.255833238363266
135 232 0.2579216957092285
135 233 0.7174445986747742
135 234 0.2151486724615097
135 235 0.9412464499473572
135 236 0.12451623380184174
135 238 0.9245938062667847
135 239 0.9370464086532593
135 240 0.9658284187316895
135 241 0.9560267925262451
135 242 0.9206854104995728
135 243 0.9383468627929688
135 244 0.19924750924110413
135 245 0.12160077691078186
135 246 0.924077570438385
135 247 0.9220503568649292
135 248 0.8996888995170593
135 249 0.9496610164642334
135 250 0.19452278316020966
135 251 0.925518274307251
135 252 0.8990954160690308
135 253 0.7038360834121704
135 254 0.934492290019989
135 255 0.9595419764518738
136 137 0.11952286958694458
136 138 0.15589673817157745
136 139 0.15380191802978516
136 140 0.13443320989608765
136 141 0.1598006933927536
136 142 0.18616174161434174
136 143 0.1636926531791687
136 144 0.16351747512817383
136 146 0.12621095776557922
136 147 0.1580795794725418
136 148 0.1746898740530014
136 149 0.1487746387720108
136 150 0.15335552394390106
136 151 0.14351218938827515
136 152 0.13641205430030823
136 153 0.16325579583644867
136 154 0.13831964135169983
136 156 0.18804435431957245
136 157 0.1163455992937088
136 158 0.16239243745803833
136 161 0.1429053544998169
136 162 0.155176043510437
136 165 0.08387421816587448
136 166 0.16112273931503296
136 167 0.13464581966400146
136 171 0.1618809700012207
136 172 0.15773779153823853
136 173 0.17919056117534637
136 174 0.15508095920085907
136 175 0.12896518409252167
136 176 0.20062273740768433
136 177 0.134306862950325
136 178 0.16574838757514954
136 180 0.1613743007183075
136 181 0.12290078401565552
136 182 0.15548723936080933
136 185 0.11007906496524811
136 186 0.1307440996170044
136 187 0.162650004029274
136 188 0.0528772734105587
136 189 0.14397241175174713
136 190 0.16922436654567719
136 191 0.059549134224653244
136 192 0.15946930646896362
136 193 0.1617961972951889
136 194 0.16960753500461578
136 195 0.1988757699728012
136 196 0.16021032631397247
136 197 0.20532537996768951
136 198 0.15573255717754364
136 199 0.12105455249547958
136 200 0.16511455178260803
136 204 0.15396006405353546
136 205 0.1490868777036667
136 206 0.37416574358940125
136 207 0.11766969412565231
136 209 0.13548387587070465
136 210 0.13423259556293488
136 212 0.1495589017868042
136 213 0.1658395379781723
136 214 0.16129031777381897
136 215 0.07893522083759308
136 216 0.1456187665462494
136 217 0.15372303128242493
136 218 0.17411428689956665
136 219 0.10000000894069672
136 220 0.06761234253644943
136 221 0.1865992397069931
136 222 0.13245967030525208
136 223 0.16196587681770325
136 225 0.16769461333751678
136 226 0.14800257980823517
136 228 0.16196587681770325
136 230 0.13619433343410492
136 232 0.10160010308027267
136 233 0.07552631944417953
136 235 0.1359088122844696
136 238 0.1150725707411766
136 239 0.156392440199852
136 240 0.16112273931503296
136 241 0.12201064825057983
136 242 0.15816538035869598
136 243 0.13216373324394226
136 246 0.16439896821975708
136 247 0.16675932705402374
136 248 0.15559732913970947
136 249 0.15548723936080933
136 251 0.17000509798526764
136 252 0.06092077121138573
136 253 0.12105455249547958
136 254 0.162650004029274
136 255 0.15816538035869598
137 138 0.5415281057357788
137 139 0.5170175433158875
137 140 0.4177638590335846
137 141 0.5176056027412415
137 142 0.4873937666416168
137 143 0.508690357208252
137 144 0.5355077385902405
137 145 0.06129402667284012
137 146 0.5430634021759033
137 147 0.5235247015953064
137 148 0.5763593912124634
137 149 0.5199293494224548
137 150 0.47029614448547363
137 151 0.4950975477695465
137 152 0.5191651582717896
137 153 0.5229430198669434
137 154 0.5471423864364624
137 155 0.1367691457271576
137 156 0.5573948621749878
137 157 0.5439684391021729
137 158 0.5357052683830261
137 161 0.5124136805534363
137 162 0.09695067256689072
137 165 0.551368772983551
137 166 0.5353683233261108
137 167 0.5306941866874695
137 170 0.12613123655319214
137 171 0.5378877520561218
137 172 0.54792320728302
137 173 0.4842187762260437
137 174 0.5406251549720764
137 175 0.5260124802589417
137 176 0.3079122006893158
137 177 0.5518129467964172
137 178 0.4913058876991272
137 179 0.2580501437187195
137 180 0.5284889936447144
137 181 0.527660608291626
137 182 0.4975166618824005
137 183 0.39188191294670105
137 185 0.5204740762710571
137 186 0.5235013961791992
137 187 0.517114520072937
137 188 0.3995169699192047
137 189 0.4927743375301361
137 190 0.5016092658042908
137 191 0.11032098531723022
137 192 0.4884183704853058
137 193 0.4757232666015625
137 194 0.5229249000549316
137 195 0.09904249757528305
137 196 0.524677038192749
137 197 0.4270147383213043
137 198 0.5254464745521545
137 199 0.25320377945899963
137 200 0.5506054759025574
137 201 0.42990103363990784
137 202 0.45930057764053345
137 203 0.19676080346107483
137 204 0.5290502905845642
137 205 0.5229573845863342
137 206 0.11180340498685837
137 207 0.5078745484352112
137 209 0.5320695638656616
137 210 0.5252454876899719
137 212 0.4838099181652069
137 213 0.5391479730606079
137 214 0.5397806763648987
137 215 0.3852446973323822
137 216 0.5082983374595642
137 217 0.5358912944793701
137 218 0.3988706171512604
137 219 0.153138667345047
137 220 0.12121830880641937
137 221 0.17383123934268951
137 222 0.4374620318412781
137 223 0.5265546441078186
137 224 0.17954622209072113
137 225 0.5431745648384094
137 226 0.5268451571464539
137 227 0.335900217294693
137 228 0.5188111662864685
137 230 0.5329217314720154
137 232 0.16697362065315247
137 233 0.4689088463783264
137 235 0.5085984468460083
137 238 0.5501521229743958
137 239 0.5432500839233398
137 240 0.5372940301895142
137 241 0.5238389372825623
137 242 0.4233793020248413
137 243 0.5469567775726318
137 244 0.15719550848007202
137 246 0.4853411018848419
137 247 0.5381519198417664
137 248 0.47908616065979004
137 249 0.5342980623245239
137 251 0.5425305366516113
137 252 0.4530664086341858
137 253 0.2402852177619934
137 254 0.524890661239624
137 255 0.5474393367767334
138 139 0.9605457186698914
138 140 0.7160547375679016
138 141 0.9622417688369751
138 142 0.7169126868247986
138 143 0.9484617710113525
138 144 0.9421360492706299
138 145 0.2590886950492859
138 146 0.728280782699585
138 147 0.9476851224899292
138 148 0.8439574837684631
138 149 0.9527395367622375
138 150 0.7942994236946106
138 151 0.9428050518035889
138 152 0.8686028718948364
138 153 0.9438096880912781
138 154 0.9327104687690735
138 155 0.2553066909313202
138 156 0.8342704176902771
138 157 0.9002267718315125
138 158 0.9514768123626709
138 159 0.42258724570274353
138 160 0.10771896690130234
138 161 0.9462024569511414
138 162 0.41235408186912537
138 163 0.17736802995204926
138 164 0.07262410968542099
138 165 0.8296146392822266
138 166 0.9576432704925537
138 167 0.9641628861427307
138 168 0.13072340190410614
138 169 0.0757831409573555
138 170 0.10771896690130234
138 171 0.9589953422546387
138 172 0.938165009021759
138 173 0.8135122060775757
138 174 0.9632871150970459
138 175 0.9529051184654236
138 176 0.6427069902420044
138 177 0.9291238784790039
138 178 0.9356101155281067
138 179 0.22686249017715454
138 180 0.9612349271774292
138 181 0.9506386518478394
138 182 0.9479253888130188
138 183 0.40613970160484314
138 185 0.9495315551757812
138 186 0.9426943063735962
138 187 0.9529858827590942
138 188 0.8243395090103149
138 189 0.9426403045654297
138 190 0.9101627469062805
138 191 0.4796483814716339
138 192 0.922566831111908
138 193 0.9511362314224243
138 194 0.8175258040428162
138 195 0.6090088486671448
138 196 0.9595050811767578
138 197 0.7282174825668335
138 198 0.9525821805000305
138 199 0.6838296055793762
138 200 0.9406125545501709
138 201 0.7978485822677612
138 202 0.32962068915367126
138 203 0.5069435834884644
138 204 0.9584081768989563
138 205 0.9557915925979614
138 206 0.10416289418935776
138 207 0.9469406008720398
138 208 0.29242226481437683
138 209 0.9523531198501587
138 210 0.9622417688369751
138 212 0.9440343379974365
138 213 0.9361246228218079
138 214 0.9575915932655334
138 215 0.6865010261535645
138 216 0.9297721982002258
138 217 0.9662938714027405
138 218 0.8364642858505249
138 219 0.49732688069343567
138 220 0.19214533269405365
138 221 0.5329641699790955
138 222 0.8909855484962463
138 223 0.9542378783226013
138 224 0.5257253646850586
138 225 0.9291674494743347
138 226 0.9561551213264465
138 227 0.5029476881027222
138 228 0.9531857967376709
138 229 0.12603504955768585
138 230 0.9510281085968018
138 231 0.2453482300043106
138 232 0.2516111135482788
138 233 0.7645123600959778
138 234 0.2776615619659424
138 235 0.9500852227210999
138 236 0.13072340190410614
138 238 0.9101627469062805
138 239 0.947094738483429
138 240 0.9534569382667542
138 241 0.9583529233932495
138 242 0.9310762882232666
138 243 0.9303945899009705
138 244 0.1975589394569397
138 245 0.18372607231140137
138 246 0.9344004392623901
138 247 0.9348173141479492
138 248 0.9052475094795227
138 249 0.9521337151527405
138 250 0.32975277304649353
138 251 0.9066317081451416
138 252 0.9112619161605835
138 253 0.7315713167190552
138 254 0.9466466903686523
138 255 0.9310762882232666
139 140 0.7078688144683838
139 141 0.9779857993125916
139 142 0.7129603624343872
139 143 0.9525012969970703
139 144 0.9525298476219177
139 145 0.27021336555480957
139 146 0.7494990825653076
139 147 0.9486690759658813
139 148 0.8559395670890808
139 149 0.9637725353240967
139 150 0.7862125039100647
139 151 0.9552186131477356
139 152 0.8799360394477844
139 153 0.9551902413368225
139 154 0.9486690759658813
139 155 0.3092655539512634
139 156 0.8278802633285522
139 157 0.9177344441413879
139 158 0.9595050811767578
139 159 0.45882028341293335
139 160 0.10627152025699615
139 161 0.9730339050292969
139 162 0.4542746841907501
139 163 0.2288261353969574
139 164 0.07164823263883591
139 165 0.8086941242218018
139 166 0.9674910306930542
139 167 0.9727786779403687
139 168 0.2149447202682495
139 169 0.09612619876861572
139 170 0.10627152025699615
139 171 0.9627074003219604
139 172 0.9476708769798279
139 173 0.792595386505127
139 174 0.9648363590240479
139 175 0.9700599908828735
139 176 0.674978494644165
139 177 0.9284734725952148
139 178 0.9442817568778992
139 179 0.24416078627109528
139 180 0.9658991694450378
139 181 0.9637725353240967
139 182 0.9621744155883789
139 183 0.41778457164764404
139 185 0.9668569564819336
139 186 0.956210196018219
139 187 0.9578999280929565
139 188 0.8374667763710022
139 189 0.9593303203582764
139 190 0.9250441193580627
139 191 0.518997073173523
139 192 0.9410413503646851
139 193 0.9632400870323181
139 194 0.8065405488014221
139 195 0.6660665273666382
139 196 0.9733060002326965
139 197 0.7526432871818542
139 198 0.9699299335479736
139 199 0.7148144841194153
139 200 0.9427869319915771
139 201 0.816552996635437
139 202 0.3220342695713043
139 203 0.5255289673805237
139 204 0.972251296043396
139 205 0.9616411924362183
139 206 0.11132682859897614
139 207 0.953068196773529
139 208 0.32839086651802063
139 209 0.9674636721611023
139 210 0.9759377241134644
139 212 0.9636442065238953
139 213 0.9416126608848572
139 214 0.9664300680160522
139 215 0.6983533501625061
139 216 0.9427290558815002
139 217 0.973832905292511
139 218 0.8542816042900085
139 219 0.5126730799674988
139 220 0.18414732813835144
139 221 0.546904981136322
139 222 0.8901822566986084
139 223 0.9652882218360901
139 224 0.5166963934898376
139 225 0.9285030961036682
139 226 0.96908038854599
139 227 0.5458083748817444
139 228 0.9621744155883789
139 229 0.13211283087730408
139 230 0.9642246961593628
139 231 0.2502565383911133
139 232 0.24823014438152313
139 233 0.7502060532569885
139 234 0.3073367178440094
139 235 0.9663506746292114
139 236 0.14329646527767181
139 238 0.9185373783111572
139 239 0.9562920928001404
139 240 0.9674910306930542
139 241 0.9711955189704895
139 242 0.9460164904594421
139 243 0.9422426819801331
139 244 0.19490428268909454
139 245 0.17559300363063812
139 246 0.947129487991333
139 247 0.9340112209320068
139 248 0.9255985617637634
139 249 0.9621744155883789
139 250 0.33452898263931274
139 251 0.9140594005584717
139 252 0.922875165939331
139 253 0.7314380407333374
139 254 0.9578999280929565
139 255 0.9449607133865356
140 141 0.7003301382064819
140 142 0.7944863438606262
140 143 0.6968480944633484
140 144 0.6697237491607666
140 145 0.15830755233764648
140 146 0.525975227355957
140 147 0.6980411410331726
140 148 0.5463320016860962
140 149 0.7058059573173523
140 150 0.8481525182723999
140 151 0.6767097115516663
140 152 0.757661759853363
140 153 0.6759676337242126
140 154 0.7054200172424316
140 156 0.5864822268486023
140 157 0.7237663865089417
140 158 0.6753036379814148
140 159 0.19435003399848938
140 160 0.05404418706893921
140 161 0.6825806498527527
140 162 0.29078713059425354
140 163 0.06274805217981339
140 165 0.6867792010307312
140 166 0.7090121507644653
140 167 0.6996129751205444
140 168 0.06680040806531906
140 171 0.7094470262527466
140 172 0.6744431257247925
140 173 0.6423776745796204
140 174 0.7108599543571472
140 175 0.6877090334892273
140 176 0.1879752278327942
140 177 0.7267258763313293
140 178 0.7085704207420349
140 179 0.05691011995077133
140 180 0.6739623546600342
140 181 0.6855158805847168
140 182 0.6909487247467041
140 183 0.3075130879878998
140 185 0.6731767058372498
140 186 0.7074480056762695
140 187 0.6909518241882324
140 188 0.6583789587020874
140 189 0.6774135231971741
140 190 0.7219135165214539
140 191 0.10673841834068298
140 192 0.6803579330444336
140 193 0.6931249499320984
140 194 0.5544760823249817
140 195 0.3225235939025879
140 196 0.6863312125205994
140 197 0.3993169069290161
140 198 0.7036697268486023
140 199 0.25573039054870605
140 200 0.6881032586097717
140 201 0.6549955606460571
140 202 0.2163529396057129
140 203 0.4562739431858063
140 204 0.6855996251106262
140 205 0.6840499043464661
140 206 0.059881314635276794
140 207 0.6825482249259949
140 208 0.20172974467277527
140 209 0.7054130434989929
140 210 0.6974658370018005
140 212 0.6570770740509033
140 213 0.7163915038108826
140 214 0.6909578442573547
140 215 0.2790435552597046
140 216 0.6406689882278442
140 217 0.7046354413032532
140 218 0.5965468883514404
140 219 0.44250932335853577
140 220 0.1893613189458847
140 221 0.12542568147182465
140 222 0.6701048016548157
140 223 0.7112707495689392
140 224 0.6511677503585815
140 225 0.7048671245574951
140 226 0.6718659996986389
140 227 0.34439224004745483
140 228 0.6880456209182739
140 229 0.15215593576431274
140 230 0.7032997012138367
140 231 0.1778615564107895
140 232 0.24471350014209747
140 233 0.8179004192352295
140 234 0.1962188333272934
140 235 0.6989251375198364
140 236 0.17034102976322174
140 238 0.7006807327270508
140 239 0.6716108918190002
140 240 0.6801317930221558
140 241 0.6819897294044495
140 242 0.6467398405075073
140 243 0.6647891402244568
140 244 0.15470479428768158
140 245 0.16635261476039886
140 246 0.6969082355499268
140 247 0.6710453033447266
140 248 0.6411652565002441
140 249 0.6749814748764038
140 250 0.2704036831855774
140 251 0.6521102786064148
140 252 0.6961308717727661
140 253 0.6412634253501892
140 254 0.6851209998130798
140 255 0.6807010769844055
141 142 0.7040542960166931
141 143 0.9542511701583862
141 144 0.9584559798240662
141 145 0.2804490923881531
141 146 0.7448935508728027
141 147 0.9504536986351013
141 148 0.8618930578231812
141 149 0.9685438871383667
141 150 0.7738837599754333
141 151 0.9590307474136353
141 152 0.8765388131141663
141 153 0.9569220542907715
141 154 0.9504536986351013
141 155 0.3180152475833893
141 156 0.8281674981117249
141 157 0.9153878688812256
141 158 0.9622417688369751
141 159 0.46424782276153564
141 160 0.10599979013204575
141 161 0.9653558731079102
141 162 0.4463503062725067
141 163 0.21929040551185608
141 164 0.07146504521369934
141 165 0.8224664926528931
141 166 0.9753162860870361
141 167 0.9764390587806702
141 168 0.2096308022737503
141 169 0.08522703498601913
141 170 0.10599979013204575
141 171 0.9664543271064758
141 172 0.9515494108200073
141 173 0.8030187487602234
141 174 0.9685649275779724
141 175 0.9706709384918213
141 176 0.6878252625465393
141 177 0.9325382113456726
141 178 0.9471646547317505
141 179 0.25165438652038574
141 180 0.9706500172615051
141 181 0.9747458696365356
141 182 0.9669612050056458
141 183 0.40453168749809265
141 185 0.9674891233444214
141 186 0.9558545351028442
141 187 0.9648076295852661
141 188 0.8365325927734375
141 189 0.9610605239868164
141 190 0.9215971827507019
141 191 0.5309923887252808
141 192 0.9396970272064209
141 193 0.9700850248336792
141 194 0.8069422245025635
141 195 0.6673902273178101
141 196 0.9769617915153503
141 197 0.759905993938446
141 198 0.9643391966819763
141 199 0.7212772965431213
141 200 0.948819637298584
141 201 0.8218027949333191
141 202 0.3149126172065735
141 203 0.5105447769165039
141 204 0.9759160280227661
141 205 0.9664331674575806
141 206 0.11958388984203339
141 207 0.9568992257118225
141 208 0.3336736559867859
141 209 0.9732377529144287
141 210 0.9816138744354248
141 212 0.9715713858604431
141 213 0.9413252472877502
141 214 0.9691138863563538
141 215 0.7189924716949463
141 216 0.9456072449684143
141 217 0.9764606356620789
141 218 0.8602125644683838
141 219 0.49338462948799133
141 220 0.16746973991394043
141 221 0.5700631737709045
141 222 0.8990467190742493
141 223 0.9648906588554382
141 224 0.5134157538414001
141 225 0.9336324334144592
141 226 0.9758572578430176
141 227 0.5407467484474182
141 228 0.9679965376853943
141 229 0.13177503645420074
141 230 0.964868426322937
141 231 0.24961666762828827
141 232 0.24759544432163239
141 233 0.7442647814750671
141 234 0.29655465483665466
141 235 0.9680166840553284
141 236 0.12863707542419434
141 238 0.9237605333328247
141 239 0.9590535163879395
141 240 0.9742863774299622
141 241 0.9748693108558655
141 242 0.949916422367096
141 243 0.9451134204864502
141 244 0.1944059282541275
141 245 0.16949422657489777
141 246 0.9499619603157043
141 247 0.9390846490859985
141 248 0.9243130087852478
141 249 0.965925931930542
141 250 0.31530630588531494
141 251 0.9225890636444092
141 252 0.9248422384262085
141 253 0.7268043160438538
141 254 0.9648076295852661
141 255 0.9551820158958435
142 143 0.6863749623298645
142 144 0.697236955165863
142 145 0.13133154809474945
142 146 0.5426376461982727
142 147 0.6933767795562744
142 148 0.5887901186943054
142 149 0.6967042088508606
142 150 0.8210500478744507
142 151 0.6722489595413208
142 152 0.7494301795959473
142 153 0.6990154981613159
142 154 0.7123534083366394
142 156 0.6167840361595154
142 157 0.7143862247467041
142 158 0.6766043305397034
142 159 0.12510761618614197
142 160 0.09354978054761887
142 161 0.6823627352714539
142 162 0.19696255028247833
142 165 0.7232537269592285
142 166 0.712735652923584
142 167 0.7048007845878601
142 170 0.06682127714157104
142 171 0.7261351346969604
142 172 0.7006170153617859
142 173 0.7493558526039124
142 174 0.7274816632270813
142 175 0.7073898315429688
142 176 0.19805903732776642
142 177 0.7381778359413147
142 178 0.7126267552375793
142 179 0.11258362978696823
142 180 0.6766539812088013
142 181 0.6895365118980408
142 182 0.6934925317764282
142 183 0.4494988024234772
142 185 0.6701681613922119
142 186 0.6925179958343506
142 187 0.7093985676765442
142 188 0.5775654911994934
142 189 0.6787557601928711
142 190 0.7200708985328674
142 192 0.6744387149810791
142 193 0.6698172092437744
142 194 0.5450348258018494
142 195 0.3421064615249634
142 196 0.7030186653137207
142 197 0.5223909020423889
142 198 0.6989008784294128
142 199 0.28552916646003723
142 200 0.7186839580535889
142 201 0.6597514748573303
142 202 0.37122857570648193
142 203 0.5350940823554993
142 204 0.6852594614028931
142 205 0.7010394930839539
142 206 0.118461474776268
142 207 0.6765813827514648
142 208 0.09764628112316132
142 209 0.7163366675376892
142 210 0.7068875432014465
142 212 0.6643492579460144
142 213 0.7306603789329529
142 214 0.7220558524131775
142 215 0.24491193890571594
142 216 0.6381092071533203
142 217 0.7225311398506165
142 218 0.5386158227920532
142 219 0.35736405849456787
142 220 0.19479617476463318
142 221 0.20190644264221191
142 222 0.5979325175285339
142 223 0.7121579647064209
142 224 0.6033276915550232
142 225 0.7388335466384888
142 226 0.6802537441253662
142 227 0.48555415868759155
142 228 0.6934925317764282
142 229 0.13975262641906738
142 230 0.7100318074226379
142 231 0.16457891464233398
142 232 0.2870882451534271
142 233 0.8183133602142334
142 234 0.1386335790157318
142 235 0.6913317441940308
142 236 0.14866794645786285
142 238 0.7245713472366333
142 239 0.6845324039459229
142 240 0.6955957412719727
142 241 0.700197160243988
142 242 0.6382527947425842
142 243 0.6853922605514526
142 244 0.24775315821170807
142 245 0.12536783516407013
142 246 0.6820498108863831
142 247 0.6844508647918701
142 248 0.6237042546272278
142 249 0.6848776936531067
142 250 0.20802903175354004
142 251 0.6736597418785095
142 252 0.6375627517700195
142 253 0.5576441884040833
142 254 0.69642174243927
142 255 0.7010557055473328
143 144 0.929336667060852
143 145 0.2537012994289398
143 146 0.740998387336731
143 147 0.9358655214309692
143 148 0.8352254629135132
143 149 0.944485068321228
143 150 0.7834832668304443
143 151 0.9375398755073547
143 152 0.8626297116279602
143 153 0.9428147077560425
143 154 0.9326309561729431
143 155 0.3192453384399414
143 156 0.8089372515678406
143 157 0.8984721302986145
143 158 0.9516516923904419
143 159 0.40343257784843445
143 161 0.9442086815834045
143 162 0.4248924255371094
143 163 0.23379987478256226
143 164 0.07320558279752731
143 165 0.7850830554962158
143 166 0.9452659487724304
143 167 0.9529905915260315
143 168 0.20985598862171173
143 169 0.09821558743715286
143 170 0.10858141630887985
143 171 0.9444145560264587
143 172 0.9241593480110168
143 173 0.7651872038841248
143 174 0.942440927028656
143 175 0.944701611995697
143 176 0.6717368364334106
143 177 0.914577841758728
143 178 0.914884090423584
143 179 0.20373207330703735
143 180 0.9488551616668701
143 181 0.9413085579872131
143 182 0.9396074414253235
143 183 0.38442862033843994
143 185 0.9454745054244995
143 186 0.9416812658309937
143 187 0.9350563287734985
143 188 0.8198109269142151
143 189 0.9341191053390503
143 190 0.908585786819458
143 191 0.5146814584732056
143 192 0.9440930485725403
143 193 0.9492170214653015
143 194 0.83669114112854
143 195 0.6231861710548401
143 196 0.9525012969970703
143 197 0.7125374674797058
143 198 0.9506494402885437
143 199 0.6921355128288269
143 200 0.9189532995223999
143 201 0.7729189991950989
143 202 0.27419498562812805
143 203 0.5030180215835571
143 204 0.9566309452056885
143 205 0.9496504068374634
143 206 0.11374662071466446
143 207 0.9491719007492065
143 208 0.3010351061820984
143 209 0.9441369771957397
143 210 0.9563437700271606
143 212 0.9356264472007751
143 213 0.9262458682060242
143 214 0.9451930522918701
143 215 0.7077900171279907
143 216 0.9393834471702576
143 217 0.9541096091270447
143 218 0.8455365300178528
143 219 0.5197241306304932
143 220 0.18814994394779205
143 221 0.5246540307998657
143 222 0.8912720680236816
143 223 0.9438494443893433
143 224 0.48778074979782104
143 225 0.9036663770675659
143 226 0.9469571709632874
143 227 0.4731762409210205
143 228 0.9459704160690308
143 229 0.09528311342000961
143 230 0.9384717345237732
143 231 0.17605304718017578
143 232 0.1787852942943573
143 233 0.7349178194999695
143 234 0.31060370802879333
143 235 0.9502763748168945
143 236 0.10980837047100067
143 238 0.893073320388794
143 239 0.9365441203117371
143 240 0.9452659487724304
143 241 0.9502584338188171
143 242 0.9234282374382019
143 243 0.924863338470459
143 244 0.12917234003543854
143 245 0.16204746067523956
143 246 0.9397287964820862
143 247 0.9171885848045349
143 248 0.9169250130653381
143 249 0.9459704160690308
143 250 0.3418002724647522
143 251 0.8882884383201599
143 252 0.927422285079956
143 253 0.7176129221916199
143 254 0.9382513165473938
143 255 0.9212706685066223
144 145 0.26461055874824524
144 146 0.698930025100708
144 147 0.9251707196235657
144 148 0.8569454550743103
144 149 0.9477052092552185
144 150 0.7483298182487488
144 151 0.9333366751670837
144 152 0.8394008278846741
144 153 0.9375345706939697
144 154 0.9230167269706726
144 155 0.31890371441841125
144 156 0.8228309154510498
144 157 0.8919152021408081
144 158 0.9410738945007324
144 159 0.44352611899375916
144 160 0.10846523195505142
144 161 0.9378873705863953
144 162 0.3829166293144226
144 163 0.15569978952407837
144 164 0.07312723994255066
144 165 0.8266344666481018
144 166 0.955846905708313
144 167 0.9530192017555237
144 168 0.17063023149967194
144 169 0.09811048954725266
144 170 0.10846523195505142
144 171 0.9412863850593567
144 172 0.9543368220329285
144 173 0.8191481232643127
144 174 0.9477719664573669
144 175 0.951071560382843
144 176 0.678473711013794
144 177 0.9081087708473206
144 178 0.9258302450180054
144 179 0.2575075924396515
144 180 0.9446731805801392
144 181 0.9487628936767578
144 182 0.9407207369804382
144 183 0.41643425822257996
144 185 0.9412863850593567
144 186 0.9310530424118042
144 187 0.9468218684196472
144 188 0.7892889976501465
144 189 0.930979311466217
144 190 0.8965449929237366
144 191 0.49270862340927124
144 192 0.91700679063797
144 193 0.9418516755104065
144 194 0.7853707075119019
144 195 0.6256163716316223
144 196 0.9567214250564575
144 197 0.7762376070022583
144 198 0.9390217661857605
144 199 0.7140171527862549
144 200 0.9449690580368042
144 201 0.7996219396591187
144 202 0.32223713397979736
144 203 0.47057628631591797
144 204 0.954558253288269
144 205 0.9454542994499207
144 206 0.12236527353525162
144 207 0.932121992111206
144 208 0.3007129728794098
144 209 0.9526212215423584
144 210 0.9553203582763672
144 212 0.9367517828941345
144 213 0.9187464714050293
144 214 0.9494563341140747
144 215 0.6869546175003052
144 216 0.9178139567375183
144 217 0.9530885815620422
144 218 0.8339551687240601
144 219 0.40674975514411926
144 220 0.19347649812698364
144 221 0.5797325372695923
144 222 0.8709388375282288
144 223 0.9438987970352173
144 224 0.4972846508026123
144 225 0.9169583320617676
144 226 0.9501526951789856
144 227 0.5589509010314941
144 228 0.9428394436836243
144 229 0.11897643655538559
144 230 0.9459512829780579
144 231 0.2554224729537964
144 232 0.2575075924396515
144 233 0.7204093337059021
144 234 0.2079840898513794
144 235 0.9418516755104065
144 236 0.13894174993038177
144 238 0.9120408296585083
144 239 0.9440662264823914
144 240 0.955846905708313
144 241 0.9586920142173767
144 242 0.9224399924278259
144 243 0.9357597231864929
144 244 0.1989275962114334
144 245 0.17921768128871918
144 246 0.9247444868087769
144 247 0.9129348397254944
144 248 0.8960320353507996
144 249 0.9513144493103027
144 250 0.27878597378730774
144 251 0.9329279661178589
144 252 0.8965449929237366
144 253 0.6984643340110779
144 254 0.9415026903152466
144 255 0.9418370723724365
145 146 0.2253347933292389
145 147 0.2664695084095001
145 148 0.15760309994220734
145 149 0.28011688590049744
145 150 0.1977601945400238
145 151 0.28620776534080505
145 152 0.21272920072078705
145 153 0.17116345465183258
145 154 0.2514571249485016
145 155 0.12473451346158981
145 157 0.24177832901477814
145 158 0.2590886950492859
145 159 0.4628767967224121
145 160 0.13744162023067474
145 161 0.26649123430252075
145 162 0.12057238817214966
145 163 0.3031957745552063
145 165 0.2606823742389679
145 166 0.271752268075943
145 167 0.26669883728027344
145 168 0.15289415419101715
145 169 0.15194743871688843
145 170 0.13744162023067474
145 171 0.24720385670661926
145 172 0.25091344118118286
145 173 0.20864585041999817
145 174 0.25773292779922485
145 175 0.2571965157985687
145 176 0.12470770627260208
145 177 0.23723813891410828
145 178 0.2908872663974762
145 179 0.274987131357193
145 180 0.2648204267024994
145 181 0.28011688590049744
145 182 0.27317431569099426
145 184 0.08058229088783264
145 185 0.2582726776599884
145 186 0.2681941092014313
145 187 0.27432817220687866
145 188 0.26255810260772705
145 189 0.27966779470443726
145 190 0.15042226016521454
145 191 0.3528851866722107
145 192 0.22337910532951355
145 193 0.2802635133266449
145 194 0.10982142388820648
145 195 0.20505522191524506
145 196 0.2665618658065796
145 197 0.1450737863779068
145 198 0.2662106156349182
145 199 0.2315664291381836
145 200 0.18816548585891724
145 201 0.33140408992767334
145 203 0.13201768696308136
145 204 0.27049124240875244
145 205 0.2696243226528168
145 207 0.27191901206970215
145 208 0.5130258202552795
145 209 0.2646826207637787
145 210 0.27680689096450806
145 212 0.2815935015678406
145 213 0.10205550491809845
145 214 0.22056885063648224
145 215 0.24487759172916412
145 216 0.23006422817707062
145 217 0.24087749421596527
145 218 0.21495679020881653
145 219 0.1424507200717926
145 221 0.1501055657863617
145 222 0.2979311943054199
145 223 0.2584081292152405
145 224 0.1467348039150238
145 225 0.2560816705226898
145 226 0.28232985734939575
145 227 0.08496912568807602
145 228 0.27317431569099426
145 229 0.08291848748922348
145 230 0.25867971777915955
145 231 0.175093874335289
145 232 0.11578405648469925
145 233 0.23908396065235138
145 234 0.16633693873882294
145 235 0.2286360114812851
145 236 0.1019294336438179
145 238 0.2507037818431854
145 239 0.24134735763072968
145 240 0.26073530316352844
145 241 0.2780880928039551
145 242 0.28538978099823
145 243 0.25981009006500244
145 244 0.16861502826213837
145 246 0.16486802697181702
145 247 0.20144230127334595
145 248 0.17731960117816925
145 249 0.2547166049480438
145 250 0.1309853196144104
145 251 0.26348474621772766
145 252 0.2545607388019562
145 253 0.21678559482097626
145 254 0.2854496240615845
145 255 0.274124413728714
146 147 0.7357068657875061
146 148 0.675213098526001
146 149 0.7211452126502991
146 150 0.6163085699081421
146 151 0.7464672923088074
146 152 0.7611590623855591
146 153 0.715668797492981
146 154 0.7772722840309143
146 155 0.2553553283214569
146 156 0.6123180389404297
146 157 0.7428421974182129
146 158 0.7255479693412781
146 159 0.2432841807603836
146 161 0.7597075700759888
146 162 0.4421442747116089
146 163 0.2474229484796524
146 164 0.07525767385959625
146 165 0.5693901181221008
146 166 0.7280092835426331
146 167 0.7390944361686707
146 168 0.19441565871238708
146 169 0.05609375610947609
146 170 0.11416210234165192
146 171 0.7477801442146301
146 172 0.7202910780906677
146 173 0.5162305235862732
146 174 0.7407804727554321
146 175 0.7419516444206238
146 176 0.5140886902809143
146 177 0.7486689686775208
146 178 0.6931248307228088
146 179 0.2671467959880829
146 180 0.7427241206169128
146 181 0.7347517013549805
146 182 0.735907256603241
146 183 0.43626511096954346
146 185 0.7409697771072388
146 186 0.7329344153404236
146 187 0.7239616513252258
146 188 0.6498903632164001
146 189 0.7584971189498901
146 190 0.7048130035400391
146 191 0.4183769226074219
146 192 0.7281978726387024
146 193 0.7174385786056519
146 194 0.67786705493927
146 195 0.47013264894485474
146 196 0.7441070079803467
146 197 0.5528386235237122
146 198 0.767096996307373
146 199 0.4765409529209137
146 200 0.70158851146698
146 201 0.5972268581390381
146 202 0.36893272399902344
146 203 0.5078843832015991
146 204 0.7313781380653381
146 205 0.7458382844924927
146 206 0.1124376505613327
146 207 0.7384347915649414
146 208 0.20550988614559174
146 209 0.7477659583091736
146 210 0.7583392262458801
146 212 0.7304180264472961
146 213 0.7228090763092041
146 214 0.7464088797569275
146 215 0.6069738864898682
146 216 0.7546398043632507
146 217 0.7450726628303528
146 218 0.5585346221923828
146 219 0.46803227066993713
146 221 0.3024670481681824
146 222 0.6188542246818542
146 223 0.7318188548088074
146 224 0.2889036238193512
146 225 0.7012636065483093
146 226 0.7322922945022583
146 227 0.4319087862968445
146 228 0.7427211999893188
146 229 0.08162840455770493
146 230 0.7366806864738464
146 231 0.05386551842093468
146 232 0.13357339799404144
146 233 0.600178599357605
146 234 0.26316800713539124
146 235 0.7419431209564209
146 238 0.6791834235191345
146 239 0.7155184745788574
146 240 0.7334320545196533
146 241 0.734833300113678
146 242 0.7250161170959473
146 243 0.7172619104385376
146 244 0.1590753048658371
146 246 0.7068476676940918
146 247 0.7240118384361267
146 248 0.7172170281410217
146 249 0.7318188548088074
146 250 0.23774674534797668
146 251 0.693760335445404
146 252 0.6734879612922668
146 253 0.441982626914978
146 254 0.7362785935401917
146 255 0.7236298322677612
147 148 0.8557744026184082
147 149 0.9426465630531311
147 150 0.7735231518745422
147 151 0.9345227479934692
147 152 0.8523911237716675
147 153 0.9269160628318787
147 154 0.9284164905548096
147 155 0.29165127873420715
147 156 0.8348044157028198
147 157 0.8902924656867981
147 158 0.9337800741195679
147 159 0.4126337170600891
147 160 0.06950823217630386
147 161 0.9401978254318237
147 162 0.3972213864326477
147 163 0.19368623197078705
147 164 0.05891278013586998
147 165 0.8035637140274048
147 166 0.9423980712890625
147 167 0.9491564631462097
147 168 0.12273496389389038
147 169 0.0768442377448082
147 170 0.10922722518444061
147 171 0.9361702799797058
147 172 0.9242445826530457
147 173 0.7825672030448914
147 174 0.9395339488983154
147 175 0.9386404752731323
147 176 0.6441978216171265
147 177 0.9211232662200928
147 178 0.9203254580497742
147 179 0.2509515881538391
147 180 0.9459951519966125
147 181 0.9362557530403137
147 182 0.9377281665802002
147 183 0.40680408477783203
147 185 0.9340378046035767
147 186 0.9257528185844421
147 187 0.9352611303329468
147 188 0.8383693695068359
147 189 0.9332091808319092
147 190 0.9073018431663513
147 191 0.5059757828712463
147 192 0.920166552066803
147 193 0.9399428367614746
147 194 0.8124693632125854
147 195 0.6066200137138367
147 196 0.945503294467926
147 197 0.703251302242279
147 198 0.9445501565933228
147 199 0.6848614811897278
147 200 0.9189810752868652
147 201 0.7686949372291565
147 202 0.3017858564853668
147 203 0.48191410303115845
147 204 0.9475318789482117
147 205 0.9446247816085815
147 206 0.1056213527917862
147 207 0.9354409575462341
147 208 0.29651668667793274
147 209 0.938066303730011
147 210 0.9494011402130127
147 212 0.9369081854820251
147 213 0.9164621829986572
147 214 0.947627604007721
147 215 0.6946690082550049
147 216 0.9286215305328369
147 217 0.9492371678352356
147 218 0.8326461911201477
147 219 0.5125236511230469
147 220 0.18926897644996643
147 221 0.5060850381851196
147 222 0.8759093284606934
147 223 0.9387949705123901
147 224 0.4987589418888092
147 225 0.911250114440918
147 226 0.9441123604774475
147 227 0.49676787853240967
147 228 0.94092857837677
147 229 0.11182478815317154
147 230 0.9355099201202393
147 231 0.1813168078660965
147 232 0.2342214733362198
147 233 0.7406706809997559
147 234 0.3124510943889618
147 235 0.9388771653175354
147 236 0.11046146601438522
147 238 0.8883533477783203
147 239 0.9324570894241333
147 240 0.9392142295837402
147 241 0.9442785382270813
147 242 0.9224092364311218
147 243 0.9173063039779663
147 244 0.16242577135562897
147 245 0.16301125288009644
147 246 0.9214954376220703
147 247 0.9215452075004578
147 248 0.8978708386421204
147 249 0.9430622458457947
147 250 0.34067872166633606
147 251 0.881254255771637
147 252 0.9106457233428955
147 253 0.7218810319900513
147 254 0.9374037981033325
147 255 0.9148129820823669
148 149 0.8498353362083435
148 150 0.6198045611381531
148 151 0.8321096897125244
148 152 0.7394556403160095
148 153 0.8603272438049316
148 154 0.8342002630233765
148 155 0.34402453899383545
148 156 0.8403983116149902
148 157 0.7932991981506348
148 158 0.8569595813751221
148 159 0.3432462811470032
148 160 0.07681185007095337
148 161 0.8439574837684631
148 162 0.34654706716537476
148 163 0.1172112450003624
148 164 0.06510307639837265
148 165 0.7409238219261169
148 166 0.8643325567245483
148 167 0.8622128963470459
148 168 0.09765461087226868
148 170 0.12070433795452118
148 171 0.8436558842658997
148 172 0.8706676363945007
148 173 0.7088490724563599
148 174 0.8642334938049316
148 175 0.8577412962913513
148 176 0.6952932476997375
148 177 0.8248376846313477
148 178 0.8191729187965393
148 179 0.2819424867630005
148 180 0.858634352684021
148 181 0.853366494178772
148 182 0.841740608215332
148 183 0.35797443985939026
148 184 0.05146849900484085
148 185 0.8483690619468689
148 186 0.8291276097297668
148 187 0.8417443037033081
148 188 0.6955334544181824
148 189 0.8419232368469238
148 190 0.8006316423416138
148 191 0.45728230476379395
148 192 0.8221883177757263
148 193 0.8432140350341797
148 194 0.8052502274513245
148 195 0.5290509462356567
148 196 0.8687670230865479
148 197 0.7173653841018677
148 198 0.8430686593055725
148 199 0.6482564806938171
148 200 0.8665170073509216
148 201 0.6252626776695251
148 202 0.2725345194339752
148 203 0.30621710419654846
148 204 0.8661583662033081
148 205 0.8480802178382874
148 206 0.1361728459596634
148 207 0.8315067887306213
148 208 0.14640724658966064
148 209 0.8570135235786438
148 210 0.8572404384613037
148 212 0.8472156524658203
148 213 0.8365228176116943
148 214 0.8605355620384216
148 215 0.7102068662643433
148 216 0.8407106399536133
148 217 0.8648247718811035
148 218 0.7498390078544617
148 219 0.35028964281082153
148 220 0.19685320556163788
148 221 0.5352938771247864
148 222 0.7890726327896118
148 223 0.841740608215332
148 224 0.3347163796424866
148 225 0.8275711536407471
148 226 0.86533123254776
148 227 0.4821716547012329
148 228 0.8523508310317993
148 230 0.8485260009765625
148 231 0.16775061190128326
148 232 0.20336835086345673
148 233 0.5833319425582886
148 234 0.14038939774036407
148 235 0.8455694317817688
148 236 0.07324095815420151
148 238 0.7993999719619751
148 239 0.8774710297584534
148 240 0.880751371383667
148 241 0.8530284762382507
148 242 0.8190631866455078
148 243 0.8657874464988708
148 244 0.11367875337600708
148 245 0.1029369980096817
148 246 0.8280598521232605
148 247 0.8302382826805115
148 248 0.8272563219070435
148 249 0.8865391612052917
148 250 0.17429432272911072
148 251 0.8587720394134521
148 252 0.7858507633209229
148 253 0.5774517059326172
148 254 0.8429281711578369
148 255 0.8466451168060303
149 150 0.772695779800415
149 151 0.9504557847976685
149 152 0.8545117378234863
149 153 0.9461885094642639
149 154 0.9351905584335327
149 155 0.2928543984889984
149 156 0.8173924684524536
149 157 0.9019858837127686
149 158 0.954840362071991
149 159 0.4653461277484894
149 160 0.10726731270551682
149 161 0.9495882391929626
149 162 0.4265938699245453
149 163 0.2128549963235855
149 165 0.827369213104248
149 166 0.9609235525131226
149 167 0.9684149622917175
149 168 0.19767358899116516
149 169 0.08624616265296936
149 170 0.09751573950052261
149 171 0.9528800845146179
149 172 0.9522995352745056
149 173 0.7924630045890808
149 174 0.9582032561302185
149 175 0.9582945704460144
149 176 0.6709805130958557
149 177 0.926314115524292
149 178 0.9370478987693787
149 179 0.24644865095615387
149 180 0.9572045803070068
149 181 0.9560669660568237
149 182 0.9533798694610596
149 183 0.3625134825706482
149 185 0.9528800845146179
149 186 0.9429702162742615
149 187 0.9531984329223633
149 188 0.8135538101196289
149 189 0.9439793229103088
149 190 0.9107249975204468
149 191 0.5238602161407471
149 192 0.9326671361923218
149 193 0.9607536792755127
149 194 0.8041244149208069
149 195 0.6355529427528381
149 196 0.9637725353240967
149 197 0.7397737503051758
149 198 0.9517361521720886
149 199 0.7033348679542542
149 200 0.9388047456741333
149 201 0.8093538880348206
149 202 0.2804368734359741
149 203 0.47129493951797485
149 204 0.9678756594657898
149 205 0.9612181186676025
149 206 0.11236999928951263
149 207 0.9471988081932068
149 208 0.3283701539039612
149 209 0.9567064642906189
149 210 0.9675102233886719
149 212 0.9484884142875671
149 213 0.9300540685653687
149 214 0.958793044090271
149 215 0.6992239952087402
149 216 0.9301552176475525
149 217 0.9663854837417603
149 218 0.8622865080833435
149 219 0.4750277101993561
149 220 0.19133968651294708
149 221 0.5662297606468201
149 222 0.9064151644706726
149 223 0.9523321986198425
149 224 0.5116229057312012
149 225 0.9263562560081482
149 226 0.9625520706176758
149 227 0.524953305721283
149 228 0.9586182236671448
149 229 0.12550660967826843
149 230 0.9533331394195557
149 231 0.24846051633358002
149 232 0.2300187349319458
149 233 0.7490934133529663
149 234 0.2798692584037781
149 235 0.9565674066543579
149 236 0.14463920891284943
149 238 0.9151034951210022
149 239 0.9515538811683655
149 240 0.9609235525131226
149 241 0.9657576084136963
149 242 0.9356980323791504
149 243 0.9393171072006226
149 244 0.17546242475509644
149 245 0.17723838984966278
149 246 0.9400532245635986
149 247 0.9233470559120178
149 248 0.9112979173660278
149 249 0.9575705528259277
149 250 0.31907668709754944
149 251 0.9182257056236267
149 252 0.9194819927215576
149 253 0.7201142311096191
149 254 0.9510942697525024
149 255 0.9431580901145935
150 151 0.7594998478889465
150 152 0.8257713913917542
150 153 0.7458145618438721
150 154 0.7748522162437439
150 156 0.6587123870849609
150 157 0.7857766151428223
150 158 0.7602206468582153
150 159 0.21392686665058136
150 160 0.06084004044532776
150 161 0.7575991153717041
150 162 0.28465431928634644
150 163 0.062161773443222046
150 165 0.7354438304901123
150 166 0.773783802986145
150 167 0.7801474928855896
150 168 0.06617626547813416
150 170 0.06084004044532776
150 171 0.7787317633628845
150 172 0.7479789853096008
150 173 0.7058614492416382
150 174 0.7901429533958435
150 175 0.7637766599655151
150 176 0.2907370328903198
150 177 0.8157377243041992
150 178 0.7866334915161133
150 179 0.08713024109601974
150 180 0.7606644034385681
150 181 0.7557278871536255
150 182 0.7595309615135193
150 183 0.3600289821624756
150 185 0.7512932419776917
150 186 0.7756310105323792
150 187 0.7693031430244446
150 188 0.7194469571113586
150 189 0.755332887172699
150 190 0.7717153429985046
150 191 0.16582132875919342
150 192 0.7615528702735901
150 193 0.7639589309692383
150 194 0.6362555027008057
150 195 0.36690160632133484
150 196 0.7616433501243591
150 197 0.4424861967563629
150 198 0.7829881906509399
150 199 0.3454650640487671
150 200 0.7609695196151733
150 201 0.6809951663017273
150 202 0.26642316579818726
150 203 0.4896579086780548
150 204 0.7663097977638245
150 205 0.7769334316253662
150 206 0.08628629148006439
150 207 0.7729928493499756
150 208 0.2241973876953125
150 209 0.7667776346206665
150 210 0.7738837599754333
150 212 0.7439663410186768
150 213 0.788404643535614
150 214 0.7758904099464417
150 215 0.3521820604801178
150 216 0.727908730506897
150 217 0.7845167517662048
150 218 0.6280096173286438
150 219 0.479235976934433
150 220 0.2251105010509491
150 221 0.18383358418941498
150 222 0.7160340547561646
150 223 0.7830620408058167
150 224 0.6136584281921387
150 225 0.7715069055557251
150 226 0.7557014226913452
150 227 0.3749678432941437
150 228 0.7765256762504578
150 229 0.1370311826467514
150 230 0.7694897651672363
150 231 0.14984728395938873
150 232 0.2511400878429413
150 233 0.856825053691864
150 234 0.27348610758781433
150 235 0.769182562828064
150 236 0.15340861678123474
150 238 0.7553249597549438
150 239 0.7494890093803406
150 240 0.7503752112388611
150 241 0.7606204748153687
150 242 0.7274000644683838
150 243 0.7347162365913391
150 244 0.17249968647956848
150 245 0.20688967406749725
150 246 0.761652410030365
150 247 0.7523981928825378
150 248 0.7112099528312683
150 249 0.7543018460273743
150 250 0.3556234538555145
150 251 0.7121559977531433
150 252 0.7525932192802429
150 253 0.6944196820259094
150 254 0.7666775584220886
150 255 0.7300596237182617
151 152 0.8570700287818909
151 153 0.9350377917289734
151 154 0.9355968832969666
151 155 0.3083181083202362
151 156 0.8059195876121521
151 157 0.8962365984916687
151 158 0.9428050518035889
151 159 0.4580627679824829
151 160 0.10817637294530869
151 161 0.9428050518035889
151 162 0.45321497321128845
151 163 0.23292770981788635
151 164 0.07293249666690826
151 165 0.7958328127861023
151 166 0.9490971565246582
151 167 0.9557093977928162
151 168 0.2187974750995636
151 169 0.09784920513629913
151 170 0.0983421579003334
151 171 0.9461715817451477
151 172 0.9303584098815918
151 173 0.7661445140838623
151 174 0.9473555684089661
151 175 0.9485387802124023
151 176 0.6766669154167175
151 177 0.9155467748641968
151 178 0.9201209545135498
151 179 0.22368352115154266
151 180 0.9537370204925537
151 181 0.9462361931800842
151 182 0.9466677904129028
151 183 0.38299453258514404
151 185 0.9493395686149597
151 186 0.9403005838394165
151 187 0.940056324005127
151 188 0.8204483985900879
151 189 0.9434413313865662
151 190 0.9018846750259399
151 191 0.5380111336708069
151 192 0.9264843463897705
151 193 0.9520087242126465
151 194 0.785793662071228
151 195 0.6625611186027527
151 196 0.9573088884353638
151 197 0.7366673350334167
151 198 0.9502778649330139
151 199 0.7219865918159485
151 200 0.9230648875236511
151 201 0.8074766993522644
151 202 0.28924107551574707
151 203 0.5130735635757446
151 204 0.9562008380889893
151 205 0.9450507164001465
151 206 0.10460519790649414
151 207 0.9392344951629639
151 208 0.34052523970603943
151 209 0.9479799270629883
151 210 0.9611156582832336
151 212 0.9406198263168335
151 213 0.9184632897377014
151 214 0.9511364102363586
151 215 0.715161919593811
151 216 0.9261641502380371
151 217 0.9557731747627258
151 218 0.8530303835868835
151 219 0.5075927972793579
151 220 0.1653953492641449
151 221 0.5620781183242798
151 222 0.8822625875473022
151 223 0.9466677904129028
151 224 0.4839613139629364
151 225 0.9079528450965881
151 226 0.9581164121627808
151 227 0.5294021964073181
151 228 0.9456112384796143
151 229 0.12657023966312408
151 230 0.9444898366928101
151 231 0.25056615471839905
151 232 0.23196808993816376
151 233 0.7294392585754395
151 234 0.3128455579280853
151 235 0.9477869868278503
151 236 0.12398524582386017
151 238 0.9018846750259399
151 239 0.9373012781143188
151 240 0.9522503018379211
151 241 0.9540444016456604
151 242 0.9457773566246033
151 243 0.923568606376648
151 244 0.1876736283302307
151 245 0.17874041199684143
151 246 0.931933581829071
151 247 0.9181183576583862
151 248 0.9101947546005249
151 249 0.9434981942176819
151 250 0.32802891731262207
151 251 0.8982827067375183
151 252 0.9074041843414307
151 253 0.7135258316993713
151 254 0.9411172866821289
151 255 0.9285814166069031
152 153 0.8450900316238403
152 154 0.8890404105186462
152 155 0.16431087255477905
152 156 0.731743335723877
152 157 0.880763590335846
152 158 0.8499482870101929
152 159 0.257016658782959
152 160 0.06494175642728806
152 161 0.8616073727607727
152 162 0.44310757517814636
152 163 0.18598836660385132
152 164 0.08027016371488571
152 165 0.7267239093780518
152 166 0.8652818202972412
152 167 0.8700306415557861
152 168 0.19264838099479675
152 170 0.05411813408136368
152 171 0.8763271570205688
152 172 0.8375716805458069
152 173 0.7229644656181335
152 174 0.8675369024276733
152 175 0.8587870597839355
152 176 0.4894043207168579
152 177 0.8786883354187012
152 178 0.8413328528404236
152 179 0.16868442296981812
152 180 0.8596811890602112
152 181 0.8545117378234863
152 182 0.8651583790779114
152 183 0.4461619257926941
152 185 0.8600558638572693
152 186 0.867112934589386
152 187 0.8571351766586304
152 188 0.7985928654670715
152 189 0.8668661713600159
152 190 0.8614067435264587
152 191 0.33561721444129944
152 192 0.8431881070137024
152 193 0.8514741063117981
152 194 0.7472319006919861
152 195 0.5320421457290649
152 196 0.8649828433990479
152 197 0.6117724180221558
152 198 0.8898170590400696
152 199 0.4950886070728302
152 200 0.8428573608398438
152 201 0.7554774284362793
152 202 0.35724973678588867
152 203 0.5800145268440247
152 204 0.8612666130065918
152 205 0.8632857799530029
152 206 0.0959412008523941
152 207 0.8635928630828857
152 208 0.2510029077529907
152 209 0.8766037821769714
152 210 0.8822753429412842
152 212 0.8508462905883789
152 213 0.8775152564048767
152 214 0.8766037821769714
152 215 0.5761672258377075
152 216 0.8470778465270996
152 217 0.8748860955238342
152 218 0.7096738815307617
152 219 0.5115451812744141
152 220 0.13349279761314392
152 221 0.30340370535850525
152 222 0.7570500373840332
152 223 0.8698098063468933
152 224 0.5568636655807495
152 225 0.8427841067314148
152 226 0.8570072650909424
152 227 0.4714849591255188
152 228 0.8535299301147461
152 229 0.12189129739999771
152 230 0.8730520606040955
152 231 0.09192512184381485
152 232 0.24162904918193817
152 233 0.8103586435317993
152 234 0.2694683074951172
152 235 0.8747066855430603
152 236 0.1284322589635849
152 238 0.8298177719116211
152 239 0.8432939052581787
152 240 0.8583410978317261
152 241 0.8644592761993408
152 242 0.8362935185432434
152 243 0.8373867273330688
152 244 0.1829489767551422
152 245 0.14595600962638855
152 246 0.8498274683952332
152 247 0.8536480069160461
152 248 0.8159859776496887
152 249 0.8535299301147461
152 250 0.29914045333862305
152 251 0.8128965497016907
152 252 0.8273878693580627
152 253 0.670464813709259
152 254 0.8466253280639648
152 255 0.8457565307617188
153 154 0.9269160628318787
153 155 0.315144419670105
153 156 0.8485294580459595
153 157 0.8938396573066711
153 158 0.9533538222312927
153 159 0.3776301443576813
153 160 0.06891286373138428
153 161 0.9438096880912781
153 162 0.43066754937171936
153 163 0.2011713832616806
153 164 0.07301021367311478
153 165 0.7879670858383179
153 166 0.9480040669441223
153 167 0.9556809663772583
153 168 0.21416328847408295
153 169 0.09795347601175308
153 170 0.08860225230455399
153 171 0.9492939710617065
153 172 0.941006600856781
153 173 0.79112708568573
153 174 0.9483649730682373
153 175 0.9495494961738586
153 176 0.7101407647132874
153 177 0.9099444150924683
153 178 0.9178542494773865
153 179 0.19904166460037231
153 180 0.9505380988121033
153 181 0.9451324939727783
153 182 0.942388117313385
153 183 0.4182574450969696
153 185 0.9503510594367981
153 186 0.9381008744239807
153 187 0.9399958848953247
153 188 0.80035799741745
153 189 0.9316261410713196
153 190 0.9260522723197937
153 191 0.48608702421188354
153 192 0.9415735006332397
153 193 0.9477402567863464
153 194 0.8281651139259338
153 195 0.6338917016983032
153 196 0.965652346611023
153 197 0.7629278898239136
153 198 0.9428157210350037
153 199 0.7213442921638489
153 200 0.944534957408905
153 201 0.7758537530899048
153 202 0.3152869939804077
153 203 0.5056571364402771
153 204 0.9572197198867798
153 205 0.9449995160102844
153 206 0.12216944247484207
153 207 0.9348991513252258
153 208 0.22517378628253937
153 209 0.9489901065826416
153 210 0.9569220542907715
153 212 0.9384374022483826
153 213 0.9421843886375427
153 214 0.9584695100784302
153 215 0.6944462656974792
153 216 0.9368763566017151
153 217 0.9609743356704712
153 218 0.8539393544197083
153 219 0.47140106558799744
153 220 0.18764780461788177
153 221 0.5734288096427917
153 222 0.8740975260734558
153 223 0.9508495330810547
153 224 0.4864789545536041
153 225 0.9133005738258362
153 226 0.9496825337409973
153 227 0.5374569296836853
153 228 0.9455611705780029
153 229 0.1108669638633728
153 230 0.9454962015151978
153 231 0.21738871932029724
153 232 0.2156284600496292
153 233 0.7028161883354187
153 234 0.2621171474456787
153 235 0.9530231356620789
153 236 0.12411735951900482
153 238 0.9061609506607056
153 239 0.9542574286460876
153 240 0.956421434879303
153 241 0.9519158601760864
153 242 0.9252672791481018
153 243 0.9310256242752075
153 244 0.13419543206691742
153 245 0.1789308786392212
153 246 0.9479565024375916
153 247 0.9201856255531311
153 248 0.9211045503616333
153 249 0.9445035457611084
153 250 0.3158687651157379
153 251 0.8992398977279663
153 252 0.9061609506607056
153 253 0.6874650716781616
153 254 0.9431823492050171
153 255 0.9284949898719788
154 155 0.3080361783504486
154 156 0.8001241087913513
154 157 0.9162123799324036
154 158 0.9316408038139343
154 159 0.38996151089668274
154 160 0.08936772495508194
154 161 0.9444762468338013
154 162 0.44832587242126465
154 163 0.23519042134284973
154 164 0.07364097982645035
154 165 0.7759411931037903
154 166 0.9402754902839661
154 167 0.947044849395752
154 168 0.20619474351406097
154 169 0.0768442377448082
154 170 0.10922722518444061
154 171 0.9361702799797058
154 172 0.9199155569076538
154 173 0.75947505235672
154 174 0.9395339488983154
154 175 0.9460731148719788
154 176 0.6426962614059448
154 177 0.9255463480949402
154 178 0.9094081521034241
154 179 0.23003895580768585
154 180 0.9374918341636658
154 181 0.93732088804245
154 182 0.9430622458457947
154 183 0.4319154620170593
154 185 0.9425678253173828
154 186 0.9343644976615906
154 187 0.9299045205116272
154 188 0.809760332107544
154 189 0.9342867732048035
154 190 0.9039580225944519
154 191 0.48636430501937866
154 192 0.9146959185600281
154 193 0.9356800317764282
154 194 0.802313506603241
154 195 0.6300114989280701
154 196 0.945503294467926
154 197 0.7384138107299805
154 198 0.9498926401138306
154 199 0.6748946905136108
154 200 0.9135433435440063
154 201 0.7964183688163757
154 202 0.3342359662055969
154 203 0.5381373763084412
154 204 0.9443629384040833
154 205 0.9424899816513062
154 206 0.09681957960128784
154 207 0.927905797958374
154 208 0.29336223006248474
154 209 0.9486899971961975
154 210 0.9557164311408997
154 212 0.9294129014015198
154 213 0.9208315014839172
154 214 0.9444405436515808
154 215 0.6946690082550049
154 216 0.9286215305328369
154 217 0.9513466358184814
154 218 0.8171162009239197
154 219 0.5228152871131897
154 220 0.12246816605329514
154 221 0.4898180663585663
154 222 0.8563936948776245
154 223 0.9345277547836304
154 224 0.5068359971046448
154 225 0.9057273864746094
154 226 0.9409335851669312
154 227 0.5439891815185547
154 228 0.9377281665802002
154 229 0.11182478815317154
154 230 0.9429854154586792
154 231 0.18553347885608673
154 232 0.21330885589122772
154 233 0.7503436803817749
154 234 0.309017539024353
154 235 0.9431399703025818
154 236 0.09573327004909515
154 238 0.8928118348121643
154 239 0.9292380809783936
154 240 0.9413367509841919
154 241 0.9442785382270813
154 242 0.9180684685707092
154 243 0.9173063039779663
154 244 0.1894967257976532
154 245 0.12808027863502502
154 246 0.9214954376220703
154 247 0.916053295135498
154 248 0.9123526811599731
154 249 0.9366613030433655
154 250 0.324906587600708
154 251 0.8823739886283875
154 252 0.9006141424179077
154 253 0.6834376454353333
154 254 0.9331185221672058
154 255 0.9191536903381348
155 156 0.22079114615917206
155 157 0.3030402958393097
155 158 0.31347784399986267
155 159 0.28085485100746155
155 161 0.32640478014945984
155 162 0.1122952252626419
155 163 0.18113300204277039
155 164 0.08899883180856705
155 165 0.15932884812355042
155 166 0.2853751480579376
155 167 0.30942443013191223
155 168 0.1779976636171341
155 169 0.13267162442207336
155 170 0.15000751614570618
155 171 0.26416724920272827
155 172 0.297560453414917
155 173 0.20543406903743744
155 174 0.29897817969322205
155 175 0.30798032879829407
155 176 0.41740208864212036
155 177 0.2438935786485672
155 178 0.25398576259613037
155 179 0.3538355827331543
155 180 0.31793540716171265
155 181 0.3218180239200592
155 182 0.29976147413253784
155 183 0.15174175798892975
155 185 0.3253767192363739
155 186 0.31548094749450684
155 187 0.2848433554172516
155 188 0.2856234908103943
155 189 0.2800040543079376
155 190 0.24920910596847534
155 191 0.43847665190696716
155 192 0.3272731900215149
155 193 0.32198646664619446
155 194 0.3145180940628052
155 195 0.292121559381485
155 196 0.3220187723636627
155 197 0.3350624740123749
155 198 0.3002344071865082
155 199 0.3785690665245056
155 200 0.28258761763572693
155 201 0.23225164413452148
155 203 0.07886902987957001
155 204 0.3223499059677124
155 205 0.29991886019706726
155 206 0.05318697541952133
155 207 0.30572381615638733
155 208 0.12389945983886719
155 209 0.2985111474990845
155 210 0.3052946627140045
155 212 0.32351449131965637
155 213 0.2574257552623749
155 214 0.2985111474990845
155 215 0.3883538544178009
155 216 0.32930925488471985
155 217 0.2995469272136688
155 218 0.29235967993736267
155 219 0.08706575632095337
155 220 0.05045759305357933
155 221 0.28397077322006226
155 222 0.27747851610183716
155 223 0.30943119525909424
155 225 0.23694458603858948
155 226 0.3233494460582733
155 227 0.17120788991451263
155 228 0.3158777058124542
155 230 0.29362326860427856
155 234 0.14523571729660034
155 235 0.3026672899723053
155 238 0.2593121826648712
155 239 0.3242006301879883
155 240 0.3206462264060974
155 241 0.31309744715690613
155 242 0.3180396258831024
155 243 0.31561875343322754
155 245 0.05276981368660927
155 246 0.27154794335365295
155 247 0.2588534951210022
155 248 0.3096502423286438
155 249 0.319100946187973
155 250 0.10483801364898682
155 251 0.3078737258911133
155 252 0.27951833605766296
155 253 0.09894418716430664
155 254 0.32044878602027893
155 255 0.31148213148117065
156 157 0.7631608247756958
156 158 0.833048939704895
156 159 0.2304300218820572
156 160 0.09071600437164307
156 161 0.8110622763633728
156 162 0.33424338698387146
156 165 0.7183462381362915
156 166 0.8253236413002014
156 167 0.8283056616783142
156 169 0.05014516040682793
156 171 0.825554609298706
156 172 0.826819896697998
156 173 0.7017511129379272
156 174 0.8299047350883484
156 175 0.8330278396606445
156 176 0.6379119157791138
156 177 0.7955528497695923
156 178 0.7891749739646912
156 179 0.12418460845947266
156 180 0.8448194861412048
156 181 0.818608820438385
156 182 0.8138049244880676
156 183 0.40147092938423157
156 184 0.05318697541952133
156 185 0.8231194019317627
156 186 0.8051812648773193
156 187 0.8099018931388855
156 188 0.6960290670394897
156 189 0.8011204600334167
156 190 0.8375468254089355
156 191 0.34265509247779846
156 192 0.8134056925773621
156 193 0.8129523396492004
156 194 0.7640000581741333
156 195 0.5306878089904785
156 196 0.8327005505561829
156 197 0.6810853481292725
156 198 0.8102080821990967
156 199 0.6194958090782166
156 200 0.8482547998428345
156 201 0.5928941965103149
156 202 0.311279833316803
156 203 0.33937186002731323
156 204 0.837175726890564
156 205 0.8178889155387878
156 206 0.13066811859607697
156 207 0.8039519786834717
156 208 0.11887512356042862
156 209 0.8225424289703369
156 210 0.8269655108451843
156 212 0.8094736933708191
156 213 0.8444948792457581
156 214 0.8419533967971802
156 215 0.6333150863647461
156 216 0.8227280974388123
156 217 0.8419091105461121
156 218 0.7585047483444214
156 219 0.4230998158454895
156 220 0.19706885516643524
156 221 0.5242699384689331
156 222 0.7446269392967224
156 223 0.8332971930503845
156 224 0.31130295991897583
156 225 0.814839243888855
156 226 0.8409817218780518
156 227 0.504741907119751
156 228 0.8272058963775635
156 229 0.07297193259000778
156 230 0.8268557786941528
156 231 0.16853627562522888
156 232 0.19105325639247894
156 233 0.5917624831199646
156 234 0.22349674999713898
156 235 0.8251222372055054
156 236 0.10932479053735733
156 238 0.7955421209335327
156 239 0.847951352596283
156 240 0.8386548161506653
156 241 0.8199251294136047
156 242 0.785687267780304
156 243 0.8164092302322388
156 244 0.12984007596969604
156 245 0.15291255712509155
156 246 0.8557078242301941
156 247 0.8341268301010132
156 248 0.8205296993255615
156 249 0.8393885493278503
156 250 0.1981252282857895
156 251 0.7940975427627563
156 252 0.7828134894371033
156 253 0.6406334638595581
156 254 0.8074550032615662
156 255 0.8079938292503357
157 158 0.8913356065750122
157 159 0.3462957441806793
157 160 0.07222253829240799
157 161 0.908006489276886
157 162 0.37894195318222046
157 163 0.18208307027816772
157 164 0.061213333159685135
157 165 0.7892820239067078
157 166 0.914139449596405
157 167 0.9116238355636597
157 168 0.17343778908252716
157 170 0.10317505896091461
157 171 0.9140097498893738
157 172 0.8838694095611572
157 173 0.7678048610687256
157 174 0.9143106937408447
157 175 0.9068914651870728
157 176 0.5601353645324707
157 177 0.9145813584327698
157 178 0.8745904564857483
157 179 0.26075127720832825
157 180 0.9023135900497437
157 181 0.9097329378128052
157 182 0.9034044742584229
157 183 0.41225311160087585
157 185 0.9129018783569336
157 186 0.9249933958053589
157 187 0.9038808941841125
157 188 0.8129478693008423
157 189 0.8946319222450256
157 190 0.8732433319091797
157 191 0.4238477349281311
157 192 0.8856139183044434
157 193 0.9013506770133972
157 194 0.753181517124176
157 195 0.5525327920913696
157 196 0.9100592732429504
157 197 0.6730994582176208
157 198 0.9192626476287842
157 199 0.5991688370704651
157 200 0.8825461268424988
157 201 0.7934751510620117
157 202 0.3338010311126709
157 203 0.5320287942886353
157 204 0.9066047072410583
157 205 0.9049878120422363
157 206 0.10060041397809982
157 207 0.8947941064834595
157 208 0.28187480568885803
157 209 0.917297899723053
157 210 0.9197624921798706
157 212 0.8922774195671082
157 213 0.9023109674453735
157 214 0.9106748700141907
157 215 0.655768871307373
157 216 0.886742353439331
157 217 0.9139760136604309
157 218 0.770825207233429
157 219 0.46837660670280457
157 220 0.17930762469768524
157 221 0.39438584446907043
157 222 0.8266171216964722
157 223 0.9122721552848816
157 224 0.5497073531150818
157 225 0.875678539276123
157 226 0.9050119519233704
157 227 0.4985032379627228
157 228 0.9011874794960022
157 229 0.12449096888303757
157 230 0.9076828360557556
157 231 0.17087192833423615
157 232 0.26075127720832825
157 233 0.7796446681022644
157 234 0.25686776638031006
157 235 0.9146384000778198
157 236 0.13773000240325928
157 238 0.8836666345596313
157 239 0.8919399380683899
157 240 0.9064205288887024
157 241 0.9097363352775574
157 242 0.8772448897361755
157 243 0.8886809349060059
157 244 0.18564537167549133
157 245 0.15122933685779572
157 246 0.8787214159965515
157 247 0.8696533441543579
157 248 0.8588538765907288
157 249 0.9000790119171143
157 250 0.2917076349258423
157 251 0.8586562871932983
157 252 0.8790341019630432
157 253 0.674619734287262
157 254 0.8994282484054565
157 255 0.8975410461425781
158 159 0.4471822679042816
158 160 0.08813370019197464
158 161 0.9483122229576111
158 162 0.4375534951686859
158 163 0.21829910576343536
158 164 0.07262410968542099
158 165 0.8135176301002502
158 166 0.9534569382667542
158 167 0.9683277606964111
158 168 0.20818911492824554
158 169 0.09743546694517136
158 170 0.10771896690130234
158 171 0.9516345858573914
158 172 0.9402995705604553
158 173 0.7780870795249939
158 174 0.9548923969268799
158 175 0.9529051184654236
158 176 0.6989808678627014
158 177 0.9171280860900879
158 178 0.9237669706344604
158 179 0.2351120263338089
158 180 0.9601866602897644
158 181 0.9495882391929626
158 182 0.9479253888130188
158 183 0.37889865040779114
158 185 0.9537376761436462
158 186 0.9416326284408569
158 187 0.94453364610672
158 188 0.809619128704071
158 189 0.9383894205093384
158 190 0.9046664834022522
158 191 0.5202637910842896
158 192 0.9344361424446106
158 193 0.9553401470184326
158 194 0.8325492143630981
158 195 0.6259257197380066
158 196 0.9605457186698914
158 197 0.7322187423706055
158 198 0.9473134875297546
158 199 0.7175296545028687
158 200 0.9406125545501709
158 201 0.786663830280304
158 202 0.3040190637111664
158 203 0.4613978862762451
158 204 0.9782014489173889
158 205 0.954738974571228
158 206 0.11284314095973969
158 207 0.951187014579773
158 208 0.3048657476902008
158 209 0.9534008502960205
158 210 0.9622417688369751
158 212 0.9440343379974365
158 213 0.9296611547470093
158 214 0.9534008502960205
158 215 0.7107137441635132
158 216 0.9383712410926819
158 217 0.9621333479881287
158 218 0.8694515824317932
158 219 0.470938116312027
158 220 0.19214533269405365
158 221 0.5739613771438599
158 222 0.898910403251648
158 223 0.9521337151527405
158 224 0.46399247646331787
158 225 0.9128280282020569
158 226 0.9551101922988892
158 227 0.5029476881027222
158 228 0.9573941230773926
158 229 0.11815785616636276
158 230 0.9478685259819031
158 231 0.24118977785110474
158 232 0.21036338806152344
158 233 0.7209038138389587
158 234 0.2776615619659424
158 235 0.9511362314224243
158 236 0.13072340190410614
158 238 0.9057657718658447
158 239 0.9619095921516418
158 240 0.9545035362243652
158 241 0.957310140132904
158 242 0.9300060272216797
158 243 0.9357602000236511
158 244 0.1388251930475235
158 245 0.18372607231140137
158 246 0.9418755769729614
158 247 0.9207354784011841
158 248 0.917332112789154
158 249 0.9542378783226013
158 250 0.31419837474823
158 251 0.9132575392723083
158 252 0.913460373878479
158 253 0.7062963247299194
158 254 0.9477031826972961
158 255 0.9310762882232666
159 160 0.14529827237129211
159 161 0.4427104592323303
159 162 0.2913479506969452
159 163 0.33739736676216125
159 164 0.06157490611076355
159 165 0.3858174681663513
159 166 0.4592149257659912
159 167 0.4480210244655609
159 168 0.23603715002536774
159 169 0.13768567144870758
159 170 0.1037844866514206
159 171 0.3967387080192566
159 172 0.4230530858039856
159 173 0.29767271876335144
159 174 0.4248243272304535
159 175 0.4483555853366852
159 176 0.3703976571559906
159 177 0.33516988158226013
159 178 0.47924476861953735
159 179 0.24480538070201874
159 180 0.4532661736011505
159 181 0.4697992205619812
159 182 0.4504677355289459
159 185 0.4546893239021301
159 186 0.4320380985736847
159 187 0.45013099908828735
159 188 0.387423574924469
159 189 0.45727914571762085
159 190 0.27260732650756836
159 191 0.5821334719657898
159 192 0.39338982105255127
159 193 0.46113431453704834
159 194 0.20433463156223297
159 195 0.5411273241043091
159 196 0.44558510184288025
159 197 0.35903361439704895
159 198 0.41990864276885986
159 199 0.49109533429145813
159 200 0.3614691495895386
159 201 0.5084002017974854
159 203 0.08394844084978104
159 204 0.46150022745132446
159 205 0.43508580327033997
159 207 0.42528751492500305
159 208 0.6000493168830872
159 209 0.4530303180217743
159 210 0.45324671268463135
159 212 0.4722757637500763
159 213 0.2785714864730835
159 214 0.39529114961624146
159 215 0.42567309737205505
159 216 0.41238415241241455
159 217 0.4122855067253113
159 218 0.45448896288871765
159 219 0.24094992876052856
159 221 0.4193848669528961
159 222 0.49913978576660156
159 223 0.4170171618461609
159 224 0.1730620414018631
159 225 0.4271492063999176
159 226 0.4673612117767334
159 227 0.24480128288269043
159 228 0.45715785026550293
159 229 0.06678736209869385
159 230 0.45317354798316956
159 231 0.45834994316101074
159 232 0.09617354720830917
159 233 0.24264083802700043
159 234 0.23685294389724731
159 235 0.4388572871685028
159 236 0.15393726527690887
159 238 0.41240593791007996
159 239 0.4149588644504547
159 240 0.45255962014198303
159 241 0.4641861617565155
159 242 0.4695688784122467
159 243 0.42990535497665405
159 244 0.11317693442106247
159 245 0.09735847264528275
159 246 0.4029098451137543
159 247 0.34670162200927734
159 248 0.41915586590766907
159 249 0.4437776207923889
159 250 0.07253343611955643
159 251 0.43771588802337646
159 252 0.44968557357788086
159 253 0.386923611164093
159 254 0.4568493962287903
159 255 0.4695688784122467
160 164 0.1348399668931961
160 165 0.12644512951374054
160 166 0.10687673836946487
160 167 0.09666009992361069
160 171 0.09761790186166763
160 172 0.10899105668067932
160 173 0.11745214462280273
160 174 0.10715528577566147
160 175 0.10693227499723434
160 177 0.08099008351564407
160 178 0.10994504392147064
160 180 0.10704360902309418
160 181 0.10726731270551682
160 182 0.10743601620197296
160 184 0.21320070326328278
160 185 0.08785611391067505
160 186 0.09855207055807114
160 187 0.09808164834976196
160 188 0.07971548289060593
160 189 0.10852327942848206
160 190 0.05102306604385376
160 191 0.10772842913866043
160 193 0.09756678342819214
160 195 0.11421580612659454
160 196 0.10627152025699615
160 197 0.13619746267795563
160 198 0.06847623735666275
160 199 0.09124830365180969
160 200 0.10952460020780563
160 201 0.1269071251153946
160 202 0.05941758677363396
160 203 0.055150408297777176
160 204 0.08703882992267609
160 205 0.08794834464788437
160 207 0.0689864456653595
160 208 0.20215684175491333
160 209 0.10698790103197098
160 210 0.09636344760656357
160 212 0.10783277451992035
160 213 0.060002993792295456
160 214 0.10698790103197098
160 217 0.09656091034412384
160 218 0.08749572932720184
160 221 0.14892825484275818
160 222 0.10510025173425674
160 223 0.10743601620197296
160 224 0.12940792739391327
160 225 0.11123602092266083
160 226 0.10671065002679825
160 227 0.13834288716316223
160 228 0.09766910970211029
160 229 0.29250895977020264
160 230 0.10754892975091934
160 231 0.3474411368370056
160 232 0.2680438458919525
160 233 0.11386021226644516
160 235 0.07805342227220535
160 236 0.1348399668931961
160 238 0.11225074529647827
160 239 0.09823770821094513
160 240 0.10687673836946487
160 241 0.09680946171283722
160 242 0.10928650945425034
160 243 0.10958436876535416
160 244 0.3469771146774292
160 245 0.10660035163164139
160 246 0.05948178842663765
160 247 0.0804477259516716
160 248 0.07139141112565994
160 249 0.07813528180122375
160 251 0.11276862025260925
160 252 0.05102306604385376
160 253 0.117319256067276
160 254 0.09808164834976196
160 255 0.10928650945425034
161 162 0.44671690464019775
161 163 0.2319428026676178
161 164 0.07262410968542099
161 165 0.7887530326843262
161 166 0.9534569382667542
161 167 0.9610392451286316
161 168 0.21303074061870575
161 169 0.08660930395126343
161 170 0.10771896690130234
161 171 0.9495315551757812
161 172 0.9328283667564392
161 173 0.7679656744003296
161 174 0.9506950974464417
161 175 0.9560465812683105
161 176 0.6826910376548767
161 177 0.9225807189941406
161 178 0.9291502237319946
161 179 0.2516111135482788
161 180 0.9528489708900452
161 181 0.9495882391929626
161 182 0.9489774703979492
161 183 0.41604557633399963
161 185 0.9579437971115112
161 186 0.9480022192001343
161 187 0.94453364610672
161 188 0.8218860626220703
161 189 0.9426403045654297
161 190 0.9112619161605835
161 191 0.5241319537162781
161 192 0.932278037071228
161 193 0.9553401470184326
161 194 0.805006206035614
161 195 0.6566837430000305
161 196 0.9605457186698914
161 197 0.7468897104263306
161 198 0.9589046239852905
161 199 0.7217421531677246
161 200 0.9277421832084656
161 201 0.7941203713417053
161 202 0.3136196732521057
161 203 0.5247658491134644
161 204 0.9594499468803406
161 205 0.954738974571228
161 206 0.11284314095973969
161 207 0.9437558650970459
161 208 0.3048657476902008
161 209 0.9534008502960205
161 210 0.9653558731079102
161 212 0.9545940160751343
161 213 0.9285839200019836
161 214 0.9554962515830994
161 215 0.7221079468727112
161 216 0.9469702839851379
161 217 0.9631734490394592
161 218 0.8352861404418945
161 219 0.5176259875297546
161 220 0.16469600796699524
161 221 0.5400940775871277
161 222 0.8762678503990173
161 223 0.9479253888130188
161 224 0.4799235463142395
161 225 0.9139173030853271
161 226 0.9561551213264465
161 227 0.5402030944824219
161 228 0.9531857967376709
161 229 0.10240347683429718
161 230 0.9499748945236206
161 231 0.20792220532894135
161 232 0.1979890614748001
161 233 0.7195410132408142
161 234 0.3115227222442627
161 235 0.9532381892204285
161 236 0.08714892715215683
161 238 0.9024680852890015
161 239 0.9418036937713623
161 240 0.9534569382667542
161 241 0.9583529233932495
161 242 0.9353570342063904
161 243 0.9271752238273621
161 244 0.17086179554462433
161 245 0.1607603132724762
161 246 0.9333325028419495
161 247 0.9207354784011841
161 248 0.9217265248298645
161 249 0.9489774703979492
161 250 0.3390853703022003
161 251 0.8977972865104675
161 252 0.9156588912010193
161 253 0.7006796598434448
161 254 0.9477031826972961
161 255 0.9300060272216797
162 163 0.3654421269893646
162 164 0.12617605924606323
162 165 0.12638793885707855
162 166 0.425040602684021
162 167 0.43189573287963867
162 168 0.3469841480255127
162 169 0.07053455710411072
162 171 0.4361754059791565
162 172 0.40795210003852844
162 173 0.203325092792511
162 174 0.4170328974723816
162 175 0.4252614676952362
162 176 0.4695504903793335
162 177 0.3884042799472809
162 178 0.4138610064983368
162 180 0.4416396915912628
162 181 0.4311563968658447
162 182 0.45696771144866943
162 185 0.4475935995578766
162 186 0.42651641368865967
162 187 0.41759708523750305
162 188 0.3676393926143646
162 189 0.46390023827552795
162 190 0.4392509460449219
162 191 0.3906252980232239
162 192 0.4264904260635376
162 193 0.45877140760421753
162 194 0.38880378007888794
162 195 0.5644445419311523
162 196 0.4474945068359375
162 197 0.3997179865837097
162 198 0.45768865942955017
162 199 0.4330254793167114
162 200 0.3866565525531769
162 201 0.3373662233352661
162 203 0.24943293631076813
162 204 0.4434298574924469
162 205 0.4206310510635376
162 207 0.4034615159034729
162 208 0.28375139832496643
162 209 0.4414098262786865
162 210 0.4508588910102844
162 212 0.4563620090484619
162 213 0.4328044652938843
162 214 0.42775797843933105
162 215 0.37736374139785767
162 216 0.44586148858070374
162 217 0.4382292926311493
162 218 0.4707745611667633
162 219 0.4232073724269867
162 221 0.35226890444755554
162 222 0.4302690625190735
162 223 0.4295496642589569
162 224 0.2032633125782013
162 225 0.3832358121871948
162 226 0.4493436813354492
162 227 0.17395368218421936
162 228 0.44097384810447693
162 230 0.44372454285621643
162 231 0.13546538352966309
162 233 0.21012908220291138
162 234 0.2353195697069168
162 235 0.4564889371395111
162 238 0.3509232699871063
162 239 0.41596338152885437
162 240 0.44095122814178467
162 241 0.42123943567276
162 242 0.46716275811195374
162 243 0.37987595796585083
162 245 0.07481319457292557
162 246 0.46615156531333923
162 247 0.4305000603199005
162 248 0.47717341780662537
162 249 0.4272648096084595
162 250 0.14187569916248322
162 251 0.4053037762641907
162 252 0.4297019839286804
162 253 0.3018980622291565
162 254 0.41759708523750305
162 255 0.4276515245437622
163 164 0.1252448707818985
163 166 0.20756763219833374
163 167 0.21098731458187103
163 168 0.4592311680316925
163 169 0.2333800196647644
163 171 0.1813429743051529
163 172 0.17946262657642365
163 174 0.15834347903728485
163 175 0.2121901661157608
163 176 0.26815855503082275
163 177 0.16455881297588348
163 178 0.2135266363620758
163 179 0.0711342990398407
163 180 0.22596922516822815
163 181 0.22191265225410461
163 182 0.22679759562015533
163 185 0.2312122881412506
163 186 0.2288479208946228
163 187 0.2140902429819107
163 188 0.20626260340213776
163 189 0.23367469012737274
163 190 0.1848299652338028
163 191 0.4169273376464844
163 192 0.23725806176662445
163 193 0.2310912013053894
163 194 0.18891890347003937
163 195 0.33152589201927185
163 196 0.2243393361568451
163 197 0.20125912129878998
163 198 0.23169852793216705
163 199 0.2784811854362488
163 200 0.08323438465595245
163 201 0.21432092785835266
163 203 0.14514018595218658
163 204 0.22457002103328705
163 205 0.21330170333385468
163 207 0.21969400346279144
163 208 0.3755430281162262
163 209 0.19423240423202515
163 210 0.22376571595668793
163 212 0.23218786716461182
163 213 0.14397750794887543
163 214 0.16713020205497742
163 215 0.2640472650527954
163 216 0.2363467812538147
163 217 0.18386389315128326
163 218 0.23872941732406616
163 219 0.24504899978637695
163 221 0.1690707951784134
163 222 0.24405348300933838
163 223 0.19958190619945526
163 224 0.06009967625141144
163 225 0.13619527220726013
163 226 0.2297717034816742
163 228 0.22679759562015533
163 230 0.19979165494441986
163 233 0.052879005670547485
163 234 0.2481817901134491
163 235 0.22202880680561066
163 238 0.12321998178958893
163 239 0.18705672025680542
163 240 0.21659228205680847
163 241 0.2248014211654663
163 242 0.23531806468963623
163 243 0.18969286978244781
163 246 0.23020462691783905
163 247 0.13543567061424255
163 248 0.24156242609024048
163 249 0.19504593312740326
163 250 0.13412250578403473
163 251 0.1666383147239685
163 252 0.22748303413391113
163 253 0.09080907702445984
163 254 0.2232004553079605
163 255 0.2076335847377777
164 166 0.07205627858638763
164 167 0.07168504595756531
164 168 0.19999998807907104
164 169 0.14907120168209076
164 171 0.07239537686109543
164 175 0.05767497792840004
164 176 0.08156473934650421
164 180 0.07216878235340118
164 181 0.07231960445642471
164 182 0.05794667825102806
164 185 0.07239537686109543
164 186 0.07308816909790039
164 188 0.08445512503385544
164 189 0.0731663778424263
164 191 0.10652472823858261
164 192 0.05943070352077484
164 193 0.07235746085643768
164 194 0.08619409054517746
164 195 0.08470471203327179
164 196 0.07164823263883591
164 197 0.0734594389796257
164 198 0.07254762947559357
164 199 0.07733891904354095
164 201 0.06844861060380936
164 203 0.0545341856777668
164 204 0.07172191143035889
164 205 0.07247138023376465
164 207 0.07308816909790039
164 208 0.0856705829501152
164 209 0.07213123142719269
164 210 0.07146504521369934
164 212 0.07270084321498871
164 213 0.059332557022571564
164 214 0.05770498141646385
164 215 0.0980580598115921
164 216 0.07400305569171906
164 218 0.06488856673240662
164 221 0.09817613661289215
164 222 0.06235554441809654
164 223 0.07243335247039795
164 226 0.07194431126117706
164 228 0.07243335247039795
164 230 0.07250947505235672
164 232 0.05679618567228317
164 235 0.07235746085643768
164 239 0.07285503298044205
164 240 0.07205627858638763
164 241 0.07179581373929977
164 242 0.07368094474077225
164 243 0.05910541117191315
164 246 0.058817166835069656
164 247 0.059661634266376495
164 248 0.0756361335515976
164 249 0.07243335247039795
164 251 0.07602858543395996
164 254 0.07273929566144943
164 255 0.07368094474077225
165 166 0.8415563702583313
165 167 0.8335540294647217
165 170 0.12644512951374054
165 171 0.8257673382759094
165 172 0.8143547773361206
165 173 0.8049379587173462
165 174 0.8437497019767761
165 175 0.8309310078620911
165 176 0.3980785310268402
165 177 0.815423846244812
165 178 0.8126359581947327
165 179 0.24693356454372406
165 180 0.8084172010421753
165 181 0.8298352956771851
165 182 0.8052058219909668
165 183 0.3633720874786377
165 184 0.05391639098525047
165 185 0.7973777651786804
165 186 0.7975315451622009
165 187 0.8247295022010803
165 188 0.6710156798362732
165 189 0.7834151983261108
165 190 0.7483877539634705
165 191 0.30648908019065857
165 192 0.7574306726455688
165 193 0.796960175037384
165 194 0.6304571032524109
165 195 0.4007664620876312
165 196 0.811137318611145
165 197 0.6184085607528687
165 198 0.7891592383384705
165 199 0.4664610028266907
165 200 0.8410030603408813
165 201 0.7600342035293579
165 202 0.34560099244117737
165 203 0.39284059405326843
165 204 0.8205313086509705
165 205 0.8130424618721008
165 206 0.11208163946866989
165 207 0.8099929690361023
165 208 0.23370742797851562
165 209 0.8338228464126587
165 210 0.8224664926528931
165 212 0.7871073484420776
165 213 0.7903215885162354
165 214 0.8178350925445557
165 215 0.5216253399848938
165 216 0.762091875076294
165 217 0.8253728747367859
165 218 0.695611834526062
165 219 0.24066179990768433
165 220 0.1997714638710022
165 221 0.4184722900390625
165 222 0.7681281566619873
165 223 0.8175556659698486
165 224 0.5212785005569458
165 225 0.8298500180244446
165 226 0.8144891858100891
165 227 0.4919845759868622
165 228 0.8064408302307129
165 229 0.1386987715959549
165 230 0.8184149265289307
165 231 0.2831189036369324
165 232 0.2856682538986206
165 233 0.7774418592453003
165 234 0.09141968190670013
165 235 0.7994275093078613
165 236 0.17049859464168549
165 238 0.8645168542861938
165 239 0.8161043524742126
165 240 0.8231281042098999
165 241 0.8262732028961182
165 242 0.766312301158905
165 243 0.825086236000061
165 244 0.22563549876213074
165 245 0.12805142998695374
165 246 0.7709212899208069
165 247 0.7832613587379456
165 248 0.7273260951042175
165 249 0.8286703824996948
165 250 0.1132020354270935
165 251 0.8399872779846191
165 252 0.7587102651596069
165 253 0.632936418056488
165 254 0.8110873699188232
165 255 0.8379185795783997
166 167 0.967988133430481
166 168 0.17773881554603577
166 170 0.10687673836946487
166 171 0.9619302749633789
166 172 0.9498909711837769
166 173 0.8134279847145081
166 174 0.9630433320999146
166 175 0.9641559720039368
166 176 0.6655987501144409
166 177 0.9283512830734253
166 178 0.9432500600814819
166 179 0.24555131793022156
166 180 0.9599595665931702
166 181 0.9703035354614258
166 182 0.960347056388855
166 183 0.40787839889526367
166 185 0.9567137360572815
166 186 0.9469098448753357
166 187 0.9612587094306946
166 188 0.8142428994178772
166 189 0.9468687176704407
166 190 0.9150434136390686
166 191 0.5046823024749756
166 192 0.9303417801856995
166 193 0.957255482673645
166 194 0.7949856519699097
166 195 0.6393423080444336
166 196 0.9685235619544983
166 197 0.7595762014389038
166 198 0.9545437097549438
166 199 0.7063466906547546
166 200 0.9460278749465942
166 201 0.818737268447876
166 202 0.32069310545921326
166 203 0.4892266094684601
166 204 0.9695194959640503
166 205 0.956673800945282
166 206 0.12057321518659592
166 207 0.9469098448753357
166 208 0.3210013806819916
166 209 0.9719340205192566
166 210 0.9742863774299622
166 212 0.9523687958717346
166 213 0.9352182745933533
166 214 0.9625784754753113
166 215 0.7065699100494385
166 216 0.9342337846755981
166 217 0.9690588712692261
166 218 0.8556401133537292
166 219 0.4692699909210205
166 220 0.18519607186317444
166 221 0.5588623881340027
166 222 0.8952519297599792
166 223 0.9561716914176941
166 224 0.5235906839370728
166 225 0.9370334148406982
166 226 0.9642313718795776
166 227 0.5452203750610352
166 228 0.9572155475616455
166 229 0.12504960596561432
166 230 0.963446319103241
166 231 0.25168177485466003
166 232 0.25373634696006775
166 233 0.7490700483322144
166 234 0.23517487943172455
166 235 0.9603837728500366
166 236 0.1369069367647171
166 238 0.9292216897010803
166 239 0.9543886780738831
166 240 0.9730010032653809
166 241 0.9674144983291626
166 242 0.9386621713638306
166 243 0.9486736059188843
166 244 0.19601428508758545
166 245 0.16519993543624878
166 246 0.9429876208305359
166 247 0.9339567422866821
166 248 0.9145197868347168
166 249 0.963478684425354
166 250 0.2716165781021118
166 251 0.9258390665054321
166 252 0.9139527678489685
166 253 0.7202785611152649
166 254 0.9518243074417114
166 255 0.959898829460144
167 168 0.20071813464164734
167 169 0.0854894146323204
167 170 0.10632611066102982
167 171 0.9642398953437805
167 172 0.9555323123931885
167 173 0.7967489957809448
167 174 0.9705109000205994
167 175 0.9715919494628906
167 176 0.68555748462677
167 177 0.9397147297859192
167 178 0.9383904337882996
167 179 0.2524290978908539
167 180 0.968464732170105
167 181 0.9653044939041138
167 182 0.9616302251815796
167 183 0.3911103904247284
167 185 0.962164044380188
167 186 0.9525099992752075
167 187 0.9604777693748474
167 188 0.8185237646102905
167 189 0.9535292983055115
167 190 0.9200942516326904
167 191 0.5192636847496033
167 192 0.9383295774459839
167 193 0.9637349247932434
167 194 0.8230197429656982
167 195 0.6375664472579956
167 196 0.9727786779403687
167 197 0.747763991355896
167 198 0.9621073603630066
167 199 0.7096376419067383
167 200 0.9517406225204468
167 201 0.8071590662002563
167 202 0.30956441164016724
167 203 0.4925699532032013
167 204 0.9768638610839844
167 205 0.9746034145355225
167 206 0.10281602293252945
167 207 0.9629886746406555
167 208 0.3009237051010132
167 209 0.9700289964675903
167 210 0.9784882664680481
167 212 0.9589276313781738
167 213 0.9431596994400024
167 214 0.967960774898529
167 215 0.7099590301513672
167 216 0.9442743062973022
167 217 0.9794666171073914
167 218 0.8616978526115417
167 219 0.4788742661476135
167 220 0.18424193561077118
167 221 0.5559831261634827
167 222 0.9051669836044312
167 223 0.9616302251815796
167 224 0.5090993046760559
167 225 0.9279049038887024
167 226 0.9695783257484436
167 227 0.5221858620643616
167 228 0.9688995480537415
167 229 0.10885468125343323
167 230 0.9616013765335083
167 231 0.2339664101600647
167 232 0.2239290475845337
167 233 0.74924635887146
167 234 0.2673865854740143
167 235 0.9637349247932434
167 236 0.12186457961797714
167 238 0.9200942516326904
167 239 0.9661840796470642
167 240 0.9669550657272339
167 241 0.975811779499054
167 242 0.9454461336135864
167 243 0.9554377198219299
167 244 0.18973402678966522
167 245 0.17568323016166687
167 246 0.9465619325637817
167 247 0.9355603456497192
167 248 0.9206520915031433
167 249 0.9709765315055847
167 250 0.3224182426929474
167 251 0.9265192747116089
167 252 0.9266043305397034
167 253 0.7124096155166626
167 254 0.9583920240402222
167 255 0.9454461336135864
168 169 0.19876159727573395
168 171 0.19788068532943726
168 172 0.1714574247598648
168 174 0.17338578402996063
168 175 0.2066686749458313
168 176 0.2650853991508484
168 177 0.1301383376121521
168 178 0.182841494679451
168 180 0.19245009124279022
168 181 0.20731620490550995
168 182 0.20764225721359253
168 185 0.2171861231327057
168 186 0.2095194160938263
168 187 0.16972501575946808
168 188 0.14638887345790863
168 189 0.2194991409778595
168 190 0.18667592108249664
168 191 0.3018200695514679
168 192 0.21791259944438934
168 193 0.2122485637664795
168 194 0.14365680515766144
168 195 0.3035252094268799
168 196 0.2149447202682495
168 197 0.21425670385360718
168 198 0.2128063589334488
168 199 0.2513514757156372
168 200 0.113223597407341
168 201 0.22245797514915466
168 203 0.17269159853458405
168 204 0.20560282468795776
168 205 0.18359415233135223
168 207 0.20464688539505005
168 208 0.28556862473487854
168 209 0.20196743309497833
168 210 0.21439512073993683
168 212 0.21810252964496613
168 213 0.16810891032218933
168 214 0.1634974479675293
168 215 0.1961161345243454
168 216 0.21214208006858826
168 217 0.18618986010551453
168 218 0.22710998356342316
168 219 0.12112034857273102
168 221 0.1963522732257843
168 222 0.20265552401542664
168 223 0.20281337201595306
168 224 0.054840847849845886
168 225 0.10499343276023865
168 226 0.21103665232658386
168 227 0.12824729084968567
168 228 0.183497816324234
168 230 0.19335860013961792
168 231 0.07634644210338593
168 233 0.056293997913599014
168 234 0.12433397769927979
168 235 0.2122485637664795
168 238 0.16649474203586578
168 239 0.20399409532546997
168 240 0.20175759494304657
168 241 0.21538744866847992
168 242 0.22104282677173615
168 243 0.19701804220676422
168 246 0.21076153218746185
168 247 0.13423867523670197
168 248 0.2269083857536316
168 249 0.16418224573135376
168 250 0.0856705829501152
168 251 0.18246862292289734
168 252 0.19676651060581207
168 253 0.058004189282655716
168 254 0.18912217020988464
168 255 0.2112186998128891
169 171 0.06475239247083664
169 172 0.08763210475444794
169 174 0.07538657635450363
169 175 0.06448258459568024
169 176 0.1367882341146469
169 178 0.08839914202690125
169 179 0.1270001232624054
169 180 0.09682458639144897
169 181 0.08624616265296936
169 182 0.07558407634496689
169 185 0.09712859243154526
169 186 0.0980580672621727
169 187 0.07590333372354507
169 188 0.11330843716859818
169 189 0.08725599944591522
169 191 0.15879769623279572
169 192 0.08859406411647797
169 193 0.09707771986722946
169 194 0.08994338661432266
169 195 0.09470274299383163
169 196 0.08544550836086273
169 198 0.09733285009860992
169 199 0.11529004573822021
169 200 0.05503818392753601
169 201 0.11479181051254272
169 204 0.09622504562139511
169 205 0.0756237655878067
169 207 0.0980580672621727
169 208 0.19156524538993835
169 209 0.05376344174146652
169 210 0.07457365840673447
169 212 0.09753841161727905
169 214 0.05376344174146652
169 215 0.08770579844713211
169 216 0.09928550571203232
169 217 0.06405126303434372
169 218 0.10882143676280975
169 219 0.0624999962747097
169 220 0.05634361505508423
169 221 0.1280582994222641
169 222 0.10457342118024826
169 223 0.09717953205108643
169 226 0.09652341902256012
169 228 0.09717953205108643
169 230 0.07566352188587189
169 234 0.13900960981845856
169 235 0.08629130572080612
169 238 0.056408122181892395
169 239 0.08688469231128693
169 240 0.07519061118364334
169 241 0.09632419049739838
169 242 0.09885336458683014
169 243 0.08810914307832718
169 245 0.1767766922712326
169 246 0.07671952992677689
169 247 0.055586449801921844
169 248 0.09020134806632996
169 249 0.09717953205108643
169 250 0.09578262269496918
169 251 0.07933571189641953
169 252 0.09025299549102783
169 253 0.08646753430366516
169 254 0.09759000688791275
169 255 0.07688594609498978
170 171 0.08785611391067505
170 172 0.10899105668067932
170 173 0.11745214462280273
170 174 0.10715528577566147
170 175 0.10693227499723434
170 176 0.05499093607068062
170 177 0.10123760253190994
170 178 0.10994504392147064
170 179 0.22975187003612518
170 180 0.10704360902309418
170 181 0.10726731270551682
170 182 0.10743601620197296
170 185 0.10737969726324081
170 186 0.10840727388858795
170 187 0.1078898087143898
170 188 0.06832755357027054
170 189 0.10852327942848206
170 191 0.08977369964122772
170 192 0.09015338867902756
170 193 0.10732346028089523
170 194 0.08135685324668884
170 196 0.10627152025699615
170 197 0.09905268996953964
170 198 0.09782319515943527
170 199 0.05214188992977142
170 200 0.10952460020780563
170 201 0.11537011712789536
170 204 0.10638079792261124
170 205 0.10749242454767227
170 207 0.10840727388858795
170 209 0.10698790103197098
170 210 0.09636344760656357
170 212 0.10783277451992035
170 213 0.07000349462032318
170 214 0.09726172685623169
170 215 0.10577717423439026
170 216 0.10976425558328629
170 217 0.10621700435876846
170 220 0.05096472054719925
170 222 0.115610271692276
170 223 0.07813528180122375
170 225 0.11123602092266083
170 226 0.10671065002679825
170 228 0.10743601620197296
170 230 0.10754892975091934
170 233 0.08855794370174408
170 235 0.09756678342819214
170 238 0.11225074529647827
170 239 0.10806147754192352
170 240 0.10687673836946487
170 241 0.10649040341377258
170 242 0.08941622823476791
170 243 0.10958436876535416
170 247 0.09050370007753372
170 248 0.050993867218494415
170 249 0.10743601620197296
170 251 0.11276862025260925
170 252 0.10204613208770752
170 254 0.1078898087143898
170 255 0.10928650945425034
171 172 0.9415937662124634
171 173 0.8147335648536682
171 174 0.9592071175575256
171 175 0.9582546949386597
171 176 0.6569212079048157
171 177 0.9272845387458801
171 178 0.9294435381889343
171 179 0.23437152802944183
171 180 0.9561175107955933
171 181 0.9539272785186768
171 182 0.9543787240982056
171 183 0.4122665226459503
171 185 0.9517819881439209
171 186 0.9481911063194275
171 187 0.9573567509651184
171 188 0.8119604587554932
171 189 0.9439088702201843
171 190 0.9259241223335266
171 191 0.4742817282676697
171 192 0.9325686693191528
171 193 0.9523311853408813
171 194 0.8112068772315979
171 195 0.6285535097122192
171 196 0.9637447595596313
171 197 0.7578327059745789
171 198 0.9537835717201233
171 199 0.6886745691299438
171 200 0.9440648555755615
171 201 0.807724118232727
171 202 0.3285825252532959
171 203 0.5270610451698303
171 204 0.9616204500198364
171 205 0.9548798203468323
171 206 0.12114062905311584
171 207 0.9471328854560852
171 208 0.29460233449935913
171 209 0.9618863463401794
171 210 0.9726628065109253
171 212 0.9473767876625061
171 213 0.9482100605964661
171 214 0.966063916683197
171 215 0.6843388080596924
171 216 0.9322012662887573
171 217 0.9705085158348083
171 218 0.8443993330001831
171 219 0.4896899461746216
171 220 0.186067596077919
171 221 0.5543848872184753
171 222 0.8780222535133362
171 223 0.9606713652610779
171 224 0.5240694880485535
171 225 0.9262409210205078
171 226 0.9583519697189331
171 227 0.5347878336906433
171 228 0.9522812366485596
171 229 0.11778571456670761
171 230 0.9553817510604858
171 231 0.22799408435821533
171 232 0.24670685827732086
171 233 0.7593874931335449
171 234 0.26328521966934204
171 235 0.9565218687057495
171 236 0.13031166791915894
171 238 0.9248283505439758
171 239 0.9493861198425293
171 240 0.9588003158569336
171 241 0.9615716934204102
171 242 0.9345447421073914
171 243 0.9317432045936584
171 244 0.1969367116689682
171 245 0.1545306295156479
171 246 0.9378445148468018
171 247 0.934032678604126
171 248 0.908967137336731
171 249 0.9533299803733826
171 250 0.3101077079772949
171 251 0.9147844910621643
171 252 0.9072960615158081
171 253 0.7152697443962097
171 254 0.9468247890472412
171 255 0.9420125484466553
172 173 0.803917407989502
172 174 0.9513049721717834
172 175 0.9440275430679321
172 176 0.68625807762146
172 177 0.9180281758308411
172 178 0.9205142259597778
172 179 0.25875595211982727
172 180 0.939707338809967
172 181 0.9406083822250366
172 182 0.9378296732902527
172 183 0.405924528837204
172 185 0.9373379945755005
172 186 0.9280477166175842
172 187 0.942859947681427
172 188 0.7856682538986206
172 189 0.9258150458335876
172 190 0.8953303098678589
172 191 0.4833557903766632
172 192 0.9138098955154419
172 193 0.9368471503257751
172 194 0.8031121492385864
172 195 0.6037523150444031
172 196 0.9571475982666016
172 197 0.7651563882827759
172 198 0.9339783191680908
172 199 0.7061126232147217
172 200 0.944124162197113
172 201 0.7796071171760559
172 202 0.3302752673625946
172 203 0.4468103349208832
172 204 0.9486453533172607
172 205 0.9479076862335205
172 206 0.11417574435472488
172 207 0.9280477166175842
172 208 0.261251837015152
172 209 0.9455786347389221
172 210 0.9515494108200073
172 212 0.9316771030426025
172 213 0.9210204482078552
172 214 0.9476988315582275
172 215 0.6816383004188538
172 216 0.9124751687049866
172 217 0.957709014415741
172 218 0.8296539187431335
172 219 0.41693711280822754
172 220 0.1944144368171692
172 221 0.5609005689620972
172 222 0.8694335222244263
172 223 0.9378296732902527
172 224 0.4795464277267456
172 225 0.9191992282867432
172 226 0.9463003277778625
172 227 0.5522367358207703
172 228 0.9431521892547607
172 229 0.13549365103244781
172 230 0.9441434144973755
172 231 0.24824562668800354
172 232 0.2545824944972992
172 233 0.7156286835670471
172 234 0.18500962853431702
172 235 0.9368471503257751
172 236 0.13961532711982727
172 238 0.8964424729347229
172 239 0.948642909526825
172 240 0.9562448263168335
172 241 0.9485676884651184
172 242 0.9171663522720337
172 243 0.9381245374679565
172 244 0.19989198446273804
172 245 0.17427727580070496
172 246 0.9195030927658081
172 247 0.9129766225814819
172 248 0.8914831876754761
172 249 0.9495391845703125
172 250 0.28328511118888855
172 251 0.9229251742362976
172 252 0.8908814191818237
172 253 0.6819599270820618
172 254 0.9385839104652405
172 255 0.930160403251648
173 174 0.8193236589431763
173 175 0.7912437319755554
173 176 0.4511474072933197
173 177 0.7913177013397217
173 178 0.8096626996994019
173 179 0.25230836868286133
173 180 0.7870385646820068
173 181 0.7924630045890808
173 182 0.7924474477767944
173 183 0.46038880944252014
173 184 0.055089935660362244
173 185 0.776897668838501
173 186 0.7741461396217346
173 187 0.8148024678230286
173 188 0.6488388776779175
173 189 0.7609535455703735
173 190 0.759403645992279
173 191 0.2482084333896637
173 192 0.7519159913063049
173 193 0.7764908075332642
173 194 0.6186528205871582
173 195 0.4629814326763153
173 196 0.8025807738304138
173 197 0.7070533633232117
173 198 0.778531551361084
173 199 0.5136653184890747
173 200 0.8194303512573242
173 201 0.7497473359107971
173 202 0.3915063738822937
173 203 0.4963950514793396
173 204 0.7896620035171509
173 205 0.7878134846687317
173 206 0.12493223696947098
173 207 0.7703263163566589
173 208 0.16790226101875305
173 209 0.8004515171051025
173 210 0.7967938184738159
173 212 0.7700436115264893
173 213 0.8010636568069458
173 214 0.807991087436676
173 215 0.4151087701320648
173 216 0.7412927746772766
173 217 0.8096544146537781
173 218 0.6641227602958679
173 219 0.28972387313842773
173 220 0.23045773804187775
173 221 0.4468219578266144
173 222 0.6897966265678406
173 223 0.8025423288345337
173 224 0.5397900938987732
173 225 0.8322346806526184
173 226 0.7908572554588318
173 227 0.5585479736328125
173 228 0.7823525667190552
173 229 0.16061338782310486
173 230 0.7970699071884155
173 231 0.2593556344509125
173 232 0.306727796792984
173 233 0.7208114862442017
173 234 0.14620622992515564
173 235 0.7827935218811035
173 236 0.16549919545650482
173 238 0.8213688135147095
173 239 0.7919840216636658
173 240 0.7983645796775818
173 241 0.8042339086532593
173 242 0.7547528743743896
173 243 0.7774034738540649
173 244 0.2241426408290863
173 245 0.19970102608203888
173 246 0.7556808590888977
173 247 0.7756248712539673
173 248 0.7102158069610596
173 249 0.78487628698349
173 250 0.21267619729042053
173 251 0.7960194945335388
173 252 0.7172145247459412
173 253 0.6130300760269165
173 254 0.788191556930542
173 255 0.8022458553314209
174 175 0.9614604115486145
174 176 0.6584945917129517
174 177 0.9437885284423828
174 178 0.9403533339500427
174 179 0.24619126319885254
174 180 0.9572476744651794
174 181 0.9613379836082458
174 182 0.9534308314323425
174 183 0.4064779281616211
174 185 0.9539769887924194
174 186 0.9451534748077393
174 187 0.9532540440559387
174 188 0.8102635145187378
174 189 0.9429934024810791
174 190 0.9141477346420288
174 191 0.47713837027549744
174 192 0.9273995757102966
174 193 0.9545229077339172
174 194 0.8070207238197327
174 195 0.6272398829460144
174 196 0.9669067859649658
174 197 0.7509418725967407
174 198 0.9517903327941895
174 199 0.6942193508148193
174 200 0.952761173248291
174 201 0.8109810948371887
174 202 0.324712336063385
174 203 0.5023209452629089
174 204 0.9637559056282043
174 205 0.9591670632362366
174 206 0.11225264519453049
174 207 0.9451534748077393
174 208 0.278513640165329
174 209 0.9630026817321777
174 210 0.9675323367118835
174 212 0.9495987296104431
174 213 0.941942036151886
174 214 0.9650871753692627
174 215 0.6857423186302185
174 216 0.9313223361968994
174 217 0.975723147392273
174 218 0.8426347374916077
174 219 0.462415874004364
174 220 0.1911398470401764
174 221 0.5390409827232361
174 222 0.88519686460495
174 223 0.9544773697853088
174 224 0.5209933519363403
174 225 0.9318903684616089
174 226 0.961546778678894
174 227 0.53367018699646
174 228 0.9565705060958862
174 229 0.13321149349212646
174 230 0.9533851146697998
174 231 0.2523377239704132
174 232 0.2543976306915283
174 233 0.7605118155479431
174 234 0.2324194461107254
174 235 0.9555683732032776
174 236 0.1444881558418274
174 238 0.9250825047492981
174 239 0.9568760395050049
174 240 0.962002158164978
174 241 0.9637115597724915
174 242 0.9357855319976807
174 243 0.9447410106658936
174 244 0.19652512669563293
174 245 0.1827646642923355
174 246 0.9380091428756714
174 247 0.9320806860923767
174 248 0.9092531800270081
174 249 0.9576170444488525
174 250 0.3032704293727875
174 251 0.9260549545288086
174 252 0.9086803197860718
174 253 0.7039971351623535
174 254 0.9532540440559387
174 255 0.9453669190406799
175 176 0.6703549027442932
175 177 0.9234208464622498
175 178 0.9319835901260376
175 179 0.24158425629138947
175 180 0.9594177603721619
175 181 0.9666366577148438
175 182 0.9608460664749146
175 183 0.42038223147392273
175 185 0.9592984914779663
175 186 0.9474018216133118
175 187 0.9533677101135254
175 188 0.8110127449035645
175 189 0.9505255818367004
175 190 0.9155188798904419
175 191 0.5087844133377075
175 192 0.931896448135376
175 193 0.9567095637321472
175 194 0.7966415882110596
175 195 0.6534145474433899
175 196 0.9679937958717346
175 197 0.7705628871917725
175 198 0.9550396800041199
175 199 0.7067137360572815
175 200 0.9411959648132324
175 201 0.8092933297157288
175 202 0.3272134065628052
175 203 0.5071729421615601
175 204 0.9658867120742798
175 205 0.957170844078064
175 206 0.11201902478933334
175 207 0.9526710510253906
175 208 0.31808003783226013
175 209 0.9745190739631653
175 210 0.9747926592826843
175 212 0.9518154263496399
175 213 0.9378429651260376
175 214 0.9620386362075806
175 215 0.7083510160446167
175 216 0.9347192645072937
175 217 0.9695624113082886
175 218 0.8478980660438538
175 219 0.48361942172050476
175 220 0.16894297301769257
175 221 0.5662307143211365
175 222 0.8900978565216064
175 223 0.9556241035461426
175 224 0.5060712099075317
175 225 0.9267069101333618
175 226 0.9626576900482178
175 227 0.5584478378295898
175 228 0.9556241035461426
175 229 0.11729493737220764
175 230 0.9608104228973389
175 231 0.25181254744529724
175 232 0.24567890167236328
175 233 0.7386367917060852
175 234 0.2722723186016083
175 235 0.9587961435317993
175 236 0.14418745040893555
175 238 0.9187924861907959
175 239 0.9527837038040161
175 240 0.9662339091300964
175 241 0.9720579981803894
175 242 0.9380874633789062
175 243 0.949166476726532
175 244 0.1961161345243454
175 245 0.13678821921348572
175 246 0.9445376992225647
175 247 0.927990198135376
175 248 0.920447826385498
175 249 0.9608460664749146
175 250 0.2902866303920746
175 251 0.91974276304245
175 252 0.917701244354248
175 253 0.7053198218345642
175 254 0.9512701034545898
175 255 0.9476489424705505
176 177 0.5863600969314575
176 178 0.618201494216919
176 179 0.1910933405160904
176 180 0.6916552782058716
176 181 0.6695058941841125
176 182 0.6794207692146301
176 183 0.22250676155090332
176 184 0.06448258459568024
176 185 0.6879220008850098
176 186 0.6453234553337097
176 187 0.6659749746322632
176 188 0.5028648972511292
176 189 0.6743610501289368
176 190 0.6419684290885925
176 191 0.5647630095481873
176 192 0.6862171292304993
176 193 0.6801844239234924
176 194 0.667887806892395
176 195 0.6153255105018616
176 196 0.701276421546936
176 197 0.6759386658668518
176 198 0.6642200946807861
176 199 0.7609179615974426
176 200 0.664020299911499
176 201 0.40651166439056396
176 202 0.14825956523418427
176 203 0.20294305682182312
176 204 0.6990724802017212
176 205 0.6738664507865906
176 206 0.12186063826084137
176 207 0.6542655229568481
176 208 0.19652903079986572
176 209 0.6662909984588623
176 210 0.6776244640350342
176 212 0.7026842832565308
176 213 0.6503003239631653
176 214 0.6707035303115845
176 215 0.7018315196037292
176 216 0.7031986117362976
176 217 0.6804733276367188
176 218 0.6880404353141785
176 219 0.31347301602363586
176 220 0.11560714244842529
176 221 0.6781530380249023
176 222 0.624626100063324
176 223 0.6587427258491516
176 224 0.07548321783542633
176 225 0.6071096062660217
176 226 0.6983060836791992
176 227 0.3765764534473419
176 228 0.6823747754096985
176 230 0.6594350934028625
176 231 0.14594948291778564
176 233 0.17027202248573303
176 234 0.1853950470685959
176 235 0.6772335171699524
176 238 0.577154278755188
176 239 0.7012034058570862
176 240 0.6935157775878906
176 241 0.6807608008384705
176 242 0.6986353993415833
176 243 0.6749284267425537
176 245 0.13702550530433655
176 246 0.6956239938735962
176 247 0.6630313992500305
176 248 0.7110050320625305
176 249 0.6927137970924377
176 250 0.20963096618652344
176 251 0.6619836688041687
176 252 0.6296228766441345
176 253 0.3804589807987213
176 254 0.671907901763916
176 255 0.6535621881484985
177 178 0.9049155116081238
177 179 0.23879782855510712
177 180 0.9200475811958313
177 181 0.9197984337806702
177 182 0.915806770324707
177 183 0.40707188844680786
177 185 0.9207620620727539
177 186 0.9109160304069519
177 187 0.9251362681388855
177 188 0.8078274726867676
177 189 0.9118908643722534
177 190 0.8920736312866211
177 191 0.4258858859539032
177 192 0.903564453125
177 193 0.9191933274269104
177 194 0.7933980226516724
177 195 0.545336902141571
177 196 0.9284734725952148
177 197 0.6783844828605652
177 198 0.932502806186676
177 199 0.6358218193054199
177 200 0.912542998790741
177 201 0.7772902250289917
177 202 0.3275327980518341
177 203 0.4974716603755951
177 204 0.9283512830734253
177 205 0.9391403198242188
177 206 0.11665880680084229
177 207 0.915306031703949
177 208 0.23798885941505432
177 209 0.9239012598991394
177 210 0.935757577419281
177 212 0.9104554653167725
177 213 0.9232318997383118
177 214 0.9336493015289307
177 215 0.6449270844459534
177 216 0.9045387506484985
177 217 0.9441269636154175
177 218 0.7941069006919861
177 219 0.47636961936950684
177 220 0.18729150295257568
177 221 0.42014965415000916
177 222 0.8462069630622864
177 223 0.9245079755783081
177 224 0.5352673530578613
177 225 0.9054059386253357
177 226 0.9236676692962646
177 227 0.49684521555900574
177 228 0.9288585782051086
177 229 0.10586614161729813
177 230 0.9156804084777832
177 231 0.1805604249238968
177 232 0.23026932775974274
177 233 0.7861369848251343
177 234 0.25554484128952026
177 235 0.923539400100708
177 236 0.11261972039937973
177 238 0.8807096481323242
177 239 0.9167623519897461
177 240 0.9207773208618164
177 241 0.9282297492027283
177 242 0.8961762189865112
177 243 0.9041658043861389
177 244 0.17663928866386414
177 245 0.16026067733764648
177 246 0.8997563719749451
177 247 0.9003562927246094
177 248 0.8745269775390625
177 249 0.9234203100204468
177 250 0.33447083830833435
177 251 0.8802064061164856
177 252 0.8852552771568298
177 253 0.6779195666313171
177 254 0.9185827374458313
177 255 0.8950697779655457
178 179 0.23997074365615845
178 180 0.9318839907646179
178 181 0.9370478987693787
178 182 0.9299310445785522
178 183 0.39936700463294983
178 185 0.9283702969551086
178 186 0.9210014343261719
178 187 0.9317022562026978
178 188 0.797553300857544
178 189 0.9187329411506653
178 190 0.8840939998626709
178 191 0.4777163565158844
178 192 0.9030859470367432
178 193 0.9321748614311218
178 194 0.752639651298523
178 195 0.6247337460517883
178 196 0.9389708042144775
178 197 0.7133181095123291
178 198 0.924945056438446
178 199 0.6807631254196167
178 200 0.9107893705368042
178 201 0.8168735504150391
178 202 0.310301810503006
178 203 0.5012505054473877
178 204 0.9378097653388977
178 205 0.9282705187797546
178 206 0.12403474003076553
178 207 0.9166672825813293
178 208 0.34291762113571167
178 209 0.9346070289611816
178 210 0.9418673515319824
178 212 0.9268984794616699
178 213 0.9015944600105286
178 214 0.9313990473747253
178 215 0.6498081684112549
178 216 0.9029085040092468
178 217 0.9395508170127869
178 218 0.8188787698745728
178 219 0.5013889074325562
178 220 0.1961161196231842
178 221 0.5112302899360657
178 222 0.8666438460350037
178 223 0.9277833700180054
178 224 0.5284596681594849
178 225 0.9272449612617493
178 226 0.9353848695755005
178 227 0.5323539972305298
178 228 0.9310048818588257
178 229 0.13667961955070496
178 230 0.928758442401886
178 231 0.2589072585105896
178 232 0.26102080941200256
178 233 0.7511019706726074
178 234 0.2972239851951599
178 235 0.9300294518470764
178 236 0.14824986457824707
178 238 0.8941915035247803
178 239 0.9202238321304321
178 240 0.9347042441368103
178 241 0.9377117156982422
178 242 0.9088093638420105
178 243 0.9080004692077637
178 244 0.20164161920547485
178 245 0.17580272257328033
178 246 0.9101121425628662
178 247 0.9021725654602051
178 248 0.8847092986106873
178 249 0.9277833700180054
178 250 0.3270418345928192
178 251 0.8836643099784851
178 252 0.8885817527770996
178 253 0.7223255038261414
178 254 0.9349373579025269
178 255 0.9164556264877319
179 180 0.2500336170196533
179 181 0.2546636164188385
179 182 0.22626657783985138
179 183 0.14525502920150757
179 185 0.2508186399936676
179 186 0.2449166178703308
179 187 0.25201016664505005
179 188 0.17747895419597626
179 189 0.24102312326431274
179 190 0.13324739038944244
179 191 0.2722589373588562
179 192 0.19830694794654846
179 193 0.23424877226352692
179 194 0.2007153034210205
179 195 0.07216355949640274
179 196 0.24823014438152313
179 197 0.22425661981105804
179 198 0.2513461410999298
179 199 0.14824873208999634
179 200 0.23905308544635773
179 201 0.23811671137809753
179 202 0.15016433596611023
179 203 0.07743334025144577
179 204 0.24441185593605042
179 205 0.24696587026119232
179 207 0.2490677386522293
179 208 0.10947965085506439
179 209 0.23761314153671265
179 210 0.24353648722171783
179 212 0.25600606203079224
179 213 0.1684931367635727
179 214 0.24990348517894745
179 215 0.26732754707336426
179 216 0.23537307977676392
179 217 0.23996829986572266
179 218 0.14741691946983337
179 220 0.1502685844898224
179 221 0.09061048924922943
179 222 0.20806647837162018
179 223 0.23038050532341003
179 224 0.07008189707994461
179 225 0.24278852343559265
179 226 0.25334206223487854
179 227 0.13839519023895264
179 228 0.2509502172470093
179 230 0.23062263429164886
179 232 0.20967741310596466
179 233 0.15986420214176178
179 235 0.20959101617336273
179 238 0.23640666902065277
179 239 0.2524111568927765
179 240 0.25373634696006775
179 241 0.25281915068626404
179 242 0.22179420292377472
179 243 0.2601645290851593
179 244 0.16702954471111298
179 246 0.1085691973567009
179 247 0.21602025628089905
179 248 0.1503545194864273
179 249 0.25506412982940674
179 251 0.2634061872959137
179 252 0.15044060349464417
179 253 0.09883249551057816
179 254 0.2561414837837219
179 255 0.25945737957954407
180 181 0.9561607241630554
180 182 0.9545280337333679
180 183 0.3986714780330658
180 185 0.9592523574829102
180 186 0.9494431614875793
180 187 0.9522604942321777
180 188 0.8313612341880798
180 189 0.9504591822624207
180 190 0.9121026992797852
180 191 0.5381432175636292
180 192 0.932866632938385
180 193 0.960838794708252
180 194 0.8198648691177368
180 195 0.6510383486747742
180 196 0.9690016508102417
180 197 0.7435324192047119
180 198 0.960222601890564
180 199 0.7241939306259155
180 200 0.9368468523025513
180 201 0.797786295413971
180 202 0.3211938142776489
180 203 0.4899904131889343
180 204 0.9679275751113892
180 205 0.9623515605926514
180 206 0.12076146900653839
180 207 0.9557727575302124
180 208 0.3245939612388611
180 209 0.9588757753372192
180 210 0.9696184992790222
180 212 0.9559544920921326
180 213 0.932396411895752
180 214 0.9609580039978027
180 215 0.7331493496894836
180 216 0.9485101103782654
180 217 0.9664373397827148
180 218 0.8581467270851135
180 219 0.5083290338516235
180 220 0.17457431554794312
180 221 0.5703628063201904
180 222 0.8932746052742004
180 223 0.9587100148200989
180 224 0.4670201241970062
180 225 0.9190120100975037
180 226 0.9698904752731323
180 227 0.5109009742736816
180 228 0.9649828672409058
180 229 0.10958925634622574
180 230 0.9534381031990051
180 231 0.2314128577709198
180 232 0.22134122252464294
180 233 0.7272177934646606
180 234 0.3095695972442627
180 235 0.9597944021224976
180 236 0.10103628784418106
180 238 0.913195013999939
180 239 0.9537757039070129
180 240 0.9630797505378723
180 241 0.964779794216156
180 242 0.9411911368370056
180 243 0.9373581409454346
180 244 0.1857084035873413
180 245 0.176868736743927
180 246 0.9423375129699707
180 247 0.9354149699211121
180 248 0.9203144907951355
180 249 0.9566190242767334
180 250 0.3122284710407257
180 251 0.9086291790008545
180 252 0.9153797030448914
180 253 0.7297753095626831
180 254 0.9564601182937622
180 255 0.9401276707649231
181 182 0.9554752707481384
181 183 0.4019707143306732
181 185 0.9581156969070435
181 186 0.9429702162742615
181 187 0.9510942697525024
181 188 0.819661557674408
181 189 0.94715416431427
181 190 0.9074411988258362
181 191 0.5354160070419312
181 192 0.926220178604126
181 193 0.9544742703437805
181 194 0.7866705656051636
181 195 0.655461847782135
181 196 0.9658451080322266
181 197 0.7557113766670227
181 198 0.9506867527961731
181 199 0.7089279890060425
181 200 0.9356006383895874
181 201 0.8279170393943787
181 202 0.3218650221824646
181 203 0.48509857058525085
181 204 0.9647635221481323
181 205 0.9528323411941528
181 206 0.12101384997367859
181 207 0.9471988081932068
181 208 0.33456581830978394
181 209 0.9650529026985168
181 210 0.9695775508880615
181 212 0.9526945352554321
181 213 0.9279086589813232
181 214 0.9567064642906189
181 215 0.7190802097320557
181 216 0.9312256574630737
181 217 0.9643139243125916
181 218 0.8482083678245544
181 219 0.4750277101993561
181 220 0.17493915557861328
181 221 0.5662297606468201
181 222 0.8962687253952026
181 223 0.9523321986198425
181 224 0.5076568126678467
181 225 0.9241868257522583
181 226 0.9708768129348755
181 227 0.5379380583763123
181 228 0.9554752707481384
181 229 0.11766243726015091
181 230 0.9554306864738464
181 231 0.2526015341281891
181 232 0.2505561411380768
181 233 0.7382369637489319
181 234 0.2630096673965454
181 235 0.9586605429649353
181 236 0.13740724325180054
181 238 0.9271444082260132
181 239 0.9462850093841553
181 240 0.9682190418243408
181 241 0.9688729047775269
181 242 0.9356980323791504
181 243 0.9489346742630005
181 244 0.1967305988073349
181 245 0.17152102291584015
181 246 0.9368630051612854
181 247 0.9330551624298096
181 248 0.9102038145065308
181 249 0.9575705528259277
181 250 0.2726092040538788
181 251 0.9160264134407043
181 252 0.9194819927215576
181 253 0.7103262543678284
181 254 0.9489901065826416
181 255 0.9623409509658813
182 183 0.4050728678703308
182 185 0.9512324333190918
182 186 0.9423356652259827
182 187 0.9525901079177856
182 188 0.8111628890037537
182 189 0.9560633301734924
182 190 0.9132537245750427
182 191 0.5111812353134155
182 192 0.9266006946563721
182 193 0.9517825245857239
182 194 0.7904050350189209
182 195 0.6702974438667297
182 196 0.9632123112678528
182 197 0.7635509967803955
182 198 0.9490290284156799
182 199 0.7142444252967834
182 200 0.9306537508964539
182 201 0.8155847787857056
182 202 0.322371244430542
182 203 0.5253624320030212
182 204 0.9610857963562012
182 205 0.950131356716156
182 206 0.09523185342550278
182 207 0.9423356652259827
182 208 0.32888659834861755
182 209 0.9676156044006348
182 210 0.9711024165153503
182 212 0.9520865082740784
182 213 0.9293680191040039
182 214 0.9561212062835693
182 215 0.6974825263023376
182 216 0.9294739961624146
182 217 0.9658305048942566
182 218 0.8577674627304077
182 219 0.504118800163269
182 220 0.14783704280853271
182 221 0.5706758499145508
182 222 0.8829993605613708
182 223 0.9506819844245911
182 224 0.5243444442749023
182 225 0.9212945699691772
182 226 0.957812488079071
182 227 0.5536470413208008
182 228 0.9506819844245911
182 229 0.12570399045944214
182 230 0.956933319568634
182 231 0.24885126948356628
182 232 0.24683625996112823
182 233 0.7380388379096985
182 234 0.29381832480430603
182 235 0.958071768283844
182 236 0.1376233696937561
182 238 0.9121572971343994
182 239 0.9446069598197937
182 240 0.9593032002449036
182 241 0.961035966873169
182 242 0.9457088112831116
182 243 0.9322319030761719
182 244 0.19704000651836395
182 245 0.14315897226333618
182 246 0.9436618089675903
182 247 0.9312815070152283
182 248 0.9193053841590881
182 249 0.9517313838005066
182 250 0.3102703392505646
182 251 0.9086558818817139
182 252 0.9099646806716919
182 253 0.719846248626709
182 254 0.9462676048278809
182 255 0.9414392113685608
183 184 0.05391639098525047
183 185 0.41473519802093506
183 186 0.40375030040740967
183 187 0.39438194036483765
183 188 0.28222978115081787
183 189 0.3966974914073944
183 190 0.4412906765937805
183 191 0.059027526527643204
183 192 0.3749154806137085
183 193 0.3404969274997711
183 194 0.29098019003868103
183 195 0.2238515168428421
183 196 0.4202277362346649
183 197 0.4321032464504242
183 198 0.41808125376701355
183 199 0.2538338899612427
183 200 0.41042962670326233
183 201 0.35594692826271057
183 202 0.5785060524940491
183 203 0.47884711623191833
183 204 0.3888658285140991
183 205 0.3830442726612091
183 206 0.1018923968076706
183 207 0.3863043189048767
183 209 0.42060089111328125
183 210 0.4118425250053406
183 212 0.36690354347229004
183 213 0.4274059534072876
183 214 0.41814124584198
183 215 0.190593883395195
183 216 0.41385120153427124
183 217 0.41512832045555115
183 218 0.201907217502594
183 219 0.1953887790441513
183 220 0.06444241106510162
183 221 0.12972640991210938
183 222 0.13820990920066833
183 223 0.41001278162002563
183 224 0.16363002359867096
183 225 0.4398588538169861
183 226 0.3851650357246399
183 227 0.6341134905815125
183 228 0.39025312662124634
183 229 0.129452183842659
183 230 0.42527902126312256
183 232 0.19367338716983795
183 233 0.3807225227355957
183 234 0.1589907556772232
183 235 0.41205060482025146
183 236 0.11934901028871536
183 238 0.4129035770893097
183 239 0.4024624228477478
183 240 0.4005070924758911
183 241 0.408852219581604
183 242 0.3668249249458313
183 243 0.4056149423122406
183 244 0.18802958726882935
183 245 0.06739548593759537
183 246 0.4036368429660797
183 247 0.39417368173599243
183 248 0.38945475220680237
183 249 0.37790337204933167
183 250 0.13146042823791504
183 251 0.37073513865470886
183 252 0.32258090376853943
183 253 0.15164102613925934
183 254 0.4117446541786194
183 255 0.4045124053955078
184 188 0.05341411009430885
184 197 0.058074790984392166
184 199 0.06114178150892258
184 201 0.05411337688565254
184 202 0.06967329978942871
184 208 0.06772854179143906
184 218 0.051298920065164566
184 221 0.07761505246162415
184 227 0.08111070841550827
184 229 0.17149858176708221
184 231 0.09053574502468109
184 232 0.08980264514684677
184 236 0.15811388194561005
184 245 0.125
184 253 0.06114178150892258
185 186 0.9555988907814026
185 187 0.9468247890472412
185 188 0.8229659199714661
185 189 0.9428495168685913
185 190 0.9094876050949097
185 191 0.5301929712295532
185 192 0.9304174184799194
185 193 0.9586172103881836
185 194 0.8049668073654175
185 195 0.6561485528945923
185 196 0.9627074003219604
185 197 0.7432078123092651
185 198 0.9537835717201233
185 199 0.7292671799659729
185 200 0.9323042035102844
185 201 0.807724118232727
185 202 0.31263190507888794
185 203 0.5092949271202087
185 204 0.9657742977142334
185 205 0.9517319202423096
185 206 0.08652902394533157
185 207 0.9428998827934265
185 208 0.3256131112575531
185 209 0.9587531089782715
185 210 0.9685238599777222
185 212 0.953692615032196
185 213 0.9321023225784302
185 214 0.9566643834114075
185 215 0.7297720909118652
185 216 0.9536311626434326
185 217 0.9632503986358643
185 218 0.8537946343421936
185 219 0.5119485855102539
185 220 0.1587047129869461
185 221 0.5526080131530762
185 222 0.8814078569412231
185 223 0.9522812366485596
185 224 0.48833751678466797
185 225 0.9164681434631348
185 226 0.9614771008491516
185 227 0.536644697189331
185 228 0.9533299803733826
185 229 0.12563809752464294
185 230 0.9543318748474121
185 231 0.24043011665344238
185 232 0.23848329484462738
185 233 0.7308595776557922
185 234 0.30716609954833984
185 235 0.9628078937530518
185 236 0.1375512033700943
185 238 0.9083918333053589
185 239 0.9472763538360596
185 240 0.9588003158569336
185 241 0.9605321288108826
185 242 0.9345447421073914
185 243 0.9317432045936584
185 244 0.17564624547958374
185 245 0.17742405831813812
185 246 0.9442316293716431
185 247 0.9221547842025757
185 248 0.9319650530815125
185 249 0.9522812366485596
185 250 0.3349163234233856
185 251 0.9015746116638184
185 252 0.9248283505439758
185 253 0.7152697443962097
185 254 0.9489311575889587
185 255 0.9345447421073914
186 187 0.9399363398551941
186 188 0.829606831073761
186 189 0.9336903691291809
186 190 0.9027035236358643
186 191 0.5177488923072815
186 192 0.9306337833404541
186 193 0.948752224445343
186 194 0.797550618648529
186 195 0.6330207586288452
186 196 0.9541155695915222
186 197 0.7207903861999512
186 198 0.945943295955658
186 199 0.69102543592453
186 200 0.921796977519989
186 201 0.8142029643058777
186 202 0.3156236410140991
186 203 0.5201473832130432
186 204 0.9529998302459717
186 205 0.9428304433822632
186 206 0.07862136512994766
186 207 0.938034176826477
186 208 0.3287290930747986
186 209 0.9478946924209595
186 210 0.9589884877204895
186 212 0.9394394159317017
186 213 0.9236761927604675
186 214 0.9478946924209595
186 215 0.7166884541511536
186 216 0.9270592927932739
186 217 0.9536261558532715
186 218 0.8370665311813354
186 219 0.5209335088729858
186 220 0.18232321739196777
186 221 0.5130492448806763
186 222 0.8773096203804016
186 223 0.9529236555099487
186 224 0.5170600414276123
186 225 0.9087945818901062
186 226 0.9506966471672058
186 227 0.5174094438552856
186 228 0.9433944225311279
186 229 0.13476791977882385
186 230 0.9475657343864441
186 231 0.217620849609375
186 232 0.2532188892364502
186 233 0.7474538683891296
186 234 0.310105562210083
186 235 0.948752224445343
186 236 0.13886751234531403
186 238 0.9082347750663757
186 239 0.9350420236587524
186 240 0.9479631185531616
186 241 0.9508333802223206
186 242 0.9251782298088074
186 243 0.9233799576759338
186 244 0.18270066380500793
186 245 0.1791219413280487
186 246 0.9274744987487793
186 247 0.9135372638702393
186 248 0.9066094756126404
186 249 0.9412768483161926
186 250 0.3224675953388214
186 251 0.8913091421127319
186 252 0.917084813117981
186 253 0.7277671098709106
186 254 0.9409996271133423
186 255 0.9284093976020813
187 188 0.8133605718612671
187 189 0.937748908996582
187 190 0.9050004482269287
187 191 0.49784329533576965
187 192 0.9261915683746338
187 193 0.9473815560340881
187 194 0.7975054979324341
187 195 0.6377009153366089
187 196 0.9589422345161438
187 197 0.7547535300254822
187 198 0.9445942640304565
187 199 0.7017909288406372
187 200 0.9356589317321777
187 201 0.8152955174446106
187 202 0.3205276429653168
187 203 0.5017974376678467
187 204 0.9567981362342834
187 205 0.9509817361831665
187 206 0.12171611934900284
187 207 0.9388729929924011
187 208 0.31781256198883057
187 209 0.9538636207580566
187 210 0.9627283215522766
187 212 0.9465892314910889
187 213 0.9246619343757629
187 214 0.9538636207580566
187 215 0.6833102703094482
187 216 0.9237107038497925
187 217 0.9594921469688416
187 218 0.843690812587738
187 219 0.4777844250202179
187 220 0.1814529448747635
187 221 0.5641597509384155
187 222 0.887863039970398
187 223 0.9546975493431091
187 224 0.5225701332092285
187 225 0.9262769818305969
187 226 0.9566250443458557
187 227 0.5298655033111572
187 228 0.9515363574028015
187 229 0.12623494863510132
187 230 0.947262167930603
187 231 0.23740728199481964
187 232 0.25201016664505005
187 233 0.746616005897522
187 234 0.2814934253692627
187 235 0.9473815560340881
187 236 0.13093073666095734
187 238 0.9027985334396362
187 239 0.9422375559806824
187 240 0.9560173749923706
187 241 0.9577839970588684
187 242 0.9314810633659363
187 243 0.9275709390640259
187 244 0.19252438843250275
187 245 0.16101528704166412
187 246 0.9316040873527527
187 247 0.9232807755470276
187 248 0.9011815786361694
187 249 0.9494287967681885
187 250 0.31781256198883057
187 251 0.9147059917449951
187 252 0.9027985334396362
187 253 0.7130420804023743
187 254 0.9439153075218201
187 255 0.9346967935562134
188 189 0.8193719983100891
188 190 0.783599853515625
188 191 0.46782106161117554
188 192 0.8106052875518799
188 193 0.8286459445953369
188 194 0.6900995969772339
188 195 0.5293772220611572
188 196 0.8181034326553345
188 197 0.5195872187614441
188 198 0.8357253670692444
188 199 0.5682550668716431
188 200 0.7845252752304077
188 201 0.7124879956245422
188 202 0.23817838728427887
188 203 0.442146360874176
188 204 0.823790431022644
188 205 0.8152611255645752
188 206 0.07066022604703903
188 207 0.8320758938789368
188 208 0.3255893886089325
188 209 0.8114345669746399
188 210 0.8353254795074463
188 212 0.8350343108177185
188 213 0.8042555451393127
188 214 0.8248366713523865
188 215 0.644301176071167
188 216 0.8087417483329773
188 217 0.8188933730125427
188 218 0.7329729795455933
188 219 0.545296847820282
188 220 0.1340683549642563
188 221 0.3482420742511749
188 222 0.7899367809295654
188 223 0.8331854343414307
188 224 0.4840012192726135
188 225 0.7727159857749939
188 226 0.8275601267814636
188 227 0.35092893242836
188 228 0.8172802329063416
188 229 0.1282462179660797
188 230 0.8144649267196655
188 231 0.14024069905281067
188 232 0.22544623911380768
188 233 0.6830368041992188
188 234 0.34652113914489746
188 235 0.8249793648719788
188 236 0.14357370138168335
188 238 0.7644253373146057
188 239 0.7974262833595276
188 240 0.8093744516372681
188 241 0.8197885155677795
188 242 0.8214007616043091
188 243 0.7799616456031799
188 244 0.1117667481303215
188 245 0.20030291378498077
188 246 0.8034787178039551
188 247 0.8087162375450134
188 248 0.7652654647827148
188 249 0.8111628890037537
188 250 0.347295343875885
188 251 0.7422680258750916
188 252 0.8257838487625122
188 253 0.7429771423339844
188 254 0.8109032511711121
188 255 0.7840644121170044
189 190 0.8959173560142517
189 191 0.5319424867630005
189 192 0.9174975752830505
189 193 0.943414568901062
189 194 0.788313627243042
189 195 0.6724327802658081
189 196 0.9540880918502808
189 197 0.7336549758911133
189 198 0.9554485082626343
189 199 0.7030821442604065
189 200 0.9195417165756226
189 201 0.8013019561767578
189 202 0.3030650317668915
189 203 0.5147188901901245
189 204 0.9508710503578186
189 205 0.9448999166488647
189 206 0.0874505564570427
189 207 0.9411770105361938
189 208 0.33848315477371216
189 209 0.9520756006240845
189 210 0.9621062874794006
189 212 0.9447001814842224
189 213 0.9170675277709961
189 214 0.9478535056114197
189 215 0.7088459134101868
189 216 0.9193880558013916
189 217 0.9525508284568787
189 218 0.8403360843658447
189 219 0.5153557062149048
189 220 0.1216788962483406
189 221 0.5477184653282166
189 222 0.8748266696929932
189 223 0.941224217414856
189 224 0.5035696029663086
189 225 0.9097670912742615
189 226 0.9496084451675415
189 227 0.5292232036590576
189 228 0.9465238451957703
189 229 0.09523209184408188
189 230 0.9475187063217163
189 231 0.25555917620658875
189 232 0.22855642437934875
189 233 0.7262867093086243
189 234 0.3036145865917206
189 235 0.9529439806938171
189 236 0.13169948756694794
189 238 0.8970248699188232
189 239 0.9339104294776917
189 240 0.9500319361686707
189 241 0.9539520740509033
189 242 0.9434194564819336
189 243 0.9243680238723755
189 244 0.19903406500816345
189 245 0.13882343471050262
189 246 0.9284670352935791
189 247 0.918880045413971
189 248 0.91422039270401
189 249 0.942284107208252
189 250 0.30087390542030334
189 251 0.8967131972312927
189 252 0.9047768712043762
189 253 0.7200579643249512
189 254 0.937748908996582
189 255 0.9294028878211975
190 191 0.40913286805152893
190 192 0.9074074625968933
190 193 0.9079161286354065
190 194 0.7919067144393921
190 195 0.6025780439376831
190 196 0.9239596724510193
190 197 0.7199382781982422
190 198 0.9201849102973938
190 199 0.661385178565979
190 200 0.9030661582946777
190 201 0.735581636428833
190 202 0.32014408707618713
190 203 0.5468429327011108
190 204 0.9173106551170349
190 205 0.9126362800598145
190 206 0.12663592398166656
190 207 0.9027035236358643
190 208 0.22368082404136658
190 209 0.911628007888794
190 210 0.9226788878440857
190 212 0.9023212194442749
190 213 0.9395856857299805
190 214 0.9301881194114685
190 215 0.627814769744873
190 216 0.9039222002029419
190 217 0.9343247413635254
190 218 0.8262304067611694
190 219 0.5097883939743042
190 220 0.1945081502199173
190 221 0.5163790583610535
190 222 0.8234711289405823
190 223 0.9253134727478027
190 224 0.5084147453308105
190 225 0.8808535933494568
190 226 0.9136214256286621
190 227 0.5357536673545837
190 228 0.9099646806716919
190 229 0.12312880903482437
190 230 0.9087260365486145
190 231 0.1300017535686493
190 232 0.2278100550174713
190 233 0.7256707549095154
190 234 0.29992860555648804
190 235 0.9232488870620728
190 236 0.12108709663152695
190 238 0.8774341344833374
190 239 0.9053376317024231
190 240 0.9128620624542236
190 241 0.9171692132949829
190 242 0.8910658955574036
190 243 0.8845484256744385
190 244 0.16692188382148743
190 245 0.17948953807353973
190 246 0.9369881749153137
190 247 0.9098045229911804
190 248 0.8872354626655579
190 249 0.9077720046043396
190 250 0.33714208006858826
190 251 0.8515625
190 252 0.873997688293457
190 253 0.6833337545394897
190 254 0.9050004482269287
190 255 0.8866050243377686
191 192 0.5064672231674194
191 193 0.5395501255989075
191 194 0.4200674593448639
191 195 0.5583071708679199
191 196 0.5228132009506226
191 197 0.4157162606716156
191 198 0.5139197111129761
191 199 0.5972917675971985
191 200 0.4306603968143463
191 201 0.4466025233268738
191 203 0.14886176586151123
191 204 0.5367210507392883
191 205 0.5191696286201477
191 206 0.07957588136196136
191 207 0.5196953415870667
191 208 0.49052444100379944
191 209 0.49368149042129517
191 210 0.5271859765052795
191 212 0.5440467596054077
191 213 0.3969991207122803
191 214 0.4994443356990814
191 215 0.6345707178115845
191 216 0.5439376831054688
191 217 0.4939385652542114
191 218 0.5292181372642517
191 219 0.32379841804504395
191 221 0.49022752046585083
191 222 0.5542259216308594
191 223 0.49767833948135376
191 224 0.08762859553098679
191 225 0.41542044281959534
191 226 0.5403012633323669
191 227 0.17759960889816284
191 228 0.5285421013832092
191 230 0.4982013702392578
191 231 0.12199176847934723
191 233 0.18489833176136017
191 234 0.3166297376155853
191 235 0.5144996047019958
191 238 0.43331804871559143
191 239 0.500575602054596
191 240 0.5200338959693909
191 241 0.5277140736579895
191 242 0.5513811707496643
191 243 0.5115653276443481
191 245 0.06316139549016953
191 246 0.4875328838825226
191 247 0.4647415280342102
191 248 0.5136412978172302
191 249 0.5188971757888794
191 250 0.2053358256816864
191 251 0.45353978872299194
191 252 0.5078890323638916
191 253 0.35528564453125
191 254 0.5307745933532715
191 255 0.5023258924484253
192 193 0.9396056532859802
192 194 0.8285765647888184
192 195 0.6292576193809509
192 196 0.9399767518043518
192 197 0.6985194087028503
192 198 0.9345299005508423
192 199 0.7081184983253479
192 200 0.9084092974662781
192 201 0.7551131248474121
192 202 0.25533589720726013
192 203 0.48412516713142395
192 204 0.9409433007240295
192 205 0.9357011914253235
192 206 0.11542908102273941
192 207 0.9295478463172913
192 208 0.27048397064208984
192 209 0.9291660189628601
192 210 0.9439442753791809
192 212 0.9213812947273254
192 213 0.9168056845664978
192 214 0.9345245361328125
192 215 0.693491518497467
192 216 0.9290887713432312
192 217 0.940558671951294
192 218 0.8447868227958679
192 219 0.5087237358093262
192 220 0.1853172332048416
192 221 0.5360609292984009
192 222 0.8697129487991333
192 223 0.9352101683616638
192 224 0.4685143530368805
192 225 0.8858335614204407
192 226 0.9321028590202332
192 227 0.4820805788040161
192 228 0.9298292398452759
192 229 0.10475018620491028
192 230 0.9254198670387268
192 231 0.1616421341896057
192 232 0.15611396729946136
192 233 0.699786365032196
192 234 0.30480682849884033
192 235 0.9363805055618286
192 236 0.11143256723880768
192 238 0.8759236335754395
192 239 0.9244178533554077
192 240 0.9303417801856995
192 241 0.9355125427246094
192 242 0.9097186923027039
192 243 0.9089050889015198
192 244 0.09285043925046921
192 245 0.17031735181808472
192 246 0.9372432231903076
192 247 0.9030539393424988
192 248 0.9068881869316101
192 249 0.9266006946563721
192 250 0.34685593843460083
192 251 0.8720574975013733
192 252 0.9051586389541626
192 253 0.6880096197128296
192 254 0.9261915683746338
192 255 0.9064345359802246
193 194 0.8145241737365723
193 195 0.6542726755142212
193 196 0.9642770290374756
193 197 0.7335167527198792
193 198 0.955383837223053
193 199 0.7274861931800842
193 200 0.9318159222602844
193 201 0.8048247694969177
193 202 0.2295684665441513
193 203 0.4735146164894104
193 204 0.967344343662262
193 205 0.9596236348152161
193 206 0.12107718735933304
193 207 0.9540407657623291
193 208 0.328542023897171
193 209 0.9561633467674255
193 210 0.9669824838638306
193 212 0.9563494920730591
193 213 0.9283943772315979
193 214 0.9561633467674255
193 215 0.7265518307685852
193 216 0.9402804970741272
193 217 0.9637823104858398
193 218 0.8662592172622681
193 219 0.5076355934143066
193 220 0.18050041794776917
193 221 0.5718539953231812
193 222 0.9147855043411255
193 223 0.9538789391517639
193 224 0.5079225301742554
193 225 0.9159882068634033
193 226 0.9620147347450256
193 227 0.48439764976501465
193 228 0.958071768283844
193 229 0.11772403120994568
193 230 0.950684130191803
193 231 0.24444739520549774
193 232 0.23424877226352692
193 233 0.7223301529884338
193 234 0.31037893891334534
193 235 0.9539267420768738
193 236 0.11577193439006805
193 238 0.9068209528923035
193 239 0.9478346109390259
193 240 0.957255482673645
193 241 0.9621071219444275
193 242 0.9436517953872681
193 243 0.9312552213668823
193 244 0.13299566507339478
193 245 0.17733114957809448
193 246 0.9384173154830933
193 247 0.9238303899765015
193 248 0.9227205514907837
193 249 0.9517825245857239
193 250 0.33784037828445435
193 251 0.9022026658058167
193 252 0.9287248253822327
193 253 0.7316831946372986
193 254 0.9536973834037781
193 255 0.9340553283691406
194 195 0.4344121515750885
194 196 0.8176566958427429
194 197 0.5841057300567627
194 198 0.8141635060310364
194 199 0.5816222429275513
194 200 0.8032249212265015
194 201 0.5427876114845276
194 202 0.19750458002090454
194 203 0.34313830733299255
194 204 0.8222066164016724
194 205 0.8245518207550049
194 206 0.10302164405584335
194 207 0.8126700520515442
194 208 0.08861157298088074
194 209 0.7945690751075745
194 210 0.8094061017036438
194 212 0.8008437156677246
194 213 0.8144228458404541
194 214 0.820681631565094
194 215 0.6609484553337097
194 216 0.8343241810798645
194 217 0.8234097957611084
194 218 0.7438704371452332
194 219 0.42401883006095886
194 220 0.19546981155872345
194 221 0.4484967291355133
194 222 0.7605171203613281
194 223 0.8191243410110474
194 224 0.3237965703010559
194 225 0.7485489249229431
194 226 0.7962307333946228
194 227 0.28519728779792786
194 228 0.820372998714447
194 230 0.7837358713150024
194 232 0.058745939284563065
194 233 0.5628563165664673
194 234 0.22505390644073486
194 235 0.8082873225212097
194 238 0.7253709435462952
194 239 0.8251489996910095
194 240 0.8049229383468628
194 241 0.7995380163192749
194 242 0.7748051285743713
194 243 0.7960213422775269
194 245 0.14309906959533691
194 246 0.8124181628227234
194 247 0.7919419407844543
194 248 0.8110117316246033
194 249 0.820372998714447
194 250 0.32860124111175537
194 251 0.7654154896736145
194 252 0.7723373174667358
194 253 0.5366256833076477
194 254 0.798759400844574
194 255 0.7595630884170532
195 196 0.663032054901123
195 197 0.6611257791519165
195 198 0.6390930414199829
195 199 0.6898991465568542
195 200 0.5895074009895325
195 201 0.5816037654876709
195 202 0.11197606474161148
195 203 0.39552780985832214
195 204 0.6470071077346802
195 205 0.6230747103691101
195 206 0.08858630806207657
195 207 0.6051616668701172
195 208 0.4217958152294159
195 209 0.652226984500885
195 210 0.6628501415252686
195 212 0.678930938243866
195 213 0.5968074798583984
195 214 0.6369524002075195
195 215 0.5419651865959167
195 216 0.6331090927124023
195 217 0.6384286880493164
195 218 0.6406703591346741
195 219 0.4853515923023224
195 221 0.5977112054824829
195 222 0.592552900314331
195 223 0.627349317073822
195 224 0.29032987356185913
195 225 0.611423909664154
195 226 0.6718658804893494
195 227 0.4888417422771454
195 228 0.6365525126457214
195 229 0.11484394967556
195 230 0.6587181091308594
195 231 0.3273870050907135
195 232 0.14432711899280548
195 233 0.3278252184391022
195 234 0.3554439842700958
195 235 0.6665307283401489
195 236 0.09529279917478561
195 238 0.5961676239967346
195 239 0.6094024777412415
195 240 0.6637563705444336
195 241 0.6552755832672119
195 242 0.6927646994590759
195 243 0.5992162823677063
195 244 0.14012132585048676
195 245 0.08370619267225266
195 246 0.6788099408149719
195 247 0.6159101128578186
195 248 0.688724160194397
195 249 0.6365525126457214
195 250 0.17234668135643005
195 251 0.5940881371498108
195 252 0.6105910539627075
195 253 0.48927563428878784
195 254 0.619216799736023
195 255 0.6553179025650024
196 197 0.7776436805725098
196 198 0.9647319912910461
196 199 0.7300527691841125
196 200 0.9459613561630249
196 201 0.8067445755004883
196 202 0.31887707114219666
196 203 0.5177143812179565
196 204 0.972251296043396
196 205 0.9616411924362183
196 206 0.11989042907953262
196 207 0.953068196773529
196 208 0.30997639894485474
196 209 0.9674636721611023
196 210 0.9779857993125916
196 212 0.9584352374076843
196 213 0.9416126608848572
196 214 0.9684972763061523
196 215 0.7138099074363708
196 216 0.9437894821166992
196 217 0.9748590588569641
196 218 0.8554439544677734
196 219 0.4866388738155365
196 220 0.17873123288154602
196 221 0.5803171396255493
196 222 0.8901822566986084
196 223 0.9621744155883789
196 224 0.5009794235229492
196 225 0.9338763952255249
196 226 0.9701113104820251
196 227 0.5549970269203186
196 228 0.9632123112678528
196 229 0.13211283087730408
196 230 0.961107611656189
196 231 0.2502565383911133
196 232 0.2400914430618286
196 233 0.7313836812973022
196 234 0.2806117832660675
196 235 0.9653138518333435
196 236 0.12180200219154358
196 238 0.9207062721252441
196 239 0.9615119695663452
196 240 0.9716212153434753
196 241 0.9711955189704895
196 242 0.9481282234191895
196 243 0.9464775323867798
196 244 0.19490428268909454
196 245 0.16992871463298798
196 246 0.948183000087738
196 247 0.9350799322128296
196 248 0.9234309196472168
196 249 0.9621744155883789
196 250 0.325321763753891
196 251 0.9238645434379578
196 252 0.9196218252182007
196 253 0.7092732787132263
196 254 0.9610269069671631
196 255 0.9481282234191895
197 198 0.732779860496521
197 199 0.6657742857933044
197 200 0.7539851665496826
197 201 0.6316671967506409
197 202 0.3682098686695099
197 203 0.44316938519477844
197 204 0.7494657039642334
197 205 0.7333406805992126
197 206 0.14267633855342865
197 207 0.7113946080207825
197 208 0.18486608564853668
197 209 0.7683143615722656
197 210 0.759905993938446
197 212 0.7450085878372192
197 213 0.7409512400627136
197 214 0.756392240524292
197 215 0.5564541816711426
197 216 0.712145209312439
197 217 0.7627783417701721
197 218 0.6569077968597412
197 219 0.2771892547607422
197 220 0.07635392248630524
197 221 0.6468230485916138
197 222 0.6384215950965881
197 223 0.7382766604423523
197 224 0.3222862482070923
197 225 0.7368439435958862
197 226 0.7689658403396606
197 227 0.6264947652816772
197 228 0.7342860102653503
197 229 0.1294766664505005
197 230 0.7563637495040894
197 231 0.28392359614372253
197 232 0.2711940407752991
197 233 0.44627055525779724
197 234 0.124158576130867
197 235 0.7414897680282593
197 236 0.0734594389796257
197 238 0.7324468493461609
197 239 0.7532784938812256
197 240 0.7833956480026245
197 241 0.7634232044219971
197 242 0.741520881652832
197 243 0.7448987364768982
197 244 0.22953595221042633
197 245 0.058074790984392166
197 246 0.7277639508247375
197 247 0.7258864045143127
197 248 0.7223044633865356
197 249 0.7515789270401001
197 250 0.09439969807863235
197 251 0.7679399847984314
197 252 0.6546157002449036
197 253 0.4296463429927826
197 254 0.7360516786575317
197 255 0.7739962339401245
198 199 0.6971362233161926
198 200 0.9289078712463379
198 201 0.8019741177558899
198 202 0.3132893741130829
198 203 0.5321258306503296
198 204 0.9594801664352417
198 205 0.9568880200386047
198 206 0.12139539420604706
198 207 0.9491247534751892
198 208 0.3200826644897461
198 209 0.9534433484077454
198 210 0.9684867858886719
198 212 0.9493691921234131
198 213 0.9340626001358032
198 214 0.9576296806335449
198 215 0.70427405834198
198 216 0.9481204152107239
198 217 0.9621590971946716
198 218 0.8367601633071899
198 219 0.5191085934638977
198 220 0.17549073696136475
198 221 0.519938588142395
198 222 0.8764759302139282
198 223 0.9532329440116882
198 224 0.5013002753257751
198 225 0.9151310920715332
198 226 0.9561920166015625
198 227 0.5154436230659485
198 228 0.9542838931083679
198 229 0.10229562222957611
198 230 0.9500264525413513
198 231 0.20770323276519775
198 232 0.21426226198673248
198 233 0.7528165578842163
198 234 0.31119465827941895
198 235 0.9595833420753479
198 236 0.08705714344978333
198 238 0.9037137627601624
198 239 0.9429259896278381
198 240 0.9545437097549438
198 241 0.9604688286781311
198 242 0.9407864809036255
198 243 0.9294147491455078
198 244 0.18134945631027222
198 245 0.17206180095672607
198 246 0.9376833438873291
198 247 0.9284224510192871
198 248 0.9185608625411987
198 249 0.9500799775123596
198 250 0.33872824907302856
198 251 0.8990581035614014
198 252 0.9157925844192505
198 253 0.7153712511062622
198 254 0.9509267210960388
198 255 0.9311648011207581
199 200 0.6710212826728821
199 201 0.5426084995269775
199 202 0.15335819125175476
199 203 0.2952330410480499
199 204 0.7335768938064575
199 205 0.7048109173774719
199 206 0.09243769198656082
199 207 0.6825465559959412
199 208 0.3312835395336151
199 209 0.6959242224693298
199 210 0.7143685221672058
199 212 0.7337498068809509
199 213 0.6596278548240662
199 214 0.6973187923431396
199 215 0.6578863859176636
199 216 0.7254303097724915
199 217 0.7144477963447571
199 218 0.724533200263977
199 219 0.3566785752773285
199 220 0.09500192850828171
199 221 0.6809824705123901
199 222 0.657067060470581
199 223 0.694637656211853
199 224 0.15639911592006683
199 225 0.6626564264297485
199 226 0.7428067326545715
199 227 0.4264957904815674
199 228 0.707241952419281
199 229 0.08388583362102509
199 230 0.695367693901062
199 231 0.26016929745674133
199 232 0.11530458182096481
199 233 0.27754947543144226
199 234 0.30199795961380005
199 235 0.7065010070800781
199 236 0.06767155230045319
199 238 0.6408997774124146
199 239 0.714176595211029
199 240 0.7230649590492249
199 241 0.721839427947998
199 242 0.7350941896438599
199 243 0.6813868284225464
199 244 0.0852910578250885
199 245 0.16813990473747253
199 246 0.7278169989585876
199 247 0.6762637495994568
199 248 0.7341269254684448
199 249 0.707241952419281
199 250 0.310578316450119
199 251 0.6541465520858765
199 252 0.6818705201148987
199 253 0.4616822302341461
199 254 0.7158548831939697
199 255 0.6895069479942322
200 201 0.77078777551651
200 202 0.3351459503173828
200 203 0.4610782861709595
200 204 0.9469340443611145
200 205 0.9364938735961914
200 206 0.12356040626764297
200 207 0.9228763580322266
200 208 0.18029220402240753
200 209 0.9470118284225464
200 210 0.9467087984085083
200 212 0.9265749454498291
200 213 0.9353868365287781
200 214 0.9576643705368042
200 215 0.6675972938537598
200 216 0.9071059823036194
200 217 0.9581670165061951
200 218 0.8361110091209412
200 219 0.4004027545452118
200 220 0.19536614418029785
200 221 0.5781452059745789
200 222 0.8598763346672058
200 223 0.9445600509643555
200 224 0.4920177757740021
200 225 0.9126235246658325
200 226 0.939245343208313
200 227 0.541682243347168
200 228 0.9349325895309448
200 229 0.12814770638942719
200 230 0.9391276836395264
200 231 0.2536890208721161
200 232 0.2600226402282715
200 233 0.7260599732398987
200 234 0.17214380204677582
200 235 0.9350217580795288
200 236 0.14768293499946594
200 238 0.914242684841156
200 239 0.9522109031677246
200 240 0.9470919966697693
200 241 0.9404876232147217
200 242 0.9118629097938538
200 243 0.9230770468711853
200 244 0.20087051391601562
200 245 0.18096810579299927
200 246 0.9174896478652954
200 247 0.9207500219345093
200 248 0.8846771121025085
200 249 0.9466995000839233
200 250 0.25304168462753296
200 251 0.9251976609230042
200 252 0.8840659856796265
200 253 0.6924368739128113
200 254 0.9281392693519592
200 255 0.9249205589294434
201 202 0.3355529308319092
201 203 0.5295894742012024
201 204 0.805119514465332
201 205 0.796170711517334
201 206 0.061358802020549774
201 207 0.7954425811767578
201 208 0.3884921669960022
201 209 0.8208231329917908
201 210 0.8205797672271729
201 212 0.7962034344673157
201 213 0.7627499103546143
201 214 0.8010740280151367
201 215 0.5067513585090637
201 216 0.7598108649253845
201 217 0.8075562119483948
201 218 0.705093264579773
201 219 0.3993798494338989
201 220 0.12935572862625122
201 221 0.4305013120174408
201 222 0.7402572631835938
201 223 0.805668830871582
201 224 0.5560286641120911
201 225 0.7995153069496155
201 226 0.8137716054916382
201 227 0.5223117470741272
201 228 0.7945134043693542
201 229 0.13920551538467407
201 230 0.8263682723045349
201 231 0.2988508939743042
201 232 0.2964310348033905
201 233 0.7401443123817444
201 234 0.2752611041069031
201 235 0.8110157251358032
201 236 0.1711215376853943
201 238 0.8404797315597534
201 239 0.7791914939880371
201 240 0.8039408326148987
201 241 0.8268349766731262
201 242 0.7804597020149231
201 243 0.7825868725776672
201 244 0.23275044560432434
201 245 0.1555759608745575
201 246 0.7661892771720886
201 247 0.7797421216964722
201 248 0.7338664531707764
201 249 0.7883159518241882
201 250 0.23456129431724548
201 251 0.7597914934158325
201 252 0.7757278084754944
201 253 0.6501376032829285
201 254 0.8016035556793213
201 255 0.8258499503135681
202 203 0.36045950651168823
202 204 0.2876005172729492
202 205 0.3001862168312073
202 206 0.07900209724903107
202 207 0.2995204031467438
202 209 0.3273836076259613
202 210 0.3243600130081177
202 212 0.30434027314186096
202 213 0.3333493769168854
202 214 0.3273836076259613
202 215 0.1382705420255661
202 216 0.2869648337364197
202 217 0.32502466440200806
202 218 0.16083741188049316
202 219 0.08005800098180771
202 221 0.10815393924713135
202 222 0.09960460662841797
202 223 0.3191794455051422
202 224 0.1449946016073227
202 225 0.3370782136917114
202 226 0.3106839954853058
202 227 0.49165886640548706
202 228 0.29683688282966614
202 229 0.14338646829128265
202 230 0.3291003704071045
202 231 0.08831093460321426
202 232 0.2878149747848511
202 233 0.31421059370040894
202 235 0.30290281772613525
202 236 0.11016315966844559
202 238 0.343487948179245
202 239 0.30498573184013367
202 240 0.314342737197876
202 241 0.32586127519607544
202 242 0.27272871136665344
202 243 0.3223063349723816
202 244 0.27537813782691956
202 246 0.27861785888671875
202 247 0.3220531940460205
202 248 0.25663530826568604
202 249 0.29045331478118896
202 251 0.331671804189682
202 252 0.2067597359418869
202 253 0.13205844163894653
202 254 0.31411710381507874
202 255 0.32792380452156067
203 204 0.48108941316604614
203 205 0.49006879329681396
203 207 0.5121757388114929
203 208 0.15767918527126312
203 209 0.5113703012466431
203 210 0.5202879309654236
203 212 0.4817087948322296
203 213 0.5298381447792053
203 214 0.515303909778595
203 215 0.21390068531036377
203 216 0.5004262924194336
203 217 0.5154961943626404
203 218 0.3383829891681671
203 219 0.42298686504364014
203 221 0.14054134488105774
203 222 0.32304835319519043
203 223 0.519437313079834
203 224 0.4635586738586426
203 225 0.51531583070755
203 226 0.474734365940094
203 227 0.4685887396335602
203 228 0.47006112337112427
203 229 0.17745187878608704
203 230 0.5081205368041992
203 231 0.07025891542434692
203 232 0.20907001197338104
203 233 0.5295659303665161
203 234 0.2987636625766754
203 235 0.5169201493263245
203 236 0.0545341856777668
203 238 0.4973175525665283
203 239 0.4628649950027466
203 240 0.4833323061466217
203 241 0.5050771236419678
203 242 0.5203478336334229
203 243 0.45931535959243774
203 244 0.22051884233951569
203 245 0.06466958671808243
203 246 0.49917441606521606
203 247 0.4900733232498169
203 248 0.48259633779525757
203 249 0.4522857367992401
203 250 0.3270382881164551
203 251 0.4146157205104828
203 252 0.46017348766326904
203 253 0.35849729180336
203 254 0.48394694924354553
203 255 0.47614845633506775
204 205 0.9647090435028076
204 206 0.11144130676984787
204 207 0.9571934342384338
204 208 0.3287285566329956
204 209 0.9653544425964355
204 210 0.974890947341919
204 212 0.9573350548744202
204 213 0.9383254647254944
204 214 0.9653544425964355
204 215 0.7243899703025818
204 216 0.9458215236663818
204 217 0.9727797508239746
204 218 0.8737757802009583
204 219 0.4871392846107483
204 220 0.1897583305835724
204 221 0.573872447013855
204 222 0.905632495880127
204 223 0.9610857963562012
204 224 0.4877280294895172
204 225 0.9262306690216064
204 226 0.9690449237823486
204 227 0.5206148028373718
204 228 0.9662808179855347
204 229 0.10891067236661911
204 230 0.9610557556152344
204 231 0.23408673703670502
204 232 0.21589714288711548
204 233 0.7307898998260498
204 234 0.297620564699173
204 235 0.9652685523033142
204 236 0.12909944355487823
204 238 0.9205673933029175
204 239 0.9708611369132996
204 240 0.9695194959640503
204 241 0.9701343774795532
204 242 0.9438185691833496
204 243 0.9463909864425659
204 244 0.1423736959695816
204 245 0.18144367635250092
204 246 0.9533764123916626
204 247 0.9328321218490601
204 248 0.9276353120803833
204 249 0.9704368114471436
204 250 0.3195118308067322
204 251 0.9204522371292114
204 252 0.9270808100700378
204 253 0.7155494689941406
204 254 0.9578415155410767
204 255 0.9459323287010193
205 206 0.11260582506656647
205 207 0.957661509513855
205 208 0.29491162300109863
205 209 0.9576687812805176
205 210 0.9674689769744873
205 212 0.9515327215194702
205 213 0.9287810325622559
205 214 0.9618507027626038
205 215 0.7134829163551331
205 216 0.9406882524490356
205 217 0.9684135317802429
205 218 0.8464615345001221
205 219 0.4902040660381317
205 220 0.18626293540000916
205 221 0.5389581918716431
205 222 0.8947604894638062
205 223 0.951181173324585
205 224 0.4948118329048157
205 225 0.9217783212661743
205 226 0.9583154320716858
205 227 0.5018899440765381
205 228 0.9711287617683411
205 229 0.0786062479019165
205 230 0.9511299729347229
205 231 0.1991855502128601
205 232 0.20168879628181458
205 233 0.743865966796875
205 234 0.28383561968803406
205 235 0.9533310532569885
205 236 0.0869656503200531
205 238 0.9082486629486084
205 239 0.9503828287124634
205 240 0.9556293487548828
205 241 0.964662492275238
205 242 0.9344580173492432
205 243 0.942359209060669
205 244 0.1705024540424347
205 245 0.16615159809589386
205 246 0.9356322288513184
205 247 0.9285276532173157
205 248 0.9110177755355835
205 249 0.9564306139945984
205 250 0.32905930280685425
205 251 0.9058270454406738
205 252 0.9192178249359131
205 253 0.7076132893562317
205 254 0.9573075175285339
205 255 0.9355259537696838
206 207 0.10482847690582275
206 209 0.10345596075057983
206 210 0.11104218661785126
206 212 0.1216517761349678
206 213 0.12410294264554977
206 214 0.12069862335920334
206 215 0.09376144409179688
206 216 0.12383078783750534
206 217 0.11126972734928131
206 218 0.09694584459066391
206 221 0.11734292656183243
206 222 0.09316141903400421
206 223 0.11254672706127167
206 225 0.1254911571741104
206 226 0.12038585543632507
206 227 0.09197089821100235
206 228 0.12120416760444641
206 230 0.08666539937257767
206 232 0.0678844228386879
206 233 0.05607016384601593
206 235 0.11242882162332535
206 238 0.11759049445390701
206 239 0.12190978974103928
206 240 0.12057321518659592
206 241 0.12013737112283707
206 242 0.1144852489233017
206 243 0.1059667095541954
206 246 0.12302493304014206
206 247 0.10696393251419067
206 248 0.10848294943571091
206 249 0.11254672706127167
206 251 0.12722016870975494
206 254 0.12171611934900284
206 255 0.12329180538654327
207 208 0.3068138062953949
207 209 0.9489490389823914
207 210 0.9621224999427795
207 212 0.9383766651153564
207 213 0.9247602820396423
207 214 0.950003445148468
207 215 0.7123883366584778
207 216 0.9335497617721558
207 217 0.9557197093963623
207 218 0.8394377827644348
207 219 0.5025476217269897
207 220 0.18232321739196777
207 221 0.5256063938140869
207 222 0.8864245414733887
207 223 0.944453239440918
207 224 0.5030312538146973
207 225 0.9055057764053345
207 226 0.9496449828147888
207 227 0.4892893433570862
207 228 0.9508060812950134
207 229 0.10305781662464142
207 230 0.9412062168121338
207 231 0.20088078081607819
207 232 0.22000984847545624
207 233 0.743339478969574
207 234 0.3032900393009186
207 235 0.9466368556022644
207 236 0.11694106459617615
207 238 0.8982784748077393
207 239 0.937171995639801
207 240 0.9469098448753357
207 241 0.9602787494659424
207 242 0.9262552857398987
207 243 0.927699863910675
207 244 0.1612064689397812
207 245 0.1791219413280487
207 246 0.9274744987487793
207 247 0.9233484864234924
207 248 0.9021869897842407
207 249 0.9476296901702881
207 250 0.33812135457992554
207 251 0.893531858921051
207 252 0.9204035401344299
207 253 0.7207013964653015
207 254 0.9388729929924011
207 255 0.9241012334823608
208 209 0.3120659589767456
208 210 0.3306124210357666
208 212 0.33632946014404297
208 213 0.18743765354156494
208 214 0.26571953296661377
208 215 0.298224538564682
208 216 0.2948046326637268
208 217 0.26380491256713867
208 218 0.33354246616363525
208 219 0.28136149048805237
208 221 0.23655396699905396
208 222 0.3539098799228668
208 223 0.31337305903434753
208 224 0.1879299134016037
208 225 0.28590768575668335
208 226 0.335911363363266
208 227 0.14832478761672974
208 228 0.3164757788181305
208 229 0.11615350097417831
208 230 0.3261262774467468
208 231 0.2820653021335602
208 232 0.0851508378982544
208 233 0.24917489290237427
208 234 0.3495109975337982
208 235 0.322343111038208
208 236 0.1713411659002304
208 238 0.2820323407649994
208 239 0.26838594675064087
208 240 0.3055686354637146
208 241 0.32906726002693176
208 242 0.3440197706222534
208 243 0.27849775552749634
208 244 0.12597253918647766
208 245 0.05079640820622444
208 246 0.31178203225135803
208 247 0.23958970606327057
208 248 0.3077901005744934
208 249 0.29475685954093933
208 250 0.1376146823167801
208 251 0.273563414812088
208 252 0.33065858483314514
208 253 0.3354245722293854
208 254 0.32715997099876404
208 255 0.3219267725944519
209 210 0.9763306379318237
209 212 0.9512617588043213
209 213 0.9361909627914429
209 214 0.9614984393119812
209 215 0.7044756412506104
209 216 0.9330702424049377
209 217 0.9690335988998413
209 218 0.8471689820289612
209 219 0.4657258093357086
209 220 0.15267303586006165
209 221 0.5594436526298523
209 222 0.8871874809265137
209 223 0.955076277256012
209 224 0.5201795101165771
209 225 0.9315165877342224
209 226 0.962120532989502
209 227 0.5550380349159241
209 228 0.955076277256012
209 229 0.11735595017671585
209 230 0.9665403962135315
209 231 0.25194355845451355
209 232 0.24990348517894745
209 233 0.7498492002487183
209 234 0.2320563793182373
209 235 0.959294855594635
209 236 0.14426246285438538
209 238 0.9301881194114685
209 239 0.9543302655220032
209 240 0.9698549509048462
209 241 0.9715279340744019
209 242 0.9385754466056824
209 243 0.9453969597816467
209 244 0.19621814787387848
209 245 0.12545442581176758
209 246 0.9397258162498474
209 247 0.9306247234344482
209 248 0.9165620803833008
209 249 0.9582111239433289
209 250 0.25954002141952515
209 251 0.930092453956604
209 252 0.9181786179542542
209 253 0.7056866884231567
209 254 0.9507155418395996
209 255 0.9619600772857666
210 212 0.9632584452629089
210 213 0.9423852562904358
210 214 0.9732377529144287
210 215 0.7245986461639404
210 216 0.9498381614685059
210 217 0.9774841666221619
210 218 0.8578938841819763
210 219 0.5033721327781677
210 220 0.1458607316017151
210 221 0.5595389008522034
210 222 0.8979327082633972
210 223 0.9648906588554382
210 224 0.5153753161430359
210 225 0.9336324334144592
210 226 0.9717440605163574
210 227 0.5444127917289734
210 228 0.9669612050056458
210 229 0.11627208441495895
210 230 0.9669411182403564
210 231 0.23324836790561676
210 232 0.23541860282421112
210 233 0.7549929022789001
210 234 0.2865584194660187
210 235 0.9721534848213196
210 236 0.12863707542419434
210 238 0.9237605333328247
210 239 0.9590535163879395
210 240 0.972226619720459
210 241 0.9769216775894165
210 242 0.9509695172309875
210 243 0.9461694359779358
210 244 0.1944059282541275
210 245 0.14689499139785767
210 246 0.9499619603157043
210 247 0.9380186796188354
210 248 0.9253941178321838
210 249 0.9669612050056458
210 250 0.31224507093429565
210 251 0.9225890636444092
210 252 0.9270056486129761
210 253 0.7240408658981323
210 254 0.9606489539146423
210 255 0.9530757665634155
212 213 0.9220162630081177
212 214 0.9512617588043213
212 215 0.7328512668609619
212 216 0.9339825510978699
212 217 0.958984911441803
212 218 0.8538590669631958
212 219 0.5161407589912415
212 220 0.1648700088262558
212 221 0.5781365036964417
212 222 0.89079350233078
212 223 0.9478737115859985
212 224 0.4943850040435791
212 225 0.9105210900306702
212 226 0.9592574834823608
212 227 0.5109379887580872
212 228 0.955246090888977
212 229 0.12616822123527527
212 230 0.9457070231437683
212 231 0.2539331316947937
212 232 0.25187695026397705
212 233 0.706659197807312
212 234 0.3118518888950348
212 235 0.9521411061286926
212 236 0.12359143048524857
212 238 0.9012208580970764
212 239 0.9406800866127014
212 240 0.9544642567634583
212 241 0.9572775959968567
212 242 0.9459872841835022
212 243 0.9260063767433167
212 244 0.19242259860038757
212 245 0.18392018973827362
212 246 0.9364566206932068
212 247 0.9271301031112671
212 248 0.9150019884109497
212 249 0.9478737115859985
212 250 0.33632946014404297
212 251 0.8976404070854187
212 252 0.9067227840423584
212 253 0.7182877063751221
212 254 0.9465892314910889
212 255 0.9320600032806396
213 214 0.9490301012992859
213 215 0.6472564339637756
213 216 0.9132842421531677
213 217 0.9581252932548523
213 218 0.8253447413444519
213 219 0.48508062958717346
213 220 0.19622397422790527
213 221 0.5169724225997925
213 222 0.8463095426559448
213 223 0.9379633069038391
213 224 0.5287502408027649
213 225 0.9010568857192993
213 226 0.9337649345397949
213 227 0.5288421511650085
213 228 0.9272191524505615
213 229 0.12871038913726807
213 230 0.9324958324432373
213 231 0.18260875344276428
213 232 0.25273969769477844
213 233 0.7487316131591797
213 234 0.25589150190353394
213 235 0.9391272068023682
213 236 0.14091482758522034
213 238 0.9002960324287415
213 239 0.929375171661377
213 240 0.9352182745933533
213 241 0.9371623992919922
213 242 0.907123327255249
213 243 0.9084998369216919
213 244 0.17448866367340088
213 245 0.1817626953125
213 246 0.9378764629364014
213 247 0.9292177557945251
213 248 0.899780809879303
213 249 0.9336656332015991
213 250 0.317690908908844
213 251 0.8852779269218445
213 252 0.8901929259300232
213 253 0.6940432786941528
213 254 0.9214250445365906
213 255 0.9104021191596985
214 215 0.7016463875770569
214 216 0.9373406171798706
214 217 0.9772982597351074
214 218 0.8471689820289612
214 219 0.48991936445236206
214 220 0.17993606626987457
214 221 0.5541325211524963
214 222 0.8826897144317627
214 223 0.961345911026001
214 224 0.5102901458740234
214 225 0.9315165877342224
214 226 0.962120532989502
214 227 0.542087197303772
214 228 0.9561212062835693
214 229 0.12517967820167542
214 230 0.9571260213851929
214 231 0.20651109516620636
214 232 0.24580669403076172
214 233 0.7484956979751587
214 234 0.2724139988422394
214 235 0.9582510590553284
214 236 0.1370493322610855
214 238 0.9225457310676575
214 239 0.9543302655220032
214 240 0.9625784754753113
214 241 0.9642777442932129
214 242 0.9407013058662415
214 243 0.936870276927948
214 244 0.19621814787387848
214 245 0.1767766922712326
214 246 0.9429077506065369
214 247 0.947838544845581
214 248 0.9111063480377197
214 249 0.9582111239433289
214 250 0.29352739453315735
214 251 0.9114466905593872
214 252 0.911628007888794
214 253 0.7112652659416199
214 254 0.9517649412155151
214 255 0.941764235496521
215 216 0.743075430393219
215 217 0.6993995904922485
215 218 0.6426476240158081
215 219 0.3974169194698334
215 221 0.5102289915084839
215 222 0.6939916610717773
215 223 0.6903798580169678
215 224 0.1129293441772461
215 225 0.6368473768234253
215 226 0.7322799563407898
215 227 0.27666500210762024
215 228 0.7116879224777222
215 230 0.6953715682029724
215 231 0.06737745553255081
215 232 0.06126256659626961
215 233 0.3367249071598053
215 234 0.25145894289016724
215 235 0.713780403137207
215 238 0.6411725282669067
215 239 0.7015431523323059
215 240 0.7291802167892456
215 241 0.7124640941619873
215 242 0.7239461541175842
215 243 0.7070830464363098
215 246 0.6820065975189209
215 247 0.6830230355262756
215 248 0.7120063304901123
215 249 0.7287343144416809
215 250 0.14701209962368011
215 251 0.6724605560302734
215 252 0.6990562081336975
215 253 0.4834612309932709
215 254 0.7175470590591431
215 255 0.7066060900688171
216 217 0.9433054327964783
216 218 0.8379405736923218
216 219 0.5233173966407776
216 220 0.14544671773910522
216 221 0.539451003074646
216 222 0.8559898138046265
216 223 0.9326902031898499
216 224 0.4261309802532196
216 225 0.89131098985672
216 226 0.9391708970069885
216 227 0.4764326512813568
216 228 0.9348343014717102
216 229 0.08829433470964432
216 230 0.9293777346611023
216 231 0.12288466840982437
216 232 0.15971745550632477
216 233 0.6929325461387634
216 234 0.31743770837783813
216 235 0.9445642828941345
216 236 0.07400305569171906
216 238 0.88152015209198
216 239 0.9273369908332825
216 240 0.9363667368888855
216 241 0.9393577575683594
216 242 0.916039228439331
216 243 0.9119749665260315
216 244 0.09793462604284286
216 245 0.1755136400461197
216 246 0.9379960298538208
216 247 0.9062080383300781
216 248 0.9235551953315735
216 249 0.9348343014717102
216 250 0.3455237150192261
216 251 0.8754596710205078
216 252 0.905042290687561
216 253 0.6853671073913574
216 254 0.9301702380180359
216 255 0.9094960689544678
217 218 0.857328474521637
217 219 0.48438766598701477
217 220 0.189466193318367
217 221 0.5606855154037476
217 222 0.8919582962989807
217 223 0.9658305048942566
217 224 0.5164313912391663
217 225 0.9355456233024597
217 226 0.9696137309074402
217 227 0.5436915755271912
217 228 0.9637556672096252
217 229 0.11651035398244858
217 230 0.962691605091095
217 231 0.2296258509159088
217 232 0.23996829986572266
217 233 0.751164972782135
217 234 0.26043441891670227
217 235 0.9658549427986145
217 236 0.1289006769657135
217 238 0.9278213381767273
217 239 0.9641491174697876
217 240 0.9690588712692261
217 241 0.9727538824081421
217 242 0.9455312490463257
217 243 0.947050154209137
217 244 0.19480431079864502
217 245 0.16984155774116516
217 246 0.9508556127548218
217 247 0.946349561214447
217 248 0.9207906723022461
217 249 0.9658305048942566
217 250 0.3251549005508423
217 251 0.9201239347457886
217 252 0.920233964920044
217 253 0.7116785645484924
217 254 0.9584503173828125
217 255 0.946586549282074
218 219 0.4534226655960083
218 220 0.177810400724411
218 221 0.6370509266853333
218 222 0.849694013595581
218 223 0.8577674627304077
218 224 0.44481799006462097
218 225 0.7980794310569763
218 226 0.857811689376831
218 227 0.4056869149208069
218 228 0.8495423793792725
218 229 0.10557229816913605
218 230 0.8422014117240906
218 231 0.2600856125354767
218 232 0.1566304862499237
218 233 0.5737997889518738
218 234 0.2798536419868469
218 235 0.8592165112495422
218 236 0.15411034226417542
218 238 0.8151812553405762
218 239 0.8580337166786194
218 240 0.8544711470603943
218 241 0.8513824939727783
218 242 0.849831759929657
218 243 0.8245820999145508
218 244 0.0894506648182869
218 245 0.19878330826759338
218 246 0.8801945447921753
218 247 0.8250831961631775
218 248 0.846616268157959
218 249 0.8530673980712891
218 250 0.30227288603782654
218 251 0.8004419803619385
218 252 0.832368791103363
218 253 0.6665077805519104
218 254 0.8401508331298828
218 255 0.8259265422821045
219 221 0.14406558871269226
219 222 0.46622321009635925
219 223 0.49602049589157104
219 224 0.3027375340461731
219 225 0.49679532647132874
219 226 0.49066072702407837
219 227 0.2150772362947464
219 228 0.48994681239128113
219 229 0.07579238712787628
219 230 0.5005952715873718
219 233 0.41434580087661743
219 234 0.5278021097183228
219 235 0.5116804838180542
219 238 0.41248437762260437
219 239 0.4235628843307495
219 240 0.47128403186798096
219 241 0.4756007492542267
219 242 0.521039605140686
219 243 0.423336923122406
219 245 0.09943688660860062
219 246 0.5240218043327332
219 247 0.5002779960632324
219 248 0.5369798541069031
219 249 0.4616027772426605
219 250 0.371157705783844
219 251 0.2996339797973633
219 252 0.5203649401664734
219 253 0.518805205821991
219 254 0.4696519076824188
219 255 0.4283645749092102
220 221 0.07421418279409409
220 222 0.18854543566703796
220 223 0.1806897222995758
220 224 0.16582314670085907
220 225 0.175742506980896
220 226 0.18490827083587646
220 227 0.06786208599805832
220 228 0.18616518378257751
220 230 0.16443602740764618
220 232 0.1288016438484192
220 233 0.163124680519104
220 235 0.15315186977386475
220 238 0.1887872964143753
220 239 0.1927562952041626
220 240 0.17974911630153656
220 241 0.18452663719654083
220 242 0.12810438871383667
220 243 0.19547277688980103
220 245 0.20916500687599182
220 246 0.1722887009382248
220 247 0.1803998351097107
220 248 0.1257861852645874
220 249 0.19164061546325684
220 250 0.11333153396844864
220 251 0.18391108512878418
220 252 0.15446233749389648
220 253 0.18269601464271545
220 254 0.19245009124279022
220 255 0.16709266602993011
221 222 0.5547905564308167
221 223 0.5493422150611877
221 224 0.09085606038570404
221 225 0.5117111206054688
221 226 0.5827152132987976
221 227 0.37142932415008545
221 228 0.5617868304252625
221 229 0.06655436009168625
221 230 0.5534789562225342
221 231 0.3302660286426544
221 232 0.13243071734905243
221 233 0.1496822088956833
221 234 0.14876829087734222
221 235 0.5523185729980469
221 236 0.11044815182685852
221 238 0.5368112921714783
221 239 0.5829389691352844
221 240 0.5783164501190186
221 241 0.5691773891448975
221 242 0.5859305262565613
221 243 0.5458203554153442
221 244 0.11729336529970169
221 245 0.09701882302761078
221 246 0.5756397247314453
221 247 0.5399743318557739
221 248 0.5587812066078186
221 249 0.5671202540397644
221 250 0.09987834095954895
221 251 0.5710108280181885
221 252 0.4866594076156616
221 253 0.37015077471733093
221 254 0.5552331805229187
221 255 0.5678462386131287
222 223 0.8841285109519958
222 224 0.504395604133606
222 225 0.8370708227157593
222 226 0.8949822783470154
222 227 0.32587486505508423
222 228 0.8988075256347656
222 229 0.06763408333063126
222 230 0.8782756328582764
222 231 0.25439584255218506
222 232 0.18150480091571808
222 233 0.6757217049598694
222 234 0.26529496908187866
222 235 0.8843302726745605
222 236 0.12471108883619308
222 238 0.842347264289856
222 239 0.8870041966438293
222 240 0.8896355628967285
222 241 0.8976119160652161
222 242 0.8671959638595581
222 243 0.8707112669944763
222 244 0.11461177468299866
222 245 0.15405119955539703
222 246 0.8699033260345459
222 247 0.8544911742210388
222 248 0.8442234396934509
222 249 0.9010658264160156
222 250 0.29715076088905334
222 251 0.8450483679771423
222 252 0.8954364061355591
222 253 0.7309117317199707
222 254 0.8844612240791321
222 255 0.87179034948349
223 224 0.5163998603820801
223 225 0.9158623814582825
223 226 0.957812488079071
223 227 0.516489565372467
223 228 0.9506819844245911
223 229 0.13356049358844757
223 230 0.9495803117752075
223 231 0.23226118087768555
223 232 0.2509502172470093
223 233 0.7516307234764099
223 234 0.3005727529525757
223 235 0.9549272060394287
223 236 0.1448667049407959
223 238 0.9176390171051025
223 239 0.9509394764900208
223 240 0.9561716914176941
223 241 0.9599958658218384
223 242 0.9350348711013794
223 243 0.9322319030761719
223 244 0.1757383793592453
223 245 0.18324348330497742
223 246 0.9425967335700989
223 247 0.9280403852462769
223 248 0.9127311110496521
223 249 0.9517313838005066
223 250 0.32888659834861755
223 251 0.9086558818817139
223 252 0.9088683128356934
223 253 0.7226472496986389
223 254 0.9483751058578491
223 255 0.932900071144104
224 225 0.5161572694778442
224 226 0.4754311740398407
224 227 0.2778110206127167
224 228 0.4945521354675293
224 229 0.13383732736110687
224 230 0.5089895725250244
224 231 0.18056023120880127
224 232 0.3348357379436493
224 233 0.6508869528770447
224 234 0.11506355553865433
224 235 0.5198270082473755
224 236 0.1919429749250412
224 238 0.5208657383918762
224 239 0.4734587073326111
224 240 0.4959293007850647
224 241 0.5098860263824463
224 242 0.49700927734375
224 243 0.47202757000923157
224 244 0.16127918660640717
224 245 0.108388751745224
224 246 0.487869530916214
224 247 0.49691900610923767
224 248 0.44175663590431213
224 249 0.4945521354675293
224 250 0.22316677868366241
224 251 0.4774046242237091
224 252 0.5104898810386658
224 253 0.530166506767273
224 254 0.47869017720222473
224 255 0.49902963638305664
225 226 0.9258653521537781
225 227 0.5713059902191162
225 228 0.9202081561088562
225 229 0.13828451931476593
225 230 0.9342261552810669
225 231 0.25335893034935
225 232 0.2640857398509979
225 233 0.7528851628303528
225 234 0.28323060274124146
225 235 0.918158769607544
225 236 0.1349915713071823
225 238 0.9012857675552368
225 239 0.9102667570114136
225 240 0.9337910413742065
225 241 0.9261081218719482
225 242 0.8962727189064026
225 243 0.8998236060142517
225 244 0.2040092945098877
225 245 0.14229360222816467
225 246 0.8987436890602112
225 247 0.8971057534217834
225 248 0.8712736964225769
225 249 0.9158623814582825
225 250 0.2730579078197479
225 251 0.8769350051879883
225 252 0.8706374764442444
225 253 0.6989067792892456
225 254 0.9175488352775574
225 255 0.918375551700592
226 227 0.5388371348381042
226 228 0.959896981716156
226 229 0.13265874981880188
226 230 0.9598624110221863
226 231 0.2512906789779663
226 232 0.25334206223487854
226 233 0.7263059020042419
226 234 0.3052522838115692
226 235 0.9588913321495056
226 236 0.12949976325035095
226 238 0.9234219193458557
226 239 0.951857328414917
226 240 0.9735626578330994
226 241 0.971076488494873
226 242 0.942504346370697
226 243 0.9450731873512268
226 244 0.19570967555046082
226 245 0.18200629949569702
226 246 0.9425801038742065
226 247 0.9378708004951477
226 248 0.9174519181251526
226 249 0.9619814157485962
226 250 0.28660327196121216
226 251 0.9145546555519104
226 252 0.9179772138595581
226 253 0.7247233986854553
226 254 0.9555783867835999
226 255 0.9552265405654907
227 228 0.5109158754348755
227 229 0.1808348447084427
227 230 0.5653879046440125
227 231 0.2937367558479309
227 232 0.2767903804779053
227 233 0.4115144908428192
227 234 0.161448135972023
227 235 0.5345077514648438
227 236 0.1923709511756897
227 238 0.5571061372756958
227 239 0.5325772762298584
227 240 0.5507649779319763
227 241 0.5450910329818726
227 242 0.5253856778144836
227 243 0.5343976616859436
227 244 0.2828678488731384
227 245 0.08111070841550827
227 246 0.5280199646949768
227 247 0.5126466751098633
227 248 0.5082867741584778
227 249 0.5146316289901733
227 250 0.08789616823196411
227 251 0.5226247310638428
227 252 0.4367556869983673
227 253 0.2925959527492523
227 254 0.5186711549758911
227 255 0.553733766078949
228 229 0.0942779928445816
228 230 0.9506307244300842
228 231 0.24055622518062592
228 232 0.23038050532341003
228 233 0.7353204488754272
228 234 0.3039499819278717
228 235 0.9538789391517639
228 236 0.10865002125501633
228 238 0.9055792689323425
228 239 0.9519949555397034
228 240 0.9572155475616455
228 241 0.961035966873169
228 242 0.9339675307273865
228 243 0.9322319030761719
228 244 0.1757383793592453
228 245 0.17179076373577118
228 246 0.9362062811851501
228 247 0.9258796572685242
228 248 0.9127311110496521
228 249 0.9580272436141968
228 250 0.32888659834861755
228 251 0.9075544476509094
228 252 0.9176390171051025
228 253 0.7142444252967834
228 254 0.9599663615226746
228 255 0.932900071144104
229 230 0.1258361041545868
229 231 0.24842803180217743
229 232 0.30802056193351746
229 233 0.14247195422649384
229 234 0.050572171807289124
229 235 0.10202749073505402
229 236 0.21693046391010284
229 238 0.1395459920167923
229 239 0.10272908210754395
229 240 0.12504960596561432
229 241 0.10902290046215057
229 242 0.13586094975471497
229 243 0.11219043284654617
229 244 0.1594904512166977
229 245 0.17149858176708221
229 246 0.11164331436157227
229 247 0.1213352382183075
229 248 0.09844667464494705
229 249 0.06285199522972107
229 250 0.06969209760427475
229 251 0.115450419485569
229 252 0.09850304573774338
229 253 0.12582874298095703
229 254 0.11834526807069778
229 255 0.11987730860710144
230 231 0.2532646954059601
230 232 0.24709567427635193
230 233 0.7510600686073303
230 234 0.28398481011390686
230 235 0.9538321495056152
230 236 0.14501895010471344
230 238 0.9262859225273132
230 239 0.9466562271118164
230 240 0.9582215547561646
230 241 0.9599636793136597
230 242 0.9317435622215271
230 243 0.9385687708854675
230 244 0.19724708795547485
230 245 0.17770369350910187
230 246 0.9382564425468445
230 247 0.9268527030944824
230 248 0.9125934839248657
230 249 0.9527316093444824
230 250 0.2764308452606201
230 251 0.9107134342193604
230 252 0.9120184779167175
230 253 0.7220048308372498
230 254 0.9451524019241333
230 255 0.9456342458724976
231 232 0.2926926016807556
231 233 0.18265847861766815
231 235 0.2361610382795334
231 236 0.2004094123840332
231 238 0.2643369138240814
231 239 0.23361334204673767
231 240 0.24342992901802063
231 241 0.246660977602005
231 242 0.2573564648628235
231 243 0.22844469547271729
231 244 0.2736387252807617
231 245 0.11316968500614166
231 246 0.2231208086013794
231 247 0.1708107590675354
231 248 0.23386923968791962
231 249 0.2156710922718048
231 251 0.2655564546585083
231 252 0.21666957437992096
231 253 0.2435627579689026
231 254 0.2332422286272049
231 255 0.2573564648628235
232 233 0.28242677450180054
232 235 0.21370063722133636
232 236 0.31237903237342834
232 238 0.2664947807788849
232 239 0.22344593703746796
232 240 0.25373634696006775
232 241 0.24466370046138763
232 242 0.2385333925485611
232 243 0.2559683322906494
232 244 0.35493776202201843
232 245 0.11225330829620361
232 246 0.17538101971149445
232 247 0.23296302556991577
232 248 0.1589462012052536
232 249 0.22215263545513153
232 251 0.2634061872959137
232 252 0.1547389030456543
232 253 0.2470812350511551
232 254 0.2437475472688675
232 255 0.25945737957954407
233 234 0.23185035586357117
233 235 0.7454121708869934
233 236 0.16888199746608734
233 238 0.7583330869674683
233 239 0.7108922004699707
233 240 0.7220278382301331
233 241 0.7409734725952148
233 242 0.6926817893981934
233 243 0.7139788269996643
233 244 0.23453295230865479
233 245 0.14834770560264587
233 246 0.7077377438545227
233 247 0.7192983627319336
233 248 0.6542911529541016
233 249 0.7244470119476318
233 250 0.2974022924900055
233 251 0.6919257640838623
233 252 0.7114697694778442
233 253 0.647615373134613
233 254 0.73569655418396
233 255 0.723098874092102
234 235 0.3036315441131592
234 238 0.23994289338588715
234 239 0.21740053594112396
234 240 0.25197309255599976
234 241 0.28118976950645447
234 242 0.3160560429096222
234 243 0.21701954305171967
234 245 0.12901172041893005
234 246 0.31537196040153503
234 247 0.2781738042831421
234 248 0.31738975644111633
234 249 0.25329166650772095
234 250 0.4893154203891754
234 251 0.106345534324646
234 252 0.3140428960323334
234 253 0.3155202269554138
234 254 0.30523383617401123
234 255 0.19925272464752197
235 236 0.13747917115688324
235 238 0.9133921265602112
235 239 0.9478346109390259
235 240 0.957255482673645
235 241 0.9631461501121521
235 242 0.9404529333114624
235 243 0.9312552213668823
235 244 0.15959478914737701
235 245 0.17733114957809448
235 246 0.956504762172699
235 247 0.9249095916748047
235 248 0.9260042309761047
235 249 0.9549272060394287
235 250 0.3254425525665283
235 251 0.9033029079437256
235 252 0.9232488870620728
235 253 0.7218901515007019
235 254 0.9484341740608215
235 255 0.9372541308403015
236 238 0.15135887265205383
236 239 0.1457100659608841
236 240 0.11529004573822021
236 241 0.13641203939914703
236 242 0.11788950860500336
236 243 0.13298717141151428
236 244 0.07352146506309509
236 245 0.15811388194561005
236 246 0.14704293012619019
236 247 0.10440785437822342
236 248 0.08319974690675735
236 249 0.1303800344467163
236 251 0.14445431530475616
236 252 0.1362229883670807
236 253 0.16434518992900848
236 254 0.11638287454843521
236 255 0.1399937868118286
238 239 0.9097485542297363
238 240 0.9194059371948242
238 241 0.9258627891540527
238 242 0.8854897618293762
238 243 0.9080320000648499
238 244 0.20587031543254852
238 245 0.1675235778093338
238 246 0.8913628458976746
238 247 0.8973877429962158
238 248 0.858614981174469
238 249 0.9099646806716919
238 250 0.20423030853271484
238 251 0.878030002117157
238 252 0.8671248555183411
238 253 0.6833337545394897
238 254 0.906101405620575
238 255 0.9300988912582397
239 240 0.9564886093139648
239 241 0.9551233649253845
239 242 0.9265215396881104
239 243 0.9419652223587036
239 244 0.1606922596693039
239 245 0.17279088497161865
239 246 0.9352288842201233
239 247 0.9214898347854614
239 248 0.9059216976165771
239 249 0.954105794429779
239 250 0.2839897871017456
239 251 0.9183771014213562
239 252 0.9031322598457336
239 253 0.6888211965560913
239 254 0.9422375559806824
239 255 0.9340367913246155
240 241 0.9663798213005066
240 242 0.9386621713638306
240 243 0.9497382640838623
240 244 0.19071660935878754
240 245 0.15380683541297913
240 246 0.9408685564994812
240 247 0.928583025932312
240 248 0.917789876461029
240 249 0.9624348282814026
240 250 0.2592703700065613
240 251 0.9280304312705994
240 252 0.9117714762687683
240 253 0.7035602331161499
240 254 0.9518243074417114
240 255 0.96308434009552
241 242 0.9426750540733337
241 243 0.9494878649711609
241 244 0.195305734872818
241 245 0.17027872800827026
241 246 0.9448574185371399
241 247 0.9348642230033875
241 248 0.9199026226997375
241 249 0.9641562104225159
241 250 0.30446410179138184
241 251 0.9203089475631714
241 252 0.924776017665863
241 253 0.7121223211288452
241 254 0.9567395448684692
241 255 0.9553710222244263
242 243 0.9123604893684387
242 244 0.18418245017528534
242 245 0.1689247190952301
242 246 0.9230790734291077
242 247 0.9099566340446472
242 248 0.9005873203277588
242 249 0.932900071144104
242 250 0.3377074897289276
242 251 0.8817325234413147
242 252 0.8921810984611511
242 253 0.7179989218711853
242 254 0.9304091930389404
242 255 0.9142236709594727
243 244 0.19011633098125458
243 245 0.1693851202726364
243 246 0.9136447906494141
243 247 0.9069267511367798
243 248 0.8907480239868164
243 249 0.9450754523277283
243 250 0.2436855435371399
243 251 0.9088510274887085
243 252 0.8901398181915283
243 253 0.6713874340057373
243 254 0.9318702816963196
243 255 0.9374014139175415
244 246 0.11891892552375793
244 247 0.1864224672317505
244 248 0.11121757328510284
244 249 0.18106380105018616
244 251 0.20123039186000824
244 252 0.1224093809723854
244 253 0.14215177297592163
244 254 0.18717648088932037
244 255 0.20043383538722992
245 246 0.18599621951580048
245 247 0.16508331894874573
245 248 0.12557077407836914
245 249 0.15461169183254242
245 250 0.22011776268482208
245 251 0.11420116573572159
245 252 0.17948953807353973
245 253 0.19106805324554443
245 254 0.17826692759990692
245 255 0.12232479453086853
246 247 0.9178563952445984
246 248 0.9397885203361511
246 249 0.9383364319801331
246 250 0.34012582898139954
246 251 0.8831778168678284
246 252 0.9169575572013855
246 253 0.7178663611412048
246 254 0.9305344820022583
246 255 0.916578471660614
247 248 0.8799521327018738
247 249 0.9280403852462769
247 250 0.2843131124973297
247 251 0.8743120431900024
247 252 0.8917438387870789
247 253 0.7180796265602112
247 254 0.9156862497329712
247 255 0.9121545553207397
248 249 0.9127311110496521
248 250 0.3239895701408386
248 251 0.8556756377220154
248 252 0.8872354626655579
248 253 0.6668562889099121
248 254 0.9044826030731201
248 255 0.8927852511405945
249 250 0.29475685954093933
249 251 0.9262782335281372
249 252 0.9154463410377502
249 253 0.7170453667640686
249 254 0.9462676048278809
249 255 0.9393044710159302
250 251 0.16609206795692444
250 252 0.34362560510635376
250 253 0.28573206067085266
250 254 0.33962321281433105
250 255 0.15149495005607605
251 252 0.8515625
251 253 0.6467965841293335
251 254 0.9025394320487976
251 255 0.9209454655647278
252 253 0.7418634295463562
252 254 0.906101405620575
252 255 0.8910658955574036
253 254 0.6975717544555664
253 255 0.6852331757545471
254 255 0.9304091930389404
