0 1 0.23247970640659332
0 2 0.1340140700340271
0 4 0.2235630303621292
0 5 0.09635257720947266
0 6 0.09510340541601181
0 7 0.2376939207315445
0 8 0.24452774226665497
0 9 0.24644061923027039
0 10 0.2280799150466919
0 11 0.21436534821987152
0 12 0.22778119146823883
0 13 0.2446538805961609
0 14 0.2385680079460144
0 15 0.2405598759651184
0 16 0.2218780517578125
0 17 0.24156013131141663
0 18 0.08647651970386505
0 19 0.23670659959316254
0 20 0.2379426658153534
0 21 0.2363395094871521
0 22 0.2380673587322235
0 23 0.07074999064207077
0 24 0.2411835789680481
0 25 0.23932497203350067
0 27 0.228727325797081
0 28 0.23682935535907745
0 29 0.21413718163967133
0 30 0.2405598759651184
0 31 0.24295607209205627
0 32 0.05128392204642296
0 34 0.24168603122234344
0 35 0.20557168126106262
0 36 0.23126815259456635
0 37 0.2374459207057953
0 39 0.2186526656150818
0 40 0.1344965249300003
0 42 0.22801662981510162
0 43 0.24759377539157867
0 44 0.23682935535907745
0 45 0.23682935535907745
0 46 0.23681391775608063
0 47 0.23670659959316254
0 48 0.247348815202713
0 49 0.10088927298784256
0 50 0.24143441021442413
0 51 0.22742940485477448
0 52 0.2385680079460144
0 53 0.0805952250957489
0 54 0.22587166726589203
0 55 0.20612061023712158
0 57 0.24489924311637878
0 58 0.15526451170444489
0 59 0.24476824700832367
0 60 0.24168603122234344
0 61 0.23296302556991577
0 62 0.2284896969795227
0 64 0.2163582295179367
0 66 0.23682935535907745
0 67 0.20204263925552368
0 68 0.2281346172094345
0 69 0.23756982386112213
0 70 0.21841992437839508
0 71 0.242064967751503
0 73 0.2294447124004364
0 74 0.2424456626176834
0 75 0.23756982386112213
0 76 0.24130889773368835
0 77 0.20412413775920868
0 78 0.22825279831886292
0 80 0.06078306585550308
0 81 0.05872201919555664
0 83 0.242064967751503
0 84 0.2424456626176834
0 85 0.2159079611301422
0 86 0.23658405244350433
0 87 0.24440178275108337
0 88 0.050436194986104965
0 89 0.05872201919555664
0 90 0.05183597281575203
0 91 0.2403455525636673
0 93 0.05256464332342148
0 94 0.0774403065443039
0 95 0.08695980906486511
0 98 0.2254319190979004
0 99 0.20776519179344177
0 100 0.23707540333271027
0 101 0.24440178275108337
0 102 0.24257297813892365
0 104 0.22367846965789795
0 106 0.23211917281150818
0 107 0.23296302556991577
0 108 0.2284896969795227
0 110 0.2281346172094345
0 111 0.19398890435695648
0 112 0.22778119146823883
0 113 0.23587866127490997
0 114 0.06317483633756638
0 115 0.21970924735069275
0 116 0.14032794535160065
0 117 0.08104409277439117
0 120 0.24605445563793182
0 121 0.23320582509040833
0 122 0.21368300914764404
0 123 0.2284896969795227
0 124 0.22460854053497314
0 127 0.2210625410079956
0 128 0.07191949337720871
0 129 0.15902000665664673
0 130 0.24372777342796326
0 131 0.19377627968788147
0 132 0.22333267331123352
0 133 0.23994098603725433
0 134 0.08104409277439117
0 135 0.24516041576862335
0 136 0.2350534051656723
0 137 0.23658405244350433
0 138 0.22789882123470306
0 139 0.23670659959316254
0 140 0.22507795691490173
0 141 0.2470342516899109
0 142 0.2365597039461136
0 143 0.1625186949968338
0 144 0.20916272699832916
0 145 0.23609574139118195
0 146 0.23517592251300812
0 147 0.23682935535907745
0 148 0.22460854053497314
0 149 0.2242584079504013
0 151 0.21482552587985992
0 152 0.24080877006053925
0 154 0.23881953954696655
0 155 0.23831729590892792
0 156 0.23719871044158936
0 157 0.24068422615528107
0 158 0.07427813857793808
0 159 0.2242584079504013
0 160 0.22980596125125885
0 161 0.2318888008594513
0 163 0.2286084145307541
0 164 0.23443129658699036
0 165 0.24478021264076233
0 166 0.24257297813892365
0 167 0.23585271835327148
0 168 0.23381616175174713
0 169 0.24372777342796326
0 171 0.24124936759471893
0 172 0.2201414406299591
0 173 0.24503348767757416
0 174 0.09553945809602737
0 175 0.24450688064098358
0 176 0.24018797278404236
0 177 0.2286084145307541
0 178 0.2294447124004364
0 179 0.15265566110610962
0 180 0.2048105150461197
0 181 0.07580979913473129
0 182 0.2254319190979004
0 183 0.2446538805961609
0 184 0.23869366943836212
0 185 0.21853619813919067
0 186 0.2235630303621292
0 187 0.23199936747550964
0 188 0.24528753757476807
0 189 0.23781821131706238
0 190 0.23260025680065155
0 191 0.22884643077850342
0 192 0.24193845689296722
0 193 0.24068422615528107
0 194 0.23585271835327148
0 195 0.2374459207057953
0 196 0.21568387746810913
0 197 0.22199107706546783
0 199 0.23932497203350067
0 200 0.06963574886322021
0 201 0.06416653841733932
0 202 0.23646168410778046
0 203 0.06170827895402908
0 204 0.09697622805833817
0 205 0.1696605235338211
0 206 0.06834282726049423
0 207 0.2242584079504013
0 208 0.2380673587322235
0 212 0.23344938457012177
0 213 0.17939874529838562
0 214 0.09172220528125763
0 216 0.24043571949005127
0 217 0.2243749350309372
0 218 0.23919832706451416
0 219 0.24478021264076233
0 220 0.23597413301467896
0 221 0.22896571457386017
0 222 0.24168603122234344
0 223 0.24168603122234344
0 224 0.1756535768508911
0 225 0.2411835789680481
0 226 0.24008919298648834
0 227 0.23492692410945892
0 228 0.08206652104854584
0 229 0.23056994378566742
0 230 0.06990937143564224
0 231 0.23381616175174713
0 232 0.23344938457012177
0 233 0.22927242517471313
0 234 0.1148931235074997
0 235 0.24490675330162048
0 236 0.23919832706451416
0 237 0.22801662981510162
0 238 0.2201414406299591
0 239 0.22048549354076385
0 240 0.11222817748785019
0 241 0.2385680079460144
0 242 0.06369297206401825
0 243 0.24605445563793182
0 244 0.24143441021442413
0 245 0.22662407159805298
0 247 0.24105845391750336
0 248 0.22270266711711884
0 249 0.08213784545660019
0 250 0.23406164348125458
0 251 0.21774707734584808
0 252 0.24308417737483978
0 253 0.22507795691490173
0 254 0.11616045981645584
0 255 0.1714152693748474
1 2 0.1511327475309372
1 3 0.1475183367729187
1 4 0.9658758640289307
1 5 0.30370935797691345
1 6 0.677609384059906
1 7 0.961506724357605
1 8 0.9674450755119324
1 9 0.9614713191986084
1 10 0.9463546872138977
1 11 0.9533277153968811
1 12 0.9658758640289307
1 13 0.9658758640289307
1 14 0.9587761759757996
1 15 0.9674093723297119
1 16 0.95820152759552
1 17 0.96312016248703
1 18 0.29327523708343506
1 19 0.9668393731117249
1 20 0.959388017654419
1 21 0.9684440493583679
1 22 0.9588484764099121
1 23 0.17345097661018372
1 24 0.9636934399604797
1 25 0.9555319547653198
1 26 0.16456358134746552
1 27 0.9615805149078369
1 28 0.9642303586006165
1 29 0.9533629417419434
1 30 0.9684440493583679
1 31 0.956146240234375
1 32 0.23888298869132996
1 33 0.13293276727199554
1 34 0.9625826478004456
1 35 0.9554628133773804
1 36 0.9533629417419434
1 37 0.9625826478004456
1 38 0.13657543063163757
1 39 0.9501744508743286
1 40 0.23493421077728271
1 41 0.10676592588424683
1 42 0.9668741822242737
1 43 0.5311266779899597
1 44 0.9673407077789307
1 45 0.9652671217918396
1 46 0.9458077549934387
1 47 0.9658031463623047
1 48 0.9556049108505249
1 49 0.2756080627441406
1 50 0.9615805149078369
1 51 0.9674817323684692
1 52 0.9556428790092468
1 53 0.4588422477245331
1 54 0.9174842238426208
1 55 0.950644850730896
1 56 0.17640994489192963
1 57 0.9469403624534607
1 58 0.6714615821838379
1 59 0.951697587966919
1 60 0.9625826478004456
1 61 0.962618887424469
1 62 0.9647308588027954
1 63 0.1367649883031845
1 64 0.9610047936439514
1 65 0.14807924628257751
1 66 0.9663039445877075
1 67 0.9506093263626099
1 68 0.9653031229972839
1 69 0.962044894695282
1 70 0.9523130059242249
1 71 0.9651328921318054
1 72 0.07198157161474228
1 73 0.9583463072776794
1 74 0.9603942036628723
1 75 0.9610047936439514
1 76 0.9641941785812378
1 77 0.576359212398529
1 78 0.9658031463623047
1 79 0.06438227742910385
1 80 0.20862242579460144
1 81 0.07198157161474228
1 82 0.05575668811798096
1 83 0.9609683752059937
1 84 0.9593513607978821
1 85 0.9631562829017639
1 86 0.9673745632171631
1 87 0.9669467806816101
1 88 0.21844761073589325
1 89 0.1367649883031845
1 90 0.4807908833026886
1 91 0.9480324387550354
1 92 0.06438227742910385
1 93 0.39691251516342163
1 94 0.20409195125102997
1 95 0.4732840955257416
1 96 0.1852266788482666
1 97 0.11151337623596191
1 98 0.9603942036628723
1 99 0.9605036377906799
1 100 0.9631562829017639
1 101 0.9669467806816101
1 102 0.9567252397537231
1 103 0.14095865190029144
1 104 0.9653400182723999
1 105 0.1327274739742279
1 106 0.9653400182723999
1 107 0.9615805149078369
1 108 0.9668055176734924
1 109 0.11151337623596191
1 110 0.9663388133049011
1 111 0.9230652451515198
1 112 0.9658758640289307
1 113 0.8810282349586487
1 114 0.3252473473548889
1 115 0.9452605247497559
1 116 0.4243018925189972
1 117 0.20862242579460144
1 118 0.2537437081336975
1 120 0.9630849361419678
1 121 0.9636221528053284
1 122 0.9555319547653198
1 123 0.9668055176734924
1 124 0.96312016248703
1 125 0.24935150146484375
1 126 0.15438328683376312
1 127 0.9609329700469971
1 128 0.17044085264205933
1 129 0.561744213104248
1 130 0.9528934955596924
1 131 0.9070383906364441
1 132 0.9700459837913513
1 133 0.968016505241394
1 134 0.19868803024291992
1 135 0.9647668600082397
1 136 0.7357339262962341
1 137 0.9663388133049011
1 138 0.9653400182723999
1 139 0.9658031463623047
1 140 0.9620094895362854
1 141 0.9268304705619812
1 142 0.9511191844940186
1 143 0.3121046721935272
1 144 0.9368995428085327
1 145 0.9664115309715271
1 146 0.953941822052002
1 147 0.9673407077789307
1 148 0.962081253528595
1 149 0.9636934399604797
1 151 0.931878387928009
1 152 0.964267373085022
1 153 0.3391682207584381
1 154 0.9556049108505249
1 155 0.9577685594558716
1 156 0.962618887424469
1 157 0.9658389687538147
1 158 0.2139682024717331
1 159 0.9636934399604797
1 160 0.9608985185623169
1 161 0.9117858409881592
1 162 0.18778163194656372
1 163 0.9631562829017639
1 164 0.961371123790741
1 165 0.9653400182723999
1 166 0.9588118195533752
1 167 0.9674817323684692
1 168 0.9598907232284546
1 169 0.9581349492073059
1 170 0.3333200514316559
1 171 0.9505413174629211
1 172 0.9631562829017639
1 173 0.964267373085022
1 174 0.24983994662761688
1 175 0.9485781192779541
1 176 0.9690129160881042
1 177 0.9621184468269348
1 178 0.9614713191986084
1 179 0.8257672190666199
1 180 0.9571554064750671
1 181 0.31905215978622437
1 182 0.9583086371421814
1 183 0.9669100642204285
1 184 0.9603261351585388
1 185 0.9496684074401855
1 186 0.9658758640289307
1 187 0.9658758640289307
1 188 0.9631934762001038
1 189 0.9630506634712219
1 190 0.9631934762001038
1 191 0.962081253528595
1 192 0.9625473618507385
1 193 0.9648038148880005
1 194 0.9685142636299133
1 195 0.9605036377906799
1 196 0.9631934762001038
1 197 0.9422721266746521
1 198 0.1287645548582077
1 199 0.954484224319458
1 200 0.1821005791425705
1 201 0.2556303143501282
1 202 0.9658389687538147
1 203 0.4009033739566803
1 204 0.49926936626434326
1 205 0.8914614915847778
1 206 0.5454668402671814
1 207 0.9647308588027954
1 208 0.9588484764099121
1 209 0.05575668811798096
1 210 0.24963468313217163
1 211 0.17044085264205933
1 212 0.961506724357605
1 213 0.32357797026634216
1 214 0.38727012276649475
1 215 0.11636403203010559
1 216 0.9679441452026367
1 217 0.9631562829017639
1 218 0.9560733437538147
1 219 0.9663746953010559
1 220 0.9700459837913513
1 221 0.9636221528053284
1 222 0.9625826478004456
1 223 0.9605036377906799
1 224 0.8577744960784912
1 225 0.9626561403274536
1 226 0.9501744508743286
1 227 0.9539790153503418
1 228 0.23338575661182404
1 229 0.9396217465400696
1 230 0.3599191904067993
1 231 0.9588484764099121
1 232 0.9604661464691162
1 233 0.7843642830848694
1 234 0.24948132038116455
1 235 0.9648038148880005
1 236 0.9529317617416382
1 237 0.9679093956947327
1 238 0.9641941785812378
1 239 0.9605036377906799
1 240 0.5466095805168152
1 241 0.9556428790092468
1 242 0.39297741651535034
1 243 0.9599647521972656
1 244 0.9636573195457458
1 245 0.953941822052002
1 246 0.12236867845058441
1 247 0.9663039445877075
1 248 0.9512630105018616
1 249 0.15438328683376312
1 250 0.9588118195533752
1 251 0.20382586121559143
1 252 0.9556049108505249
1 253 0.9599272608757019
1 254 0.20883828401565552
1 255 0.5138418674468994
2 4 0.15737789869308472
2 5 0.06419407576322556
2 6 0.1108831837773323
2 7 0.1583615094423294
2 8 0.15074273943901062
2 9 0.15192195773124695
2 10 0.1471777856349945
2 11 0.15995734930038452
2 12 0.15737789869308472
2 13 0.14426307380199432
2 14 0.1523212194442749
2 15 0.15089836716651917
2 16 0.14592915773391724
2 17 0.1515258252620697
2 19 0.1577037274837494
2 20 0.1387113481760025
2 21 0.15745915472507477
2 22 0.1321752667427063
2 23 0.0733235627412796
2 24 0.13813398778438568
2 25 0.14616085588932037
2 27 0.13827764987945557
2 28 0.14463672041893005
2 29 0.15312929451465607
2 30 0.15745915472507477
2 31 0.15240146219730377
2 32 0.10629880428314209
2 34 0.1516047865152359
2 35 0.15312929451465607
2 36 0.15978708863258362
2 37 0.1516047865152359
2 39 0.1532924622297287
2 42 0.15754055976867676
2 43 0.1323094367980957
2 44 0.15778550505638123
2 45 0.15778550505638123
2 46 0.15395037829875946
2 47 0.1379907727241516
2 48 0.15911144018173218
2 50 0.12510834634304047
2 51 0.1505875587463379
2 52 0.1390758901834488
2 54 0.1583535522222519
2 55 0.14686262607574463
2 57 0.14026206731796265
2 58 0.06758318096399307
2 59 0.14686262607574463
2 60 0.13842175900936127
2 61 0.15144695341587067
2 62 0.14471180737018585
2 64 0.15827883780002594
2 66 0.14463672041893005
2 67 0.13365449011325836
2 68 0.1510545015335083
2 69 0.15168389678001404
2 70 0.1331559121608734
2 71 0.15184247493743896
2 73 0.1387113481760025
2 74 0.1454690545797348
2 75 0.12530408799648285
2 76 0.15794943273067474
2 77 0.1203642413020134
2 78 0.1511327475309372
2 80 0.09449111670255661
2 82 0.1178511306643486
2 83 0.15184247493743896
2 84 0.15208128094673157
2 85 0.13820576667785645
2 86 0.1444869041442871
2 87 0.15066508948802948
2 91 0.1601281464099884
2 93 0.0653720498085022
2 95 0.09462916105985641
2 98 0.13885682821273804
2 99 0.14501327276229858
2 100 0.15136821568012238
2 101 0.15066508948802948
2 102 0.15877683460712433
2 104 0.15745915472507477
2 106 0.13777677714824677
2 107 0.15803158283233643
2 108 0.15128961205482483
2 110 0.1379193216562271
2 111 0.14393018186092377
2 112 0.15082049369812012
2 113 0.13660936057567596
2 114 0.058925561606884
2 115 0.14733612537384033
2 116 0.1308891922235489
2 117 0.09449111670255661
2 118 0.14852212369441986
2 120 0.15827883780002594
2 121 0.14501327276229858
2 122 0.1328735053539276
2 123 0.1578674167394638
2 124 0.15811389684677124
2 125 0.05270463228225708
2 127 0.14539280533790588
2 129 0.08989331871271133
2 130 0.1528855264186859
2 131 0.1541215032339096
2 132 0.15066508948802948
2 133 0.14396624267101288
2 134 0.09449111670255661
2 135 0.144561767578125
2 136 0.11896919459104538
2 137 0.1379193216562271
2 138 0.15089836716651917
2 139 0.144561767578125
2 140 0.15184247493743896
2 141 0.15086907148361206
2 142 0.14041249454021454
2 143 0.12632279098033905
2 144 0.15580426156520844
2 145 0.15074273943901062
2 146 0.11964953690767288
2 147 0.15121112763881683
2 148 0.15811389684677124
2 149 0.14471180737018585
2 151 0.1158636286854744
2 152 0.1576220691204071
2 153 0.057607151567935944
2 154 0.13922251760959625
2 155 0.15877683460712433
2 156 0.15144695341587067
2 157 0.15097637474536896
2 158 0.08660253882408142
2 159 0.1315561830997467
2 160 0.1323140412569046
2 161 0.14558079838752747
2 162 0.10206206887960434
2 163 0.13820576667785645
2 164 0.15240146219730377
2 165 0.14433757960796356
2 166 0.12569834291934967
2 167 0.11130385100841522
2 168 0.14539280533790588
2 169 0.15953271090984344
2 171 0.1406390219926834
2 172 0.13820576667785645
2 173 0.1576220691204071
2 175 0.14670580625534058
2 176 0.15721572935581207
2 177 0.14478699862957
2 178 0.15852725505828857
2 179 0.1301393061876297
2 180 0.14592915773391724
2 182 0.15208128094673157
2 183 0.15082049369812012
2 184 0.13914915919303894
2 185 0.14654947817325592
2 186 0.13770566880702972
2 187 0.14426307380199432
2 188 0.15778550505638123
2 189 0.1320369392633438
2 190 0.15778550505638123
2 191 0.1515258252620697
2 192 0.14516472816467285
2 193 0.15097637474536896
2 194 0.1505875587463379
2 195 0.1516047865152359
2 196 0.14463672041893005
2 197 0.15563295781612396
2 199 0.15944820642471313
2 202 0.13784800469875336
2 203 0.06395295262336731
2 204 0.0628148689866066
2 205 0.1425664871931076
2 206 0.09443843364715576
2 207 0.1578674167394638
2 208 0.1387840360403061
2 211 0.07453560084104538
2 212 0.14516472816467285
2 213 0.09960239380598068
2 216 0.15082049369812012
2 217 0.15794943273067474
2 218 0.13944333791732788
2 219 0.14433757960796356
2 220 0.1441144347190857
2 221 0.15819628536701202
2 222 0.14501327276229858
2 223 0.14501327276229858
2 224 0.1254620999097824
2 225 0.1578674167394638
2 226 0.11996801197528839
2 227 0.15272367000579834
2 228 0.20412413775920868
2 229 0.1487845629453659
2 231 0.1255665123462677
2 232 0.1583615094423294
2 233 0.12150629609823227
2 234 0.05103103443980217
2 235 0.15754055976867676
2 236 0.1460835039615631
2 237 0.14441218972206116
2 238 0.14478699862957
2 239 0.15819628536701202
2 240 0.10467947274446487
2 241 0.1523212194442749
2 243 0.13849399983882904
2 244 0.14486229419708252
2 245 0.1528855264186859
2 247 0.15121112763881683
2 248 0.14647150039672852
2 250 0.11246693134307861
2 251 0.09231861680746078
2 252 0.14585216343402863
2 253 0.1452406346797943
2 254 0.06019292399287224
2 255 0.13323794305324554
3 4 0.13319319486618042
3 6 0.10866085439920425
3 7 0.14107964932918549
3 8 0.14013108611106873
3 9 0.14122730493545532
3 10 0.12158064544200897
3 11 0.1140010729432106
3 12 0.14020337164402008
3 13 0.11917286366224289
3 14 0.14867839217185974
3 15 0.140275776386261
3 16 0.1347314417362213
3 17 0.1479019969701767
3 19 0.14049366116523743
3 20 0.14828866720199585
3 21 0.140275776386261
3 22 0.14130130410194397
3 24 0.14063946902751923
3 25 0.14204774796962738
3 27 0.14078573882579803
3 28 0.14056651294231415
3 29 0.14946714043617249
3 30 0.140275776386261
3 31 0.13458940386772156
3 32 0.1988668441772461
3 33 0.05006261542439461
3 34 0.14093247056007385
3 35 0.14234966039657593
3 36 0.14234966039657593
3 37 0.12683922052383423
3 39 0.1425013393163681
3 42 0.14736570417881012
3 43 0.05143444985151291
3 44 0.14056651294231415
3 45 0.14759483933448792
3 46 0.1431129425764084
3 47 0.1475183367729187
3 48 0.14174774289131165
3 50 0.14782503247261047
3 51 0.14698617160320282
3 52 0.12743861973285675
3 53 0.059529345482587814
3 54 0.1251252144575119
3 55 0.1498662382364273
3 57 0.12138523161411285
3 58 0.08257081359624863
3 59 0.09991082549095154
3 60 0.14797909557819366
3 61 0.12670716643333435
3 62 0.14063946902751923
3 64 0.1410059928894043
3 66 0.13353818655014038
3 67 0.1357385218143463
3 68 0.14744196832180023
3 69 0.148056298494339
3 70 0.14234966039657593
3 71 0.14821109175682068
3 73 0.14122730493545532
3 74 0.14137542247772217
3 75 0.148056298494339
3 76 0.1477481573820114
3 77 0.0935816541314125
3 78 0.1475183367729187
3 80 0.06734350323677063
3 83 0.12703807651996613
3 84 0.14137542247772217
3 85 0.1477481573820114
3 86 0.12637881934642792
3 87 0.14706185460090637
3 90 0.08614609390497208
3 91 0.1355208158493042
3 93 0.05241423845291138
3 95 0.08671098947525024
3 98 0.12723787128925323
3 99 0.14093247056007385
3 100 0.1477481573820114
3 101 0.14706185460090637
3 102 0.13437716662883759
3 104 0.140275776386261
3 106 0.140275776386261
3 107 0.1337464600801468
3 108 0.1476714313030243
3 110 0.14744196832180023
3 111 0.13188670575618744
3 112 0.14721353352069855
3 113 0.12298236042261124
3 115 0.143189936876297
3 116 0.12437903881072998
3 118 0.07938840985298157
3 120 0.148056298494339
3 121 0.12683922052383423
3 122 0.14204774796962738
3 123 0.13360749185085297
3 124 0.1479019969701767
3 127 0.14836636185646057
3 129 0.09609999507665634
3 130 0.1421230435371399
3 131 0.119827501475811
3 132 0.14706185460090637
3 133 0.1399148851633072
3 134 0.06734350323677063
3 135 0.1475183367729187
3 136 0.12718340754508972
3 137 0.12637881934642792
3 138 0.14728955924510956
3 139 0.14049366116523743
3 140 0.14115342497825623
3 141 0.1539546549320221
3 142 0.1501072645187378
3 144 0.10138539969921112
3 145 0.14013108611106873
3 146 0.1421230435371399
3 147 0.14056651294231415
3 148 0.1479019969701767
3 149 0.14063946902751923
3 150 0.15430334210395813
3 151 0.1457216739654541
3 152 0.14744196832180023
3 154 0.14174774289131165
3 155 0.14144964516162872
3 156 0.14078573882579803
3 157 0.14034828543663025
3 159 0.13360749185085297
3 160 0.14144964516162872
3 161 0.13339923322200775
3 163 0.1336769014596939
3 164 0.14167305827140808
3 165 0.14728955924510956
3 166 0.14852212369441986
3 167 0.13298748433589935
3 168 0.14836636185646057
3 169 0.13501688838005066
3 171 0.1360304355621338
3 172 0.12664127349853516
3 173 0.14042091369628906
3 175 0.1425773650407791
3 176 0.12605302035808563
3 177 0.1336769014596939
3 178 0.1341659277677536
3 179 0.10638953000307083
3 180 0.14891371130943298
3 181 0.08399210125207901
3 182 0.12723787128925323
3 183 0.12618303298950195
3 184 0.12750574946403503
3 185 0.12818288803100586
3 186 0.14721353352069855
3 187 0.14721353352069855
3 188 0.14056651294231415
3 189 0.13409575819969177
3 190 0.14056651294231415
3 191 0.14085903763771057
3 192 0.14813363552093506
3 193 0.14736570417881012
3 194 0.14698617160320282
3 195 0.14093247056007385
3 196 0.14759483933448792
3 197 0.1374431997537613
3 199 0.1349453628063202
3 202 0.14034828543663025
3 203 0.0683685764670372
3 205 0.14478948712348938
3 206 0.1009589210152626
3 207 0.1476714313030243
3 208 0.12717117369174957
3 211 0.07968190312385559
3 212 0.14107964932918549
3 213 0.08518354594707489
3 214 0.11855895072221756
3 215 0.11268723011016846
3 216 0.14020337164402008
3 217 0.1477481573820114
3 218 0.14907118678092957
3 219 0.14728955924510956
3 220 0.14706185460090637
3 221 0.14797909557819366
3 222 0.12683922052383423
3 223 0.14797909557819366
3 224 0.14201432466506958
3 225 0.14063946902751923
3 226 0.1425013393163681
3 227 0.12777531147003174
3 229 0.1445976197719574
3 231 0.14130130410194397
3 232 0.14107964932918549
3 233 0.07793741673231125
3 235 0.14034828543663025
3 236 0.12777531147003174
3 237 0.14736570417881012
3 238 0.1477481573820114
3 239 0.14797909557819366
3 240 0.09947293996810913
3 241 0.14867839217185974
3 242 0.0882093533873558
3 243 0.1339556872844696
3 244 0.14078573882579803
3 245 0.13501688838005066
3 247 0.14759483933448792
3 248 0.13523218035697937
3 250 0.14144964516162872
3 252 0.14174774289131165
3 253 0.14821109175682068
3 255 0.10359079390764236
4 5 0.2963466942310333
4 6 0.6849345564842224
4 7 0.964712381362915
4 8 0.9706035852432251
4 9 0.9615639448165894
4 10 0.948610782623291
4 11 0.9555537104606628
4 12 0.9690402746200562
4 13 0.9680082201957703
4 14 0.9588796496391296
4 15 0.9685081243515015
4 16 0.958309531211853
4 17 0.9642406702041626
4 18 0.2785647511482239
4 19 0.9679441452026367
4 20 0.9636430144309998
4 21 0.9726382493972778
4 22 0.9641479253768921
4 23 0.17886234819889069
4 24 0.966878354549408
4 25 0.9556487202644348
4 26 0.17595383524894714
4 27 0.9658114314079285
4 28 0.9663767218589783
4 29 0.9534887075424194
4 30 0.9685081243515015
4 31 0.9572991728782654
4 32 0.2425716668367386
4 33 0.14002801477909088
4 34 0.9647432565689087
4 35 0.9555843472480774
4 36 0.9534887075424194
4 37 0.9626684784889221
4 38 0.13629326224327087
4 39 0.9566025733947754
4 40 0.2385619431734085
4 41 0.1065453439950943
4 42 0.9669426679611206
4 43 0.522457480430603
4 44 0.9663767218589783
4 45 0.9684460759162903
4 46 0.9491207003593445
4 47 0.9679441452026367
4 48 0.959890604019165
4 49 0.2891431748867035
4 50 0.9647751450538635
4 51 0.9737260341644287
4 52 0.9578374028205872
4 53 0.45570334792137146
4 54 0.9220898151397705
4 55 0.9581359624862671
4 56 0.17604544758796692
4 57 0.9523418545722961
4 58 0.6548798084259033
4 59 0.9497312307357788
4 60 0.9647432565689087
4 61 0.9637388586997986
4 62 0.966878354549408
4 63 0.129299134016037
4 64 0.9652466773986816
4 65 0.13492344319820404
4 66 0.9694806933403015
4 67 0.9581106901168823
4 68 0.96744304895401
4 69 0.9631708264350891
4 70 0.9566320776939392
4 71 0.9620998501777649
4 72 0.07183285802602768
4 73 0.9626034498214722
4 74 0.9604911208152771
4 75 0.9621329307556152
4 76 0.9673807621002197
4 77 0.5820565819740295
4 78 0.9679441452026367
4 79 0.06424925476312637
4 80 0.2081913948059082
4 81 0.057466283440589905
4 82 0.05564148724079132
4 83 0.9610608816146851
4 84 0.9615316987037659
4 85 0.9663450121879578
4 86 0.9664095044136047
4 87 0.9701035618782043
4 88 0.25090137124061584
4 89 0.1221158504486084
4 90 0.4840248227119446
4 91 0.9502738118171692
4 92 0.06424925476312637
4 93 0.3883763551712036
4 94 0.21314330399036407
4 95 0.4574136734008789
4 96 0.1901252269744873
4 97 0.11128297448158264
4 98 0.963612973690033
4 99 0.9668179750442505
4 100 0.9642735719680786
4 101 0.9701035618782043
4 102 0.962036669254303
4 103 0.14736585319042206
4 104 0.9674755930900574
4 105 0.11687050759792328
4 106 0.9674755930900574
4 107 0.9678839445114136
4 108 0.9679136276245117
4 109 0.11128297448158264
4 110 0.96744304895401
4 111 0.9308658838272095
4 112 0.9711042642593384
4 113 0.8837341070175171
4 114 0.30602818727493286
4 115 0.9506853222846985
4 116 0.43715792894363403
4 117 0.2032344490289688
4 118 0.2610107958316803
4 120 0.964208722114563
4 121 0.9647432565689087
4 122 0.9587854743003845
4 123 0.966878354549408
4 124 0.9663142561912537
4 125 0.24883629381656647
4 126 0.1406674087047577
4 127 0.9631078243255615
4 128 0.17595383524894714
4 129 0.5552783608436584
4 130 0.9551092386245728
4 131 0.9040617942810059
4 132 0.9711344838142395
4 133 0.9711657762527466
4 134 0.19332057237625122
4 135 0.9658758640289307
4 136 0.7422379851341248
4 137 0.9664095044136047
4 138 0.9674755930900574
4 139 0.9658758640289307
4 140 0.9620998501777649
4 141 0.9313910007476807
4 142 0.9533631205558777
4 143 0.2849526107311249
4 144 0.9381620287895203
4 145 0.969572126865387
4 146 0.9561553597450256
4 147 0.9663767218589783
4 148 0.9642406702041626
4 149 0.9648079872131348
4 151 0.9331707954406738
4 152 0.96744304895401
4 153 0.33544543385505676
4 154 0.959890604019165
4 155 0.9599543213844299
4 156 0.9637388586997986
4 157 0.96900874376297
4 158 0.22261232137680054
4 159 0.9679136276245117
4 160 0.962036669254303
4 161 0.9175390005111694
4 162 0.1873936504125595
4 163 0.9663450121879578
4 164 0.9593847990036011
4 165 0.9685081243515015
4 166 0.962036669254303
4 167 0.9696044325828552
4 168 0.9599875807762146
4 169 0.9572014808654785
4 170 0.332631379365921
4 171 0.948577344417572
4 172 0.9663450121879578
4 173 0.96744304895401
4 174 0.2610107958316803
4 175 0.9539644718170166
4 176 0.9701035618782043
4 177 0.9653093218803406
4 178 0.9615639448165894
4 179 0.8373135924339294
4 180 0.958309531211853
4 181 0.32148414850234985
4 182 0.9594504833221436
4 183 0.9680082201957703
4 184 0.9593847990036011
4 185 0.9539963006973267
4 186 0.9690402746200562
4 187 0.9690402746200562
4 188 0.9663767218589783
4 189 0.9620998501777649
4 190 0.9663767218589783
4 191 0.9652774333953857
4 192 0.9615970849990845
4 193 0.9679757356643677
4 194 0.9737260341644287
4 195 0.9626684784889221
4 196 0.9684460759162903
4 197 0.9413902163505554
4 198 0.12849850952625275
4 199 0.9556487202644348
4 200 0.170366570353508
4 201 0.24725282192230225
4 202 0.9679757356643677
4 203 0.39252644777297974
4 204 0.4923064112663269
4 205 0.8907414674758911
4 206 0.5406242609024048
4 207 0.966878354549408
4 208 0.9620677828788757
4 209 0.05564148724079132
4 210 0.2491188943386078
4 211 0.17595383524894714
4 212 0.9626355171203613
4 213 0.3197743594646454
4 214 0.4089101552963257
4 215 0.11612360179424286
4 216 0.9680082201957703
4 217 0.9663450121879578
4 218 0.9572330713272095
4 219 0.9685081243515015
4 220 0.9731963872909546
4 221 0.9626684784889221
4 222 0.963705837726593
4 223 0.9678552746772766
4 224 0.8618095517158508
4 225 0.965843141078949
4 226 0.9513580799102783
4 227 0.9561880230903625
4 228 0.24896587431430817
4 229 0.9387447237968445
4 230 0.362026184797287
4 231 0.9599875807762146
4 232 0.9636739492416382
4 233 0.785293459892273
4 234 0.23691913485527039
4 235 0.96900874376297
4 236 0.9572330713272095
4 237 0.96900874376297
4 238 0.9663450121879578
4 239 0.963705837726593
4 240 0.5509716868400574
4 241 0.9620064496994019
4 242 0.3947626054286957
4 243 0.9631708264350891
4 244 0.9658114314079285
4 245 0.9582476615905762
4 246 0.14366571605205536
4 247 0.9663767218589783
4 248 0.9555843472480774
4 249 0.15406429767608643
4 250 0.9609954953193665
4 251 0.2034047544002533
4 252 0.9588472843170166
4 253 0.9652168154716492
4 254 0.18472419679164886
4 255 0.5318426489830017
5 6 0.22303202748298645
5 7 0.3015874922275543
5 8 0.30292558670043945
5 9 0.3019031286239624
5 10 0.3057697117328644
5 11 0.3046266436576843
5 12 0.2963466942310333
5 13 0.2896115481853485
5 14 0.2890922427177429
5 15 0.2863917350769043
5 16 0.29295626282691956
5 17 0.2808159589767456
5 18 0.0690385177731514
5 19 0.30033478140830994
5 20 0.2951188087463379
5 21 0.29986900091171265
5 22 0.29866737127304077
5 24 0.29389041662216187
5 25 0.27977386116981506
5 27 0.29419606924057007
5 28 0.2971142530441284
5 29 0.29746413230895996
5 30 0.29649972915649414
5 31 0.29945313930511475
5 32 0.08188503235578537
5 34 0.30127283930778503
5 35 0.2906258702278137
5 36 0.29746413230895996
5 37 0.30127283930778503
5 39 0.28751280903816223
5 41 0.06321395188570023
5 42 0.2932819426059723
5 43 0.20384353399276733
5 44 0.30049052834510803
5 45 0.2903616428375244
5 46 0.28187182545661926
5 47 0.30370935797691345
5 48 0.2859923541545868
5 49 0.08054494112730026
5 50 0.30095916986465454
5 51 0.2958890199661255
5 52 0.2924933135509491
5 53 0.08579091727733612
5 54 0.2828621566295624
5 55 0.2982584238052368
5 57 0.27097731828689575
5 58 0.20824511349201202
5 59 0.2982584238052368
5 60 0.28773248195648193
5 61 0.30095916986465454
5 62 0.29726845026016235
5 64 0.3048169016838074
5 65 0.0838627889752388
5 66 0.2971142530441284
5 67 0.2779863476753235
5 68 0.3035520911216736
5 69 0.3014300465583801
5 70 0.3008832633495331
5 71 0.2983548045158386
5 73 0.30529528856277466
5 74 0.2920325696468353
5 75 0.2844957709312439
5 76 0.2872835099697113
5 77 0.23039525747299194
5 78 0.30033478140830994
5 79 0.10482847690582275
5 80 0.06470154225826263
5 82 0.06052275747060776
5 83 0.3085259795188904
5 84 0.2784496545791626
5 85 0.30756235122680664
5 86 0.2968065142631531
5 87 0.3061336874961853
5 88 0.08053147047758102
5 89 0.07032107561826706
5 90 0.18622460961341858
5 91 0.27754050493240356
5 92 0.10482847690582275
5 93 0.07553696632385254
5 94 0.1700172871351242
5 95 0.24298523366451263
5 96 0.05170108750462532
5 97 0.06052275747060776
5 98 0.28524112701416016
5 99 0.28773248195648193
5 100 0.30756235122680664
5 101 0.2960413694381714
5 102 0.29558342695236206
5 103 0.21858249604701996
5 104 0.29313039779663086
5 105 0.05084928125143051
5 106 0.29649972915649414
5 107 0.30434074997901917
5 108 0.28037819266319275
5 110 0.30017930269241333
5 111 0.2675045132637024
5 112 0.2862439453601837
5 113 0.2621622085571289
5 114 0.08069700002670288
5 115 0.30609866976737976
5 116 0.16431184113025665
5 117 0.06470154225826263
5 118 0.1144108846783638
5 120 0.3014300465583801
5 121 0.29788777232170105
5 122 0.27636197209358215
5 123 0.29389041662216187
5 124 0.2740492820739746
5 125 0.0947330892086029
5 127 0.3088492155075073
5 129 0.21928349137306213
5 130 0.28674957156181335
5 131 0.2626323997974396
5 132 0.2960413694381714
5 133 0.29237625002861023
5 135 0.30370935797691345
5 136 0.20074708759784698
5 137 0.2900609076023102
5 138 0.3066076636314392
5 139 0.2969602644443512
5 140 0.2847931981086731
5 141 0.2887860834598541
5 142 0.30560562014579773
5 143 0.1081223264336586
5 144 0.3061392903327942
5 145 0.28609636425971985
5 146 0.2935769259929657
5 147 0.2937379479408264
5 148 0.30788254737854004
5 149 0.29389041662216187
5 151 0.27300944924354553
5 152 0.29343369603157043
5 153 0.24653585255146027
5 154 0.30301567912101746
5 155 0.2853909134864807
5 156 0.30434074997901917
5 157 0.29665300250053406
5 158 0.07412493228912354
5 159 0.290512353181839
5 160 0.2751983404159546
5 161 0.270572304725647
5 162 0.10482847690582275
5 163 0.28390371799468994
5 164 0.2960502505302429
5 165 0.2897610664367676
5 166 0.2989809513092041
5 167 0.2958890199661255
5 168 0.2850915789604187
5 169 0.2833358645439148
5 170 0.11629674583673477
5 171 0.292341411113739
5 172 0.2940431237220764
5 173 0.2968065142631531
5 175 0.27396780252456665
5 176 0.30276957154273987
5 177 0.2737642824649811
5 178 0.2679814398288727
5 179 0.21229426562786102
5 180 0.28614333271980286
5 181 0.1513068825006485
5 182 0.2818453907966614
5 183 0.2929791212081909
5 184 0.28924447298049927
5 185 0.2805177569389343
5 186 0.30308184027671814
5 187 0.30308184027671814
5 188 0.2971142530441284
5 189 0.2814027965068817
5 190 0.2869853377342224
5 191 0.30111590027809143
5 192 0.30497613549232483
5 193 0.30002403259277344
5 194 0.29925137758255005
5 195 0.29788777232170105
5 196 0.2971142530441284
5 197 0.29537755250930786
5 199 0.30024513602256775
5 200 0.09265616536140442
5 201 0.1408752202987671
5 202 0.29665300250053406
5 203 0.20527000725269318
5 204 0.18710066378116608
5 205 0.27821847796440125
5 206 0.187934011220932
5 207 0.29389041662216187
5 208 0.3054552674293518
5 211 0.07655590027570724
5 212 0.2981989085674286
5 213 0.11253233999013901
5 214 0.13018028438091278
5 215 0.05413319543004036
5 216 0.2963466942310333
5 217 0.29742294549942017
5 218 0.30008623003959656
5 219 0.3066076636314392
5 220 0.29940545558929443
5 221 0.28773248195648193
5 222 0.27419212460517883
5 223 0.30127283930778503
5 224 0.23877516388893127
5 225 0.2837562561035156
5 226 0.2840900123119354
5 227 0.30349627137184143
5 228 0.07862135767936707
5 229 0.27437666058540344
5 230 0.12092631310224533
5 231 0.3054552674293518
5 232 0.2981989085674286
5 233 0.22879952192306519
5 235 0.30676618218421936
5 236 0.28303587436676025
5 237 0.2932819426059723
5 238 0.29066330194473267
5 239 0.3046579360961914
5 240 0.14335575699806213
5 241 0.2924933135509491
5 242 0.16102272272109985
5 243 0.3014300465583801
5 244 0.2536172866821289
5 245 0.31064537167549133
5 247 0.30386683344841003
5 248 0.2530154585838318
5 249 0.15300773084163666
5 250 0.28199338912963867
5 251 0.12642790377140045
5 252 0.29620635509490967
5 253 0.305135577917099
5 254 0.12364893406629562
5 255 0.2612578868865967
6 7 0.6892154812812805
6 8 0.684581458568573
6 9 0.6957961320877075
6 10 0.6987730264663696
6 11 0.6917266845703125
6 12 0.6951140761375427
6 13 0.6922056674957275
6 14 0.67853182554245
6 15 0.6794684529304504
6 16 0.68548983335495
6 17 0.6764495968818665
6 18 0.1937829852104187
6 19 0.683438241481781
6 20 0.6796829700469971
6 21 0.6838333606719971
6 22 0.6829702854156494
6 23 0.08130349963903427
6 24 0.689982533454895
6 25 0.6688980460166931
6 26 0.1487654149532318
6 27 0.6892398595809937
6 28 0.689624547958374
6 29 0.6836079955101013
6 30 0.6940181255340576
6 31 0.6730114221572876
6 32 0.15912111103534698
6 33 0.08308129012584686
6 34 0.6724168658256531
6 35 0.6791785359382629
6 36 0.6762256622314453
6 37 0.6841111183166504
6 38 0.0960276648402214
6 39 0.6710339784622192
6 40 0.139102965593338
6 41 0.10919021815061569
6 42 0.6841868162155151
6 43 0.3147573471069336
6 44 0.6867085695266724
6 45 0.6823346614837646
6 46 0.6813359260559082
6 47 0.6863526701927185
6 48 0.6836579442024231
6 49 0.168939009308815
6 50 0.6731770634651184
6 51 0.6925886273384094
6 52 0.684406578540802
6 53 0.3272477984428406
6 54 0.6534907221794128
6 55 0.6913550496101379
6 56 0.1680484116077423
6 57 0.6754317879676819
6 58 0.4217960834503174
6 59 0.6765508651733398
6 60 0.6841111183166504
6 61 0.6863193511962891
6 62 0.6885238289833069
6 63 0.14171084761619568
6 64 0.69031822681427
6 65 0.0814821720123291
6 66 0.688166618347168
6 67 0.6757936477661133
6 68 0.6889102458953857
6 69 0.6844680309295654
6 70 0.662937343120575
6 71 0.6939681172370911
6 72 0.06073321774601936
6 73 0.6826126575469971
6 74 0.6891940236091614
6 75 0.672767698764801
6 76 0.6801245808601379
6 77 0.3979644775390625
6 78 0.67906653881073
6 79 0.06790180504322052
6 80 0.11874473839998245
6 83 0.6793273687362671
6 84 0.6818621754646301
6 85 0.6859625577926636
6 86 0.6772585511207581
6 87 0.6813234090805054
6 88 0.22604233026504517
6 90 0.27997028827667236
6 91 0.6761894226074219
6 92 0.06790180504322052
6 93 0.26820045709609985
6 94 0.22025465965270996
6 95 0.3447628617286682
6 96 0.1413978636264801
6 97 0.052270837128162384
6 98 0.6774630546569824
6 99 0.6738786697387695
6 100 0.6888815760612488
6 101 0.6856815814971924
6 102 0.6719502806663513
6 103 0.13214604556560516
6 104 0.689653217792511
6 105 0.13174885511398315
6 106 0.6983829736709595
6 107 0.6848590970039368
6 108 0.68268883228302
6 109 0.07840625196695328
6 110 0.6903667449951172
6 111 0.6642165184020996
6 112 0.6863887906074524
6 113 0.6154742240905762
6 114 0.25264236330986023
6 115 0.68318772315979
6 116 0.23866495490074158
6 117 0.15366967022418976
6 118 0.23605003952980042
6 120 0.6859305500984192
6 121 0.6797257661819458
6 122 0.6703713536262512
6 123 0.6841475367546082
6 124 0.6808326244354248
6 125 0.20454198122024536
6 126 0.1038290411233902
6 127 0.6873670816421509
6 128 0.10744168609380722
6 129 0.4086739420890808
6 130 0.6854680180549622
6 131 0.6478468179702759
6 132 0.6885870099067688
6 133 0.686427652835846
6 134 0.11874473839998245
6 135 0.6892671585083008
6 136 0.444748193025589
6 137 0.6932796835899353
6 138 0.6911081671714783
6 139 0.687809944152832
6 140 0.6690788865089417
6 141 0.65090411901474
6 142 0.6761561036109924
6 143 0.2521273195743561
6 144 0.6760202050209045
6 145 0.6903952956199646
6 146 0.6795715093612671
6 147 0.6867085695266724
6 148 0.6852156519889832
6 149 0.689982533454895
6 150 0.06401844322681427
6 151 0.6741068363189697
6 152 0.6859973073005676
6 153 0.3151247799396515
6 154 0.6821876764297485
6 155 0.6807530522346497
6 156 0.6702565550804138
6 157 0.7001997232437134
6 158 0.11523319780826569
6 159 0.6841475367546082
6 160 0.6763516664505005
6 161 0.6564602255821228
6 162 0.12071432918310165
6 163 0.6874220371246338
6 164 0.6803587079048157
6 165 0.6881982088088989
6 166 0.6792859435081482
6 167 0.6925886273384094
6 168 0.6859015226364136
6 169 0.6648302674293518
6 170 0.2971361577510834
6 171 0.6757617592811584
6 172 0.6845030188560486
6 173 0.6859973073005676
6 174 0.18115466833114624
6 175 0.6654766201972961
6 176 0.6885870099067688
6 177 0.6815840601921082
6 178 0.6738235950469971
6 179 0.6009779572486877
6 180 0.6840188503265381
6 181 0.22650694847106934
6 182 0.6906603574752808
6 183 0.6849345564842224
6 184 0.6656641364097595
6 185 0.6691992878913879
6 186 0.6936599016189575
6 187 0.6820261478424072
6 188 0.6852506399154663
6 189 0.6807914972305298
6 190 0.6983724236488342
6 191 0.6866766810417175
6 192 0.6716558337211609
6 193 0.6841868162155151
6 194 0.6925886273384094
6 195 0.6855728626251221
6 196 0.6852506399154663
6 197 0.6647725701332092
6 199 0.6777380704879761
6 200 0.1440414935350418
6 201 0.2599264979362488
6 202 0.6885539293289185
6 203 0.2978349030017853
6 204 0.39004626870155334
6 205 0.624424934387207
6 206 0.41101163625717163
6 207 0.6841475367546082
6 208 0.688832700252533
6 210 0.2061673104763031
6 211 0.10744168609380722
6 212 0.6789723634719849
6 213 0.18996074795722961
6 214 0.305671751499176
6 215 0.08181679993867874
6 216 0.6951140761375427
6 217 0.6699081063270569
6 218 0.6670714616775513
6 219 0.6809234023094177
6 220 0.6914923787117004
6 221 0.6928817629814148
6 222 0.6694933772087097
6 223 0.6870346665382385
6 224 0.6661219596862793
6 225 0.6841475367546082
6 226 0.6577315330505371
6 227 0.6744343042373657
6 228 0.1697545200586319
6 229 0.6704068183898926
6 230 0.22494494915008545
6 231 0.678573489189148
6 232 0.6760457158088684
6 233 0.5622734427452087
6 234 0.19238846004009247
6 235 0.6812753677368164
6 236 0.686214804649353
6 237 0.6900097131729126
6 238 0.6845030188560486
6 239 0.6870346665382385
6 240 0.4307558536529541
6 241 0.681469202041626
6 242 0.16102638840675354
6 243 0.6844680309295654
6 244 0.6790180802345276
6 245 0.6825197339057922
6 246 0.11134424060583115
6 247 0.689624547958374
6 248 0.6688432097434998
6 250 0.6851544976234436
6 251 0.170609712600708
6 252 0.6748365163803101
6 253 0.6895758509635925
6 254 0.12681329250335693
6 255 0.3921785056591034
7 8 0.9642149806022644
7 9 0.9550215005874634
7 10 0.9450048208236694
7 11 0.9509713053703308
7 12 0.964712381362915
7 13 0.964712381362915
7 14 0.9554338455200195
7 15 0.9631326198577881
7 16 0.9506433606147766
7 17 0.9577476978302002
7 18 0.2767575979232788
7 19 0.9656690955162048
7 20 0.95711350440979
7 21 0.9641715884208679
7 22 0.955521821975708
7 23 0.17998027801513672
7 24 0.9625046849250793
7 25 0.9489964842796326
7 26 0.15344642102718353
7 27 0.9582920074462891
7 28 0.9599231481552124
7 29 0.9457417130470276
7 30 0.9620936512947083
7 31 0.9517398476600647
7 32 0.23567095398902893
7 33 0.14090318977832794
7 34 0.9572030305862427
7 35 0.9489047527313232
7 36 0.9467960596084595
7 37 0.9613783955574036
7 38 0.12952592968940735
7 39 0.9467494487762451
7 40 0.24419182538986206
7 41 0.09746478497982025
7 42 0.9615514278411865
7 43 0.5352468490600586
7 44 0.9599231481552124
7 45 0.9599231481552124
7 46 0.9444528222084045
7 47 0.9594255685806274
7 48 0.9553912281990051
7 49 0.27320945262908936
7 50 0.9582920074462891
7 51 0.9642593860626221
7 52 0.9543850421905518
7 53 0.45414239168167114
7 54 0.9136789441108704
7 55 0.9493242502212524
7 56 0.17143136262893677
7 57 0.944543719291687
7 58 0.6436834931373596
7 59 0.9440385103225708
7 60 0.9582468867301941
7 61 0.9614202976226807
7 62 0.9614630341529846
7 63 0.13010726869106293
7 64 0.956658124923706
7 65 0.14223182201385498
7 66 0.9599231481552124
7 67 0.9450498223304749
7 68 0.9610089659690857
7 69 0.9587468504905701
7 70 0.9467960596084595
7 71 0.9566128253936768
7 72 0.05782545357942581
7 73 0.9550215005874634
7 74 0.9549759030342102
7 75 0.956658124923706
7 76 0.9609203934669495
7 77 0.5804959535598755
7 78 0.961506724357605
7 79 0.06465081870555878
7 80 0.19951675832271576
7 81 0.07228181511163712
7 82 0.05598925054073334
7 83 0.9587038159370422
7 84 0.9560230374336243
7 85 0.9630048274993896
7 86 0.9610089659690857
7 87 0.9637182950973511
7 88 0.2400529831647873
7 89 0.13733544945716858
7 90 0.46578142046928406
7 91 0.9456472396850586
7 92 0.06465081870555878
7 93 0.3882156312465668
7 94 0.20017710328102112
7 95 0.4688357710838318
7 96 0.19662779569625854
7 97 0.11197850108146667
7 98 0.9549759030342102
7 99 0.9582468867301941
7 100 0.9588359594345093
7 101 0.9637182950973511
7 102 0.9533820152282715
7 103 0.15502721071243286
7 104 0.9620936512947083
7 105 0.1176009550690651
7 106 0.9641715884208679
7 107 0.9593347311019897
7 108 0.9583380222320557
7 109 0.11197850108146667
7 110 0.9610089659690857
7 111 0.9269154071807861
7 112 0.9626355171203613
7 113 0.8744555115699768
7 114 0.317272424697876
7 115 0.9449610114097595
7 116 0.4352840185165405
7 117 0.19951675832271576
7 118 0.25872209668159485
7 120 0.9577024579048157
7 121 0.9603345394134521
7 122 0.9532048106193542
7 123 0.9583380222320557
7 124 0.9629641771316528
7 125 0.24204516410827637
7 126 0.13480627536773682
7 127 0.9534287452697754
7 128 0.1652499884366989
7 129 0.5658667683601379
7 130 0.9494994878768921
7 131 0.9074934720993042
7 132 0.9668304324150085
7 133 0.9658363461494446
7 134 0.20949259400367737
7 135 0.9604661464691162
7 136 0.7361112236976624
7 137 0.963089108467102
7 138 0.9641715884208679
7 139 0.9604661464691162
7 140 0.9587038159370422
7 141 0.9296103119850159
7 142 0.9487332105636597
7 143 0.3067382574081421
7 144 0.9322252869606018
7 145 0.9631770849227905
7 146 0.9473941326141357
7 147 0.9609642624855042
7 148 0.9608775973320007
7 149 0.9593797326087952
7 151 0.9238928556442261
7 152 0.9610089659690857
7 153 0.33754199743270874
7 154 0.9522415995597839
7 155 0.9554774165153503
7 156 0.9593347311019897
7 157 0.9625909328460693
7 158 0.2102891504764557
7 159 0.9604213833808899
7 160 0.9554774165153503
7 161 0.9100998044013977
7 162 0.19395247101783752
7 163 0.9598782062530518
7 164 0.9548877477645874
7 165 0.9631326198577881
7 166 0.9523343443870544
7 167 0.9663330316543579
7 168 0.9576149582862854
7 169 0.9494994878768921
7 170 0.33172187209129333
7 171 0.943900465965271
7 172 0.9588359594345093
7 173 0.9610089659690857
7 174 0.2430419772863388
7 175 0.9483105540275574
7 176 0.9657930731773376
7 177 0.9588359594345093
7 178 0.9560675024986267
7 179 0.826786994934082
7 180 0.9527442455291748
7 181 0.317272424697876
7 182 0.9539288282394409
7 183 0.9626355171203613
7 184 0.9548877477645874
7 185 0.9525745511054993
7 186 0.9636739492416382
7 187 0.9626355171203613
7 188 0.9609642624855042
7 189 0.954521894454956
7 190 0.9609642624855042
7 191 0.9587909579277039
7 192 0.9571578502655029
7 193 0.9615514278411865
7 194 0.9663330316543579
7 195 0.956159234046936
7 196 0.9630465507507324
7 197 0.9429876804351807
7 198 0.12122028321027756
7 199 0.9542570114135742
7 200 0.17143136262893677
7 201 0.25669652223587036
7 202 0.9605118632316589
7 203 0.39751166105270386
7 204 0.4814569354057312
7 205 0.886148989200592
7 206 0.5365254282951355
7 207 0.9593797326087952
7 208 0.9544752836227417
7 209 0.05598925054073334
7 210 0.2268020361661911
7 211 0.1711517721414566
7 212 0.9571578502655029
7 213 0.3123090863227844
7 214 0.3888854384422302
7 215 0.10850300639867783
7 216 0.9636739492416382
7 217 0.9609203934669495
7 218 0.9484942555427551
7 219 0.9631326198577881
7 220 0.9637182950973511
7 221 0.956159234046936
7 222 0.9572030305862427
7 223 0.9592906832695007
7 224 0.8543398380279541
7 225 0.9583380222320557
7 226 0.9456940293312073
7 227 0.9537519812583923
7 228 0.23839989304542542
7 229 0.9306890964508057
7 230 0.3442099690437317
7 231 0.9534287452697754
7 232 0.9582027792930603
7 233 0.7748079895973206
7 234 0.2545625865459442
7 235 0.9605118632316589
7 236 0.9505972862243652
7 237 0.9625909328460693
7 238 0.9609203934669495
7 239 0.9572030305862427
7 240 0.5267865657806396
7 241 0.9575313925743103
7 242 0.3867764472961426
7 243 0.9597912430763245
7 244 0.9572492837905884
7 245 0.9516047835350037
7 246 0.14456363022327423
7 247 0.9620053768157959
7 248 0.9478504061698914
7 249 0.14828690886497498
7 250 0.9544297456741333
7 251 0.19980280101299286
7 252 0.9532914757728577
7 253 0.9597492814064026
7 254 0.20970934629440308
7 255 0.5313303470611572
8 9 0.9631461501121521
8 10 0.9491740465164185
8 11 0.9540125727653503
8 12 0.9685406684875488
8 13 0.9685406684875488
8 14 0.9583853483200073
8 15 0.9680087566375732
8 16 0.9619889259338379
8 17 0.9689249396324158
8 18 0.28899407386779785
8 19 0.9674450755119324
8 20 0.9631461501121521
8 21 0.9690408110618591
8 22 0.9615716934204102
8 23 0.17300336062908173
8 24 0.9705184698104858
8 25 0.9551560282707214
8 26 0.15827679634094238
8 27 0.967384934425354
8 28 0.9658784866333008
8 29 0.9540444016456604
8 30 0.9690408110618591
8 31 0.9620169401168823
8 32 0.24662673473358154
8 33 0.1399558037519455
8 34 0.9642459154129028
8 35 0.952997088432312
8 36 0.9540444016456604
8 37 0.9632090330123901
8 38 0.1362229883670807
8 39 0.9540125727653503
8 40 0.25077199935913086
8 41 0.10649040341377258
8 42 0.9695417284965515
8 43 0.5278640389442444
8 44 0.9658784866333008
8 45 0.9679467678070068
8 46 0.9507369995117188
8 47 0.9674450755119324
8 48 0.9593957662582397
8 49 0.2784211337566376
8 50 0.9653134942054749
8 51 0.9721941351890564
8 52 0.9594271183013916
8 53 0.44670939445495605
8 54 0.9270293116569519
8 55 0.9523917436599731
8 56 0.17027872800827026
8 57 0.9497496485710144
8 58 0.6515048742294312
8 59 0.9523917436599731
8 60 0.9642459154129028
8 61 0.9642777442932129
8 62 0.9653451442718506
8 63 0.14359162747859955
8 64 0.9637115597724915
8 65 0.1476971060037613
8 66 0.9669126868247986
8 67 0.9523607492446899
8 68 0.970043420791626
8 69 0.9637115597724915
8 70 0.952997088432312
8 71 0.9636806845664978
8 72 0.07179581373929977
8 73 0.9621071219444275
8 74 0.961035966873169
8 75 0.965786337852478
8 76 0.9648115634918213
8 77 0.5765929818153381
8 78 0.9664115309715271
8 79 0.06421612948179245
8 80 0.20808404684066772
8 81 0.07179581373929977
8 82 0.055612798780202866
8 83 0.9647191166877747
8 84 0.9631161689758301
8 85 0.9668819308280945
8 86 0.9690102934837341
8 87 0.9706338047981262
8 88 0.23021690547466278
8 89 0.13641203939914703
8 90 0.47955015301704407
8 91 0.9539818167686462
8 92 0.06421612948179245
8 93 0.38303470611572266
8 94 0.21303340792655945
8 95 0.47206270694732666
8 96 0.195305734872818
8 97 0.11122559756040573
8 98 0.9599958658218384
8 99 0.9663195013999939
8 100 0.9648115634918213
8 101 0.9706338047981262
8 102 0.9605000019073486
8 103 0.15398487448692322
8 104 0.9690408110618591
8 105 0.13238495588302612
8 106 0.9680087566375732
8 107 0.9653134942054749
8 108 0.9663798213005066
8 109 0.07415040582418442
8 110 0.9679772853851318
8 111 0.927151620388031
8 112 0.969572126865387
8 113 0.8889332413673401
8 114 0.3213183879852295
8 115 0.9491417407989502
8 116 0.4323573410511017
8 117 0.18826651573181152
8 118 0.2569825351238251
8 120 0.9647489786148071
8 121 0.9642459154129028
8 122 0.9562010765075684
8 123 0.9663798213005066
8 124 0.9668523073196411
8 125 0.23627260327339172
8 126 0.15398487448692322
8 127 0.9615716934204102
8 128 0.16413891315460205
8 129 0.5762020349502563
8 130 0.9556623697280884
8 131 0.9057995080947876
8 132 0.969603419303894
8 133 0.9716944098472595
8 134 0.20312964916229248
8 135 0.9684786796569824
8 136 0.7431920170783997
8 137 0.9669442176818848
8 138 0.9680087566375732
8 139 0.9674450755119324
8 140 0.962642252445221
8 141 0.9298321604728699
8 142 0.9486647248268127
8 143 0.2914291024208069
8 144 0.9366128444671631
8 145 0.9711340069770813
8 146 0.9556623697280884
8 147 0.9669126868247986
8 148 0.9637435078620911
8 149 0.9653451442718506
8 151 0.9305455684661865
8 152 0.9690102934837341
8 153 0.32923153042793274
8 154 0.9614814519882202
8 155 0.9594593644142151
8 156 0.9684207439422607
8 157 0.9685091376304626
8 158 0.2179567813873291
8 159 0.9663798213005066
8 160 0.9605000019073486
8 161 0.9148850440979004
8 162 0.1872970312833786
8 163 0.9658467173576355
8 164 0.9609746932983398
8 165 0.9690408110618591
8 166 0.964662492275238
8 167 0.9721941351890564
8 168 0.9605321288108826
8 169 0.9556623697280884
8 170 0.33542826771736145
8 171 0.9533554315567017
8 172 0.9679172039031982
8 173 0.9679772853851318
8 174 0.2569825351238251
8 175 0.9545214772224426
8 176 0.9716641902923584
8 177 0.9679172039031982
8 178 0.9621071219444275
8 179 0.8368818759918213
8 180 0.9588587880134583
8 181 0.32440799474716187
8 182 0.961035966873169
8 183 0.9706035852432251
8 184 0.9578478336334229
8 185 0.9566478729248047
8 186 0.969572126865387
8 187 0.9706035852432251
8 188 0.9700150489807129
8 189 0.9636806845664978
8 190 0.9679467678070068
8 191 0.9699612259864807
8 192 0.9642149806022644
8 193 0.9685091376304626
8 194 0.9721941351890564
8 195 0.9652827382087708
8 196 0.9679467678070068
8 197 0.9377117156982422
8 198 0.1284322589635849
8 199 0.9562010765075684
8 200 0.1759546846151352
8 201 0.2471253126859665
8 202 0.9705742001533508
8 203 0.4023836553096771
8 204 0.49995705485343933
8 205 0.8857971429824829
8 206 0.5254906415939331
8 207 0.9663798213005066
8 208 0.9657297730445862
8 209 0.055612798780202866
8 210 0.23318155109882355
8 211 0.175863116979599
8 212 0.9621391892433167
8 213 0.3133426308631897
8 214 0.4136835038661957
8 215 0.10777346044778824
8 216 0.969572126865387
8 217 0.9668819308280945
8 218 0.9556950330734253
8 219 0.9711048007011414
8 220 0.9737250208854675
8 221 0.9663195013999939
8 222 0.9642459154129028
8 223 0.9642459154129028
8 224 0.8578826189041138
8 225 0.9684491753578186
8 226 0.956109344959259
8 227 0.9577839970588684
8 228 0.2327834665775299
8 229 0.9382606744766235
8 230 0.3532921373844147
8 231 0.9615716934204102
8 232 0.9642149806022644
8 233 0.7848885655403137
8 234 0.24883750081062317
8 235 0.972639262676239
8 236 0.9588284492492676
8 237 0.9685091376304626
8 238 0.9668819308280945
8 239 0.9632090330123901
8 240 0.5360513925552368
8 241 0.9594271183013916
8 242 0.3841758668422699
8 243 0.965786337852478
8 244 0.9642777442932129
8 245 0.9556623697280884
8 246 0.13641203939914703
8 247 0.9658784866333008
8 248 0.9540444016456604
8 249 0.15398487448692322
8 250 0.9594593644142151
8 251 0.2032998651266098
8 252 0.96043860912323
8 253 0.962642252445221
8 254 0.19883118569850922
8 255 0.5220420956611633
9 10 0.9428123235702515
9 11 0.9435140490531921
9 12 0.9605243802070618
9 13 0.9626034498214722
9 14 0.9501345157623291
9 15 0.9599803686141968
9 16 0.9495352506637573
9 17 0.9566612839698792
9 18 0.2734953761100769
9 19 0.9614713191986084
9 20 0.9549738168716431
9 21 0.9599803686141968
9 22 0.9544265866279602
9 23 0.17435672879219055
9 24 0.9593409299850464
9 25 0.9468300342559814
9 26 0.1654229313135147
9 27 0.957207202911377
9 28 0.963012158870697
9 29 0.9488424062728882
9 30 0.9599803686141968
9 31 0.9506349563598633
9 32 0.2359175980091095
9 33 0.14105066657066345
9 34 0.9561149477958679
9 35 0.946731448173523
9 36 0.9530641436576843
9 37 0.9550700187683105
9 38 0.1296614706516266
9 39 0.9445706009864807
9 40 0.24030421674251556
9 41 0.10732346028089523
9 42 0.9604765772819519
9 43 0.5300866365432739
9 44 0.9598855376243591
9 45 0.9640544056892395
9 46 0.9454412460327148
9 47 0.9583463072776794
9 48 0.952187180519104
9 49 0.269943505525589
9 50 0.9561633467674255
9 51 0.9642305374145508
9 52 0.9511843323707581
9 53 0.46344518661499023
9 54 0.9190009832382202
9 55 0.9418516755104065
9 56 0.1716107875108719
9 57 0.944473385810852
9 58 0.6520098447799683
9 59 0.9429099559783936
9 60 0.9582048654556274
9 61 0.9561633467674255
9 62 0.957255482673645
9 63 0.14471492171287537
9 64 0.9566138386726379
9 65 0.15532435476779938
9 66 0.9609277248382568
9 67 0.9439200162887573
9 68 0.9588913321495056
9 69 0.9555683732032776
9 70 0.9446206092834473
9 71 0.9597071409225464
9 72 0.07235746085643768
9 73 0.9539267420768738
9 74 0.9538789391517639
9 75 0.9566138386726379
9 76 0.9577528834342957
9 77 0.5845727920532227
9 78 0.959388017654419
9 79 0.06471847742795944
9 80 0.2047186940908432
9 81 0.07235746085643768
9 82 0.056047845631837845
9 83 0.9534277319908142
9 84 0.9559754133224487
9 85 0.9598394632339478
9 86 0.9609736204147339
9 87 0.9626500606536865
9 88 0.24030421674251556
9 89 0.13747917115688324
9 90 0.4534943997859955
9 91 0.9445214867591858
9 92 0.06471847742795944
9 93 0.3678953945636749
9 94 0.20992882549762726
9 95 0.46289727091789246
9 96 0.1915137618780136
9 97 0.11209569126367569
9 98 0.9528307318687439
9 99 0.9571599364280701
9 100 0.9598394632339478
9 101 0.9636884927749634
9 102 0.9512335062026978
9 103 0.1484420895576477
9 104 0.9599803686141968
9 105 0.13342057168483734
9 106 0.9599803686141968
9 107 0.957207202911377
9 108 0.957255482673645
9 109 0.1027543917298317
9 110 0.9630559086799622
9 111 0.9148473143577576
9 112 0.9615639448165894
9 113 0.8822095394134521
9 114 0.3113769292831421
9 115 0.9406415820121765
9 116 0.41960108280181885
9 117 0.2047186940908432
9 118 0.2668411433696747
9 120 0.9566138386726379
9 121 0.9602946639060974
9 122 0.948936402797699
9 123 0.9614264965057373
9 124 0.9566612839698792
9 125 0.23394335806369781
9 126 0.15518946945667267
9 127 0.9523311853408813
9 128 0.1654229313135147
9 129 0.5718029141426086
9 130 0.9504931569099426
9 131 0.9040008783340454
9 132 0.9647269248962402
9 133 0.9647723436355591
9 134 0.2047186940908432
9 135 0.9635547399520874
9 136 0.7409229874610901
9 137 0.9588913321495056
9 138 0.9620605111122131
9 139 0.9614713191986084
9 140 0.9544742703437805
9 141 0.9218862056732178
9 142 0.9454862475395203
9 143 0.2970464825630188
9 144 0.9342747926712036
9 145 0.9631461501121521
9 146 0.9483855962753296
9 147 0.9588432908058167
9 148 0.9566612839698792
9 149 0.9635120034217834
9 151 0.9270206093788147
9 152 0.9640970826148987
9 153 0.33485114574432373
9 154 0.9511362314224243
9 155 0.9575261473655701
9 156 0.959294855594635
9 157 0.9615171551704407
9 158 0.21050924062728882
9 159 0.957255482673645
9 160 0.9554286003112793
9 161 0.913250207901001
9 162 0.19415543973445892
9 163 0.9587961435317993
9 164 0.95168536901474
9 165 0.9599803686141968
9 166 0.9512335062026978
9 167 0.962154746055603
9 168 0.9544265866279602
9 169 0.9494393467903137
9 170 0.33805224299430847
9 171 0.9448882937431335
9 172 0.9598394632339478
9 173 0.9630559086799622
9 174 0.25506874918937683
9 175 0.9482458233833313
9 176 0.9616116285324097
9 177 0.9567095637321472
9 178 0.9560209512710571
9 179 0.8264387249946594
9 180 0.9495352506637573
9 181 0.33005955815315247
9 182 0.9549272060394287
9 183 0.9615639448165894
9 184 0.9506349563598633
9 185 0.948291540145874
9 186 0.9646825194358826
9 187 0.9626034498214722
9 188 0.9598855376243591
9 189 0.9544742703437805
9 190 0.9619699716567993
9 191 0.9587500095367432
9 192 0.9539754390716553
9 193 0.9615171551704407
9 194 0.9642305374145508
9 195 0.9571599364280701
9 196 0.9588432908058167
9 197 0.9311021566390991
9 198 0.12134714424610138
9 199 0.948936402797699
9 200 0.18305151164531708
9 201 0.2648717761039734
9 202 0.9594359993934631
9 203 0.38778942823410034
9 204 0.4919186532497406
9 205 0.8825562596321106
9 206 0.5333442091941833
9 207 0.9603837728500366
9 208 0.9533788561820984
9 209 0.056047845631837845
9 210 0.2429719865322113
9 211 0.17133089900016785
9 212 0.9539754390716553
9 213 0.32210972905158997
9 214 0.4043618440628052
9 215 0.10861656069755554
9 216 0.9626034498214722
9 217 0.9598394632339478
9 218 0.9515921473503113
9 219 0.9620605111122131
9 220 0.9626500606536865
9 221 0.9582048654556274
9 222 0.9550700187683105
9 223 0.9561149477958679
9 224 0.8564040064811707
9 225 0.9593409299850464
9 226 0.9487968683242798
9 227 0.9505395293235779
9 228 0.2386493980884552
9 229 0.9327352643013
9 230 0.35318446159362793
9 231 0.9544265866279602
9 232 0.9592055678367615
9 233 0.7871761918067932
9 234 0.24269428849220276
9 235 0.9594359993934631
9 236 0.9515921473503113
9 237 0.9625577926635742
9 238 0.9577528834342957
9 239 0.9602946639060974
9 240 0.5384009480476379
9 241 0.9564337730407715
9 242 0.379332959651947
9 243 0.9587048292160034
9 244 0.9561633467674255
9 245 0.9462780952453613
9 246 0.13747917115688324
9 247 0.9609277248382568
9 248 0.946731448173523
9 249 0.13494735956192017
9 250 0.9554286003112793
9 251 0.20489025115966797
9 252 0.9500852227210999
9 253 0.9555208086967468
9 254 0.20515771210193634
9 255 0.5184452533721924
10 11 0.930985689163208
10 12 0.9496636390686035
10 13 0.9517692923545837
10 14 0.9421001672744751
10 15 0.9469938278198242
10 16 0.9414612054824829
10 17 0.9456427097320557
10 18 0.2626086175441742
10 19 0.9452996850013733
10 20 0.9417518377304077
10 21 0.9491006135940552
10 22 0.9401230216026306
10 23 0.1707034558057785
10 24 0.9452246427536011
10 25 0.939755916595459
10 26 0.17352518439292908
10 27 0.9483221769332886
10 28 0.9468453526496887
10 29 0.9353395104408264
10 30 0.9469938278198242
10 31 0.9425963759422302
10 32 0.2133384495973587
10 33 0.12781953811645508
10 34 0.9419022798538208
10 35 0.9374774098396301
10 36 0.9353395104408264
10 37 0.9482522010803223
10 38 0.12359727174043655
10 39 0.9331258535385132
10 40 0.23079316318035126
10 41 0.08893471211194992
10 42 0.9464294910430908
10 43 0.5137011408805847
10 44 0.9500120878219604
10 45 0.9468453526496887
10 46 0.9349813461303711
10 47 0.9526848793029785
10 48 0.9377711415290833
10 49 0.28419288992881775
10 50 0.9462078213691711
10 51 0.9524018168449402
10 52 0.9399735927581787
10 53 0.4470292031764984
10 54 0.9064515233039856
10 55 0.9324780106544495
10 56 0.17960228025913239
10 57 0.9329771399497986
10 58 0.6293575763702393
10 59 0.9303343296051025
10 60 0.9471938610076904
10 61 0.9483221769332886
10 62 0.9505051970481873
10 63 0.14656832814216614
10 64 0.9445114731788635
10 65 0.14420418441295624
10 66 0.9489565491676331
10 67 0.933476984500885
10 68 0.9500826597213745
10 69 0.9434525966644287
10 70 0.9353395104408264
10 71 0.9444389939308167
10 72 0.058627333492040634
10 73 0.94387286901474
10 74 0.9427394270896912
10 75 0.947688102722168
10 76 0.9457157850265503
10 77 0.5569224953651428
10 78 0.9452996850013733
10 79 0.06554735451936722
10 80 0.19216935336589813
10 81 0.07328416407108307
10 82 0.05676567181944847
10 83 0.9444389939308167
10 84 0.9406161308288574
10 85 0.9478290677070618
10 86 0.9511371850967407
10 87 0.9507886171340942
10 88 0.2517743408679962
10 89 0.11725466698408127
10 90 0.42695721983909607
10 91 0.9309085011482239
10 93 0.3857271373271942
10 94 0.19328859448432922
10 95 0.45797333121299744
10 96 0.17780263721942902
10 97 0.11353134363889694
10 98 0.9406161308288574
10 99 0.9450773000717163
10 100 0.9509990811347961
10 101 0.9497368335723877
10 102 0.9400478601455688
10 103 0.15717704594135284
10 104 0.9533141255378723
10 105 0.13512933254241943
10 106 0.9512073993682861
10 107 0.9483221769332886
10 108 0.9462807178497314
10 109 0.10407040268182755
10 110 0.9521916508674622
10 111 0.915559709072113
10 112 0.948610782623291
10 113 0.8611850142478943
10 114 0.3216721713542938
10 115 0.9387102127075195
10 116 0.3946196734905243
10 117 0.18205517530441284
10 118 0.26230987906455994
10 120 0.9466292262077332
10 121 0.9440189003944397
10 122 0.9376225471496582
10 123 0.9473368525505066
10 124 0.943527102470398
10 125 0.22424636781215668
10 126 0.14350947737693787
10 127 0.9454284310340881
10 128 0.15557430684566498
10 129 0.5520642995834351
10 130 0.9359850287437439
10 131 0.886334240436554
10 132 0.9497368335723877
10 133 0.9498109221458435
10 134 0.19216935336589813
10 135 0.9463546872138977
10 136 0.7258533835411072
10 137 0.9500826597213745
10 138 0.9491006135940552
10 139 0.9558498859405518
10 140 0.9412590861320496
10 141 0.9072678685188293
10 142 0.932904064655304
10 143 0.28056877851486206
10 144 0.9266629815101624
10 145 0.9491740465164185
10 146 0.9391868114471436
10 147 0.9468453526496887
10 148 0.9488159418106079
10 149 0.9557858109474182
10 151 0.9170076251029968
10 152 0.9490281939506531
10 153 0.32372424006462097
10 154 0.9409645199775696
10 155 0.9411100745201111
10 156 0.9472649693489075
10 157 0.948537290096283
10 158 0.21784019470214844
10 159 0.9494491219520569
10 160 0.9400478601455688
10 161 0.8948941230773926
10 162 0.17479293048381805
10 163 0.9499424695968628
10 164 0.9447242021560669
10 165 0.9491006135940552
10 166 0.9411100745201111
10 167 0.9502994418144226
10 168 0.9433062672615051
10 169 0.9391868114471436
10 170 0.34844163060188293
10 171 0.9344091415405273
10 172 0.9467724561691284
10 173 0.9500826597213745
10 174 0.2424379289150238
10 175 0.9314823746681213
10 176 0.9507886171340942
10 177 0.9457157850265503
10 178 0.9406912326812744
10 179 0.8124409317970276
10 180 0.9414612054824829
10 181 0.31221121549606323
10 182 0.9512325525283813
10 183 0.950716495513916
10 184 0.9383408427238464
10 185 0.9336983561515808
10 186 0.9517692923545837
10 187 0.9475579261779785
10 188 0.9479009509086609
10 189 0.9412590861320496
10 190 0.9479009509086609
10 191 0.9456427097320557
10 192 0.9428859949111938
10 193 0.9506452083587646
10 194 0.9545043110847473
10 195 0.9461355805397034
10 196 0.9479009509086609
10 197 0.9202120304107666
10 198 0.0901276096701622
10 199 0.9408226013183594
10 200 0.1680150330066681
10 201 0.26025623083114624
10 202 0.948537290096283
10 203 0.39018893241882324
10 204 0.5244408845901489
10 205 0.8732583522796631
10 206 0.5250120759010315
10 207 0.9462807178497314
10 208 0.9422452449798584
10 209 0.05676567181944847
10 210 0.24204963445663452
10 211 0.12565617263317108
10 212 0.946064293384552
10 213 0.28785449266433716
10 214 0.36375346779823303
10 215 0.11846977472305298
10 216 0.9496636390686035
10 217 0.9446591138839722
10 218 0.9349940419197083
10 219 0.9480472207069397
10 220 0.9507886171340942
10 221 0.9471938610076904
10 222 0.9429606199264526
10 223 0.9450773000717163
10 224 0.8543379902839661
10 225 0.9473368525505066
10 226 0.9320557713508606
10 227 0.9392585754394531
10 228 0.2376091480255127
10 229 0.9186208844184875
10 230 0.3315340578556061
10 231 0.9486117362976074
10 232 0.9471237063407898
10 233 0.7803501486778259
10 234 0.25399598479270935
10 235 0.9474833607673645
10 236 0.9413908123970032
10 237 0.9495912194252014
10 238 0.9478290677070618
10 239 0.9503688812255859
10 240 0.5266218781471252
10 241 0.9421001672744751
10 242 0.3576952815055847
10 243 0.9434525966644287
10 244 0.9440934062004089
10 245 0.9359850287437439
10 246 0.131911501288414
10 247 0.9457898139953613
10 248 0.9353395104408264
10 249 0.13667568564414978
10 250 0.944296658039093
10 251 0.1926918625831604
10 252 0.9441577792167664
10 253 0.9454989433288574
10 254 0.18845637142658234
10 255 0.5192509293556213
11 12 0.9545047283172607
11 13 0.9524069428443909
11 14 0.9428157210350037
11 15 0.9539481997489929
11 16 0.9464299082756042
11 17 0.9463227987289429
11 18 0.27596262097358704
11 19 0.9522765874862671
11 20 0.9445706009864807
11 21 0.9560471177101135
11 22 0.9471797347068787
11 23 0.17592962086200714
11 24 0.9511606097221375
11 25 0.9373055100440979
11 26 0.16691523790359497
11 27 0.9479368925094604
11 28 0.9506672024726868
11 29 0.9414276480674744
11 30 0.9518492817878723
11 31 0.9401325583457947
11 32 0.24229666590690613
11 33 0.12734171748161316
11 34 0.9510335326194763
11 35 0.9392976760864258
11 36 0.9392976760864258
11 37 0.9478704333305359
11 38 0.13083118200302124
11 39 0.9381663203239441
11 40 0.22993037104606628
11 41 0.10829164832830429
11 42 0.9523413777351379
11 43 0.5175527930259705
11 44 0.9506672024726868
11 45 0.9496155977249146
11 46 0.9304153323173523
11 47 0.9512255191802979
11 48 0.9406282901763916
11 49 0.27596262097358704
11 50 0.9468836188316345
11 51 0.9530305862426758
11 52 0.9417563676834106
11 53 0.43867775797843933
11 54 0.9074680805206299
11 55 0.9418057799339294
11 56 0.16161498427391052
11 57 0.9369680285453796
11 58 0.6470813155174255
11 59 0.9386024475097656
11 60 0.9457616806030273
11 61 0.9489901065826416
11 62 0.9501084685325623
11 63 0.13871939480304718
11 64 0.9504747986793518
11 65 0.1436651051044464
11 66 0.9496155977249146
11 67 0.9331941604614258
11 68 0.9496825337409973
11 69 0.9462551474571228
11 70 0.937167763710022
11 71 0.9483005404472351
11 72 0.07301021367311478
11 73 0.9487968683242798
11 74 0.9434458017349243
11 75 0.9473100900650024
11 76 0.9484966993331909
11 77 0.5565908551216125
11 78 0.9501744508743286
11 79 0.06530231237411499
11 80 0.20152732729911804
11 81 0.05840816721320152
11 82 0.05655346065759659
11 83 0.9472444653511047
11 84 0.9434458017349243
11 85 0.9516549110412598
11 86 0.9496825337409973
11 87 0.9545691013336182
11 88 0.22993037104606628
11 89 0.14602042734622955
11 90 0.4790683090686798
11 91 0.9381008744239807
11 92 0.06530231237411499
11 93 0.379056841135025
11 94 0.22145092487335205
11 95 0.46707314252853394
11 96 0.19860923290252686
11 97 0.11310692131519318
11 98 0.9476765394210815
11 99 0.9510335326194763
11 100 0.9506021738052368
11 101 0.9524734020233154
11 102 0.9428830146789551
11 103 0.15658946335315704
11 104 0.957096517086029
11 105 0.1346241682767868
11 106 0.9518492817878723
11 107 0.9489901065826416
11 108 0.9511606097221375
11 109 0.11310692131519318
11 110 0.9517835974693298
11 111 0.9088481664657593
11 112 0.9555537104606628
11 113 0.8648661971092224
11 114 0.30790218710899353
11 115 0.9362722635269165
11 116 0.4326915442943573
11 117 0.20152732729911804
11 118 0.2613292634487152
11 120 0.9483649730682373
11 121 0.946816086769104
11 122 0.9383681416511536
11 123 0.9532648921012878
11 124 0.9515918493270874
11 125 0.25291478633880615
11 126 0.1497812122106552
11 127 0.9461225867271423
11 128 0.17883774638175964
11 129 0.5338239669799805
11 130 0.9378023743629456
11 131 0.8964678645133972
11 132 0.9545691013336182
11 133 0.9546342492103577
11 134 0.20152732729911804
11 135 0.9512255191802979
11 136 0.7340141534805298
11 137 0.9538846611976624
11 138 0.9528987407684326
11 139 0.9491233825683594
11 140 0.9451324939727783
11 141 0.9126516580581665
11 142 0.93369460105896
11 143 0.30309388041496277
11 144 0.9221152663230896
11 145 0.9519158601760864
11 146 0.9399289488792419
11 147 0.9548736810684204
11 148 0.9505380988121033
11 149 0.9501084685325623
11 151 0.9212109446525574
11 152 0.9517835974693298
11 153 0.32251405715942383
11 154 0.9416887760162354
11 155 0.9439412355422974
11 156 0.9489901065826416
11 157 0.9523413777351379
11 158 0.20779070258140564
11 159 0.9501084685325623
11 160 0.9449995160102844
11 161 0.9015287160873413
11 162 0.1904650777578354
11 163 0.9474440217018127
11 164 0.9475519061088562
11 165 0.9518492817878723
11 166 0.9439412355422974
11 167 0.9540778994560242
11 168 0.9440084099769592
11 169 0.9399289488792419
11 170 0.3290274739265442
11 171 0.9319873452186584
11 172 0.9484966993331909
11 173 0.9507330656051636
11 174 0.229653000831604
11 175 0.9344001412391663
11 176 0.9556168913841248
11 177 0.9506021738052368
11 178 0.9477402567863464
11 179 0.8253225088119507
11 180 0.9411247968673706
11 181 0.3236114978790283
11 182 0.9466188549995422
11 183 0.9524069428443909
11 184 0.9401325583457947
11 185 0.9397976398468018
11 186 0.9513580799102783
11 187 0.9555537104606628
11 188 0.9496155977249146
11 189 0.9451324939727783
11 190 0.9496155977249146
11 191 0.9473766088485718
11 192 0.949915885925293
11 193 0.9523413777351379
11 194 0.9540778994560242
11 195 0.9499791264533997
11 196 0.9496155977249146
11 197 0.928678035736084
11 198 0.13060462474822998
11 199 0.9383681416511536
11 200 0.1789308786392212
11 201 0.25130534172058105
11 202 0.9502413272857666
11 203 0.40407490730285645
11 204 0.50439453125
11 205 0.8768352270126343
11 206 0.5419320464134216
11 207 0.9501084685325623
11 208 0.9461225867271423
11 209 0.05655346065759659
11 210 0.24516387283802032
11 211 0.17883774638175964
11 212 0.9456940293312073
11 213 0.30271053314208984
11 214 0.4080096483230591
11 215 0.12645739316940308
11 216 0.9545047283172607
11 217 0.9495494961738586
11 218 0.9410580396652222
11 219 0.9518492817878723
11 220 0.9566647410392761
11 221 0.9499791264533997
11 222 0.9499791264533997
11 223 0.9478704333305359
11 224 0.8535051941871643
11 225 0.9511606097221375
11 226 0.9339019656181335
11 227 0.938933789730072
11 228 0.2448836863040924
11 229 0.9281681776046753
11 230 0.3621652126312256
11 231 0.9471797347068787
11 232 0.9467494487762451
11 233 0.7657715082168579
11 234 0.2448836863040924
11 235 0.9512913227081299
11 236 0.938933789730072
11 237 0.9512913227081299
11 238 0.9484966993331909
11 239 0.9489247798919678
11 240 0.550699770450592
11 241 0.9428157210350037
11 242 0.3933137059211731
11 243 0.9462551474571228
11 244 0.9489901065826416
11 245 0.9484350681304932
11 246 0.14602042734622955
11 247 0.9548736810684204
11 248 0.9361028075218201
11 249 0.1497812122106552
11 250 0.9449995160102844
11 251 0.18212684988975525
11 252 0.9427492022514343
11 253 0.9451324939727783
11 254 0.2166367620229721
11 255 0.51924729347229
12 13 0.9690402746200562
12 14 0.9599219560623169
12 15 0.9685081243515015
12 16 0.9572656154632568
12 17 0.9673510789871216
12 18 0.2820909023284912
12 19 0.9658758640289307
12 20 0.9605243802070618
12 21 0.9674755930900574
12 22 0.9610276818275452
12 23 0.17886234819889069
12 24 0.9648079872131348
12 25 0.9566943049430847
12 26 0.17595383524894714
12 27 0.9668476581573486
12 28 0.9694806933403015
12 29 0.9555843472480774
12 30 0.9674755930900574
12 31 0.9604276418685913
12 32 0.23838940262794495
12 33 0.13265812397003174
12 34 0.963705837726593
12 35 0.9534887075424194
12 36 0.9545365571975708
12 37 0.963705837726593
12 38 0.12114956229925156
12 39 0.9534558653831482
12 40 0.2385619431734085
12 41 0.1065453439950943
12 42 0.9679757356643677
12 43 0.522457480430603
12 44 0.9684460759162903
12 45 0.9653420448303223
12 46 0.948067307472229
12 47 0.9669100642204285
12 48 0.9578039050102234
12 49 0.2644602060317993
12 50 0.9658114314079285
12 51 0.9716652035713196
12 52 0.9609642028808594
12 53 0.45570334792137146
12 54 0.9199227690696716
12 55 0.9518324136734009
12 56 0.17604544758796692
12 57 0.9491884708404541
12 58 0.6518409252166748
12 59 0.9518324136734009
12 60 0.9647432565689087
12 61 0.9647751450538635
12 62 0.9648079872131348
12 63 0.14366571605205536
12 64 0.964208722114563
12 65 0.16062313318252563
12 66 0.9674113988876343
12 67 0.9507486820220947
12 68 0.9664095044136047
12 69 0.9662845730781555
12 70 0.9545365571975708
12 71 0.9610608816146851
12 72 0.07183285802602768
12 73 0.9626034498214722
12 74 0.9604911208152771
12 75 0.964208722114563
12 76 0.9642735719680786
12 77 0.5717241764068604
12 78 0.9689782857894897
12 79 0.06424925476312637
12 80 0.1982775181531906
12 81 0.07183285802602768
12 82 0.05564148724079132
12 83 0.9620998501777649
12 84 0.9615316987037659
12 85 0.9673807621002197
12 86 0.96744304895401
12 87 0.9701035618782043
12 88 0.25090137124061584
12 89 0.14366571605205536
12 90 0.4586610496044159
12 91 0.9513238072395325
12 92 0.06424925476312637
12 93 0.3832322955131531
12 94 0.20840679109096527
12 95 0.4808162450790405
12 96 0.184843972325325
12 97 0.10200940072536469
12 98 0.9594504833221436
12 99 0.9647432565689087
12 100 0.9653093218803406
12 101 0.9711344838142395
12 102 0.9609954953193665
12 103 0.15406429767608643
12 104 0.9674755930900574
12 105 0.13245323300361633
12 106 0.9674755930900574
12 107 0.9647751450538635
12 108 0.9679136276245117
12 109 0.11128297448158264
12 110 0.9684766530990601
12 111 0.9254726767539978
12 112 0.9690402746200562
12 113 0.8859972357749939
12 114 0.3276665508747101
12 115 0.9517393112182617
12 116 0.4440242648124695
12 117 0.18836364150047302
12 118 0.26490646600723267
12 120 0.9673224687576294
12 121 0.963705837726593
12 122 0.9566943049430847
12 123 0.965843141078949
12 124 0.9652774333953857
12 125 0.24468903243541718
12 126 0.1406674087047577
12 127 0.9620677828788757
12 128 0.15249331295490265
12 129 0.5711939930915833
12 130 0.9551092386245728
12 131 0.9106768369674683
12 132 0.9701035618782043
12 133 0.9711657762527466
12 134 0.19332057237625122
12 135 0.9669100642204285
12 136 0.7462501525878906
12 137 0.9695102572441101
12 138 0.9695407152175903
12 139 0.9689782857894897
12 140 0.9631388187408447
12 141 0.9249155521392822
12 142 0.9512585401535034
12 143 0.3048330545425415
12 144 0.9392281174659729
12 145 0.9685406684875488
12 146 0.9551092386245728
12 147 0.9684460759162903
12 148 0.9642406702041626
12 149 0.9648079872131348
12 151 0.9320981502532959
12 152 0.96744304895401
12 153 0.3324233889579773
12 154 0.9588472843170166
12 155 0.9630778431892395
12 156 0.9637388586997986
12 157 0.9669426679611206
12 158 0.22261232137680054
12 159 0.965843141078949
12 160 0.9599543213844299
12 161 0.914266049861908
12 162 0.1820395588874817
12 163 0.9642735719680786
12 164 0.9593847990036011
12 165 0.9695407152175903
12 166 0.962036669254303
12 167 0.9706348180770874
12 168 0.9610276818275452
12 169 0.9540631175041199
12 170 0.3415411412715912
12 171 0.9496313333511353
12 172 0.9653093218803406
12 173 0.9684766530990601
12 174 0.23374101519584656
12 175 0.9508160352706909
12 176 0.9701035618782043
12 177 0.9653093218803406
12 178 0.9615639448165894
12 179 0.8312897682189941
12 180 0.9572656154632568
12 181 0.32148414850234985
12 182 0.9604911208152771
12 183 0.9690402746200562
12 184 0.9614704251289368
12 185 0.9529479146003723
12 186 0.9700722694396973
12 187 0.9690402746200562
12 188 0.9653420448303223
12 189 0.9610608816146851
12 190 0.9674113988876343
12 191 0.9642406702041626
12 192 0.9636739492416382
12 193 0.9669426679611206
12 194 0.9696044325828552
12 195 0.963705837726593
12 196 0.9663767218589783
12 197 0.9413902163505554
12 198 0.12046735733747482
12 199 0.9556487202644348
12 200 0.17604544758796692
12 201 0.25510212779045105
12 202 0.96900874376297
12 203 0.39504262804985046
12 204 0.4942834973335266
12 205 0.8884978294372559
12 206 0.5350508093833923
12 207 0.9679136276245117
12 208 0.9620677828788757
12 209 0.05564148724079132
12 210 0.25702744722366333
12 211 0.17595383524894714
12 212 0.9657508730888367
12 213 0.2978290617465973
12 214 0.39395004510879517
12 215 0.12441814690828323
12 216 0.9690402746200562
12 217 0.9673807621002197
12 218 0.9582780599594116
12 219 0.9674755930900574
12 220 0.9701035618782043
12 221 0.9647432565689087
12 222 0.963705837726593
12 223 0.9668179750442505
12 224 0.8711013197898865
12 225 0.966878354549408
12 226 0.9534558653831482
12 227 0.9561880230903625
12 228 0.24896587431430817
12 229 0.9419377446174622
12 230 0.3563249707221985
12 231 0.9631078243255615
12 232 0.9636739492416382
12 233 0.7814689874649048
12 234 0.24093471467494965
12 235 0.9700418710708618
12 236 0.9561880230903625
12 237 0.9669426679611206
12 238 0.9653093218803406
12 239 0.9657806158065796
12 240 0.5509716868400574
12 241 0.9609642028808594
12 242 0.38177695870399475
12 243 0.9621329307556152
12 244 0.9658114314079285
12 245 0.9561553597450256
12 246 0.14366571605205536
12 247 0.9674113988876343
12 248 0.9534887075424194
12 249 0.13396896421909332
12 250 0.962036669254303
12 251 0.2034047544002533
12 252 0.9588472843170166
12 253 0.9641777873039246
12 254 0.21314330399036407
12 255 0.5280301570892334
13 14 0.9609642028808594
13 15 0.9716057181358337
13 16 0.9562217593193054
13 17 0.9642406702041626
13 18 0.27503862977027893
13 19 0.9669100642204285
13 20 0.9626034498214722
13 21 0.9705731868743896
13 22 0.9599875807762146
13 23 0.17309260368347168
13 24 0.965843141078949
13 25 0.9546031951904297
13 26 0.17008869349956512
13 27 0.9678839445114136
13 28 0.9663767218589783
13 29 0.9545365571975708
13 30 0.9685081243515015
13 31 0.9593847990036011
13 32 0.23002485930919647
13 33 0.14002801477909088
13 34 0.9626684784889221
13 35 0.9524409174919128
13 36 0.9524409174919128
13 37 0.9668179750442505
13 38 0.13629326224327087
13 39 0.9534558653831482
13 40 0.24678821861743927
13 41 0.1065453439950943
13 42 0.9669426679611206
13 43 0.5338152050971985
13 44 0.9653420448303223
13 45 0.9663767218589783
13 46 0.948067307472229
13 47 0.9658758640289307
13 48 0.959890604019165
13 49 0.2820909023284912
13 50 0.9658114314079285
13 51 0.9696044325828552
13 52 0.9609642028808594
13 53 0.440367192029953
13 54 0.9242569208145142
13 55 0.9518324136734009
13 56 0.18172433972358704
13 57 0.9523418545722961
13 58 0.6624770164489746
13 59 0.956034779548645
13 60 0.9668179750442505
13 61 0.9668476581573486
13 62 0.965843141078949
13 63 0.14366571605205536
13 64 0.964208722114563
13 65 0.16062313318252563
13 66 0.9653420448303223
13 67 0.949696958065033
13 68 0.9664095044136047
13 69 0.9652466773986816
13 70 0.9545365571975708
13 71 0.9610608816146851
13 72 0.07183285802602768
13 73 0.9605243802070618
13 74 0.9604911208152771
13 75 0.9621329307556152
13 76 0.9653093218803406
13 77 0.5751683115959167
13 78 0.9669100642204285
13 79 0.06424925476312637
13 80 0.1982775181531906
13 81 0.07183285802602768
13 82 0.05564148724079132
13 83 0.9652168154716492
13 84 0.9615316987037659
13 85 0.9663450121879578
13 86 0.96744304895401
13 87 0.9701035618782043
13 88 0.24678821861743927
13 89 0.1221158504486084
13 90 0.47345656156539917
13 91 0.9513238072395325
13 93 0.37551623582839966
13 94 0.20840679109096527
13 95 0.4659236967563629
13 96 0.184843972325325
13 97 0.11128297448158264
13 98 0.9594504833221436
13 99 0.963705837726593
13 100 0.9642735719680786
13 101 0.9711344838142395
13 102 0.9589132070541382
13 103 0.15406429767608643
13 104 0.9695407152175903
13 105 0.13245323300361633
13 106 0.9685081243515015
13 107 0.9668476581573486
13 108 0.965843141078949
13 109 0.11128297448158264
13 110 0.9664095044136047
13 111 0.9287086129188538
13 112 0.9680082201957703
13 113 0.8871287107467651
13 114 0.32148414850234985
13 115 0.9475234150886536
13 116 0.4325803518295288
13 117 0.1982775181531906
13 118 0.2610107958316803
13 120 0.9631708264350891
13 121 0.963705837726593
13 122 0.9556487202644348
13 123 0.965843141078949
13 124 0.9663142561912537
13 125 0.23224720358848572
13 126 0.12727050483226776
13 127 0.9610276818275452
13 128 0.17595383524894714
13 129 0.5747308135032654
13 130 0.9551092386245728
13 131 0.9095743298530579
13 132 0.9701035618782043
13 133 0.9711657762527466
13 134 0.19332057237625122
13 135 0.9679441452026367
13 136 0.7475875020027161
13 137 0.96744304895401
13 138 0.9685081243515015
13 139 0.9658758640289307
13 140 0.9610608816146851
13 141 0.923836350440979
13 142 0.9502062797546387
13 143 0.294892817735672
13 144 0.9402942061424255
13 145 0.9706035852432251
13 146 0.9592937231063843
13 147 0.9653420448303223
13 148 0.9632037878036499
13 149 0.965843141078949
13 151 0.934243381023407
13 152 0.9664095044136047
13 153 0.3324233889579773
13 154 0.956760585308075
13 155 0.9609954953193665
13 156 0.9658114314079285
13 157 0.9669426679611206
13 158 0.20898298919200897
13 159 0.965843141078949
13 160 0.962036669254303
13 161 0.9175390005111694
13 162 0.1873936504125595
13 163 0.9663450121879578
13 164 0.9593847990036011
13 165 0.9685081243515015
13 166 0.9599543213844299
13 167 0.9726956486701965
13 168 0.9610276818275452
13 169 0.9572014808654785
13 170 0.32669153809547424
13 171 0.9496313333511353
13 172 0.9653093218803406
13 173 0.96744304895401
13 174 0.2532194256782532
13 175 0.9539644718170166
13 176 0.9711344838142395
13 177 0.9663450121879578
13 178 0.9605243802070618
13 179 0.8276754021644592
13 180 0.9572656154632568
13 181 0.3091193735599518
13 182 0.963612973690033
13 183 0.9721361994743347
13 184 0.9604276418685913
13 185 0.955044686794281
13 186 0.9680082201957703
13 187 0.9690402746200562
13 188 0.9653420448303223
13 189 0.9641777873039246
13 190 0.9653420448303223
13 191 0.9632037878036499
13 192 0.9626355171203613
13 193 0.9669426679611206
13 194 0.9716652035713196
13 195 0.9668179750442505
13 196 0.9663767218589783
13 197 0.9403252601623535
13 198 0.12849850952625275
13 199 0.9566943049430847
13 200 0.170366570353508
13 201 0.26295140385627747
13 202 0.96900874376297
13 203 0.3900102376937866
13 204 0.504169225692749
13 205 0.8929851651191711
13 206 0.5369086265563965
13 207 0.965843141078949
13 208 0.9620677828788757
13 209 0.05564148724079132
13 210 0.2491188943386078
13 211 0.17008869349956512
13 212 0.9615970849990845
13 213 0.31350424885749817
13 214 0.3864699602127075
13 215 0.11612360179424286
13 216 0.9700722694396973
13 217 0.9663450121879578
13 218 0.9572330713272095
13 219 0.9685081243515015
13 220 0.9701035618782043
13 221 0.9657806158065796
13 222 0.963705837726593
13 223 0.9647432565689087
13 224 0.8606480956077576
13 225 0.9679136276245117
13 226 0.9524069428443909
13 227 0.9582780599594116
13 228 0.2449502944946289
13 229 0.9440664052963257
13 230 0.35917556285858154
13 231 0.9610276818275452
13 232 0.9626355171203613
13 233 0.786568284034729
13 234 0.24896587431430817
13 235 0.9679757356643677
13 236 0.9593231081962585
13 237 0.9669426679611206
13 238 0.9653093218803406
13 239 0.963705837726593
13 240 0.5436497926712036
13 241 0.9578374028205872
13 242 0.38956835865974426
13 243 0.9662845730781555
13 244 0.9658114314079285
13 245 0.9582476615905762
13 246 0.14366571605205536
13 247 0.9653420448303223
13 248 0.9555843472480774
13 249 0.14736585319042206
13 250 0.9599543213844299
13 251 0.2130906879901886
13 252 0.9578039050102234
13 253 0.9662558436393738
13 254 0.20367026329040527
13 255 0.5299364328384399
14 15 0.9593749046325684
14 16 0.9509764313697815
14 17 0.9560340642929077
14 18 0.28133660554885864
14 19 0.9556428790092468
14 20 0.9522342681884766
14 21 0.9593749046325684
14 22 0.9506322741508484
14 23 0.17481496930122375
14 24 0.9566347002983093
14 25 0.9514302611351013
14 26 0.17178116738796234
14 27 0.9544899463653564
14 28 0.9561384320259094
14 29 0.9439285397529602
14 30 0.9604177474975586
14 31 0.9499738216400146
14 32 0.2196420580148697
14 33 0.13397812843322754
14 34 0.9523416757583618
14 35 0.9439285397529602
14 36 0.9428703188896179
14 37 0.9565324187278748
14 38 0.12235505878925323
14 39 0.9449343681335449
14 40 0.23262763023376465
14 41 0.10760551691055298
14 42 0.9588274359703064
14 43 0.5085381865501404
14 44 0.958228349685669
14 45 0.958228349685669
14 46 0.9404788017272949
14 47 0.959820568561554
14 48 0.9483672380447388
14 49 0.2742141783237457
14 50 0.9576296806335449
14 51 0.9626021385192871
14 52 0.9515789747238159
14 53 0.4292602837085724
14 54 0.9104729890823364
14 55 0.9422049522399902
14 56 0.17779718339443207
14 57 0.94270920753479
14 58 0.6598616242408752
14 59 0.9464490413665771
14 60 0.9533893465995789
14 61 0.9576296806335449
14 62 0.9566347002983093
14 63 0.14509525895118713
14 64 0.9538868069648743
14 65 0.14924371242523193
14 66 0.9571834206581116
14 67 0.9453385472297668
14 68 0.9582797884941101
14 69 0.9528385400772095
14 70 0.9471032023429871
14 71 0.9527854323387146
14 72 0.07254762947559357
14 73 0.9543339610099792
14 74 0.9511309862136841
14 75 0.9538868069648743
14 76 0.956085741519928
14 77 0.5913266539573669
14 78 0.9587761759757996
14 79 0.06488857418298721
14 80 0.1952441930770874
14 81 0.058038100600242615
14 82 0.05619514361023903
14 83 0.9517361521720886
14 84 0.9521819353103638
14 85 0.9623619914054871
14 86 0.9561920166015625
14 87 0.9620563983917236
14 88 0.24924388527870178
14 89 0.14509525895118713
14 90 0.4803023636341095
14 91 0.9480642676353455
14 92 0.06488857418298721
14 93 0.38704562187194824
14 94 0.19612959027290344
14 95 0.4684111773967743
14 96 0.1920170783996582
14 97 0.11239028722047806
14 98 0.9511309862136841
14 99 0.9533893465995789
14 100 0.956085741519928
14 101 0.9599740505218506
14 102 0.949527382850647
14 103 0.15559732913970947
14 104 0.9593749046325684
14 105 0.13377121090888977
14 106 0.9583321213722229
14 107 0.958676278591156
14 108 0.9587256908416748
14 109 0.09365858137607574
14 110 0.9572359323501587
14 111 0.9216090440750122
14 112 0.9588796496391296
14 113 0.8765284419059753
14 114 0.3153172433376312
14 115 0.9356625080108643
14 116 0.4345731735229492
14 117 0.17521914839744568
14 118 0.24000129103660583
14 120 0.9549350738525391
14 121 0.9575800895690918
14 122 0.9493183493614197
14 123 0.9576802253723145
14 124 0.9549869298934937
14 125 0.25131234526634216
14 126 0.14883221685886383
14 127 0.9516826868057251
14 128 0.16585767269134521
14 129 0.5500877499580383
14 130 0.9477085471153259
14 131 0.8985823392868042
14 132 0.9589328765869141
14 133 0.9621073603630066
14 134 0.1952441930770874
14 135 0.956687331199646
14 136 0.7347662448883057
14 137 0.9572359323501587
14 138 0.961460530757904
14 139 0.9556428790092468
14 140 0.9569827318191528
14 141 0.9166790843009949
14 142 0.9447828531265259
14 143 0.2810952961444855
14 144 0.9281166195869446
14 145 0.9583853483200073
14 146 0.9477085471153259
14 147 0.9571834206581116
14 148 0.9560340642929077
14 149 0.9545437097549438
14 151 0.9186240434646606
14 152 0.9572359323501587
14 153 0.3204706311225891
14 154 0.9494209289550781
14 155 0.9526818990707397
14 156 0.9534433484077454
14 157 0.9567407965660095
14 158 0.22482742369174957
14 159 0.9587256908416748
14 160 0.9505788683891296
14 161 0.9068353772163391
14 162 0.17303617298603058
14 163 0.9550396800041199
14 164 0.9531333446502686
14 165 0.9604177474975586
14 166 0.9505788683891296
14 167 0.9594801664352417
14 168 0.9516826868057251
14 169 0.952991247177124
14 170 0.344939649105072
14 171 0.9409847855567932
14 172 0.9571317434310913
14 173 0.9572359323501587
14 174 0.2439357340335846
14 175 0.9411988854408264
14 176 0.9589328765869141
14 177 0.9550396800041199
14 178 0.955383837223053
14 179 0.8164430260658264
14 180 0.9520307183265686
14 181 0.32156115770339966
14 182 0.9532329440116882
14 183 0.9599219560623169
14 184 0.9531333446502686
14 185 0.9454898238182068
14 186 0.9578374028205872
14 187 0.9588796496391296
14 188 0.9592732787132263
14 189 0.9517361521720886
14 190 0.9550934433937073
14 191 0.9528926610946655
14 192 0.9533362984657288
14 193 0.9609141945838928
14 194 0.9605208039283752
14 195 0.9544370770454407
14 196 0.9603182673454285
14 197 0.9281716346740723
14 198 0.1216660663485527
14 199 0.9482623934745789
14 200 0.17779718339443207
14 201 0.24574939906597137
14 202 0.9588274359703064
14 203 0.3837261199951172
14 204 0.5111827850341797
14 205 0.8814767599105835
14 206 0.5422510504722595
14 207 0.9545437097549438
14 208 0.954833984375
14 209 0.05619514361023903
14 210 0.24361056089401245
14 211 0.16585767269134521
14 212 0.9596289396286011
14 213 0.3197900056838989
14 214 0.3978700637817383
14 215 0.12565617263317108
14 216 0.9620064496994019
14 217 0.9550396800041199
14 218 0.9467051029205322
14 219 0.9604177474975586
14 220 0.9599740505218506
14 221 0.9544370770454407
14 222 0.9575800895690918
14 223 0.9533893465995789
14 224 0.8480975031852722
14 225 0.9576802253723145
14 226 0.9428157210350037
14 227 0.9445942640304565
14 228 0.23927661776542664
14 229 0.9330366849899292
14 230 0.339717835187912
14 231 0.9537835717201233
14 232 0.9543850421905518
14 233 0.7840948700904846
14 234 0.25144320726394653
14 235 0.9588274359703064
14 236 0.9509267210960388
14 237 0.9619575142860413
14 238 0.956085741519928
14 239 0.9533893465995789
14 240 0.5398159623146057
14 241 0.9515789747238159
14 242 0.38295286893844604
14 243 0.9549350738525391
14 244 0.9544899463653564
14 245 0.944538950920105
14 246 0.1233309656381607
14 247 0.9561384320259094
14 248 0.9460449814796448
14 249 0.14206711947917938
14 250 0.9505788683891296
14 251 0.2103198617696762
14 252 0.950474739074707
14 253 0.9527854323387146
14 254 0.20569688081741333
14 255 0.5236582159996033
15 16 0.9577599763870239
15 17 0.9626638889312744
15 18 0.29282042384147644
15 19 0.9684440493583679
15 20 0.9620605111122131
15 21 0.9679751992225647
15 22 0.9615238904953003
15 23 0.17318198084831238
15 24 0.9653061628341675
15 25 0.9540500640869141
15 26 0.15257206559181213
15 27 0.9631996750831604
15 28 0.9658405184745789
15 29 0.9518845081329346
15 30 0.9679751992225647
15 31 0.9598802328109741
15 32 0.2468813806772232
15 33 0.13272660970687866
15 34 0.9642035365104675
15 35 0.9539811611175537
15 36 0.9550294876098633
15 37 0.9642035365104675
15 38 0.12878787517547607
15 39 0.9528987407684326
15 40 0.24691566824913025
15 41 0.10660036653280258
15 42 0.9674419164657593
15 43 0.5303030014038086
15 44 0.9658405184745789
15 45 0.9648053646087646
15 46 0.947502851486206
15 47 0.9653400182723999
15 48 0.9593424201011658
15 49 0.2822365462779999
15 50 0.9663101434707642
15 51 0.9690742492675781
15 52 0.963546097278595
15 53 0.4493626356124878
15 54 0.9225659370422363
15 55 0.9512727856636047
15 56 0.1818181723356247
15 57 0.9549371004104614
15 58 0.6643393039703369
15 59 0.9502216577529907
15 60 0.9642035365104675
15 61 0.9652733206748962
15 62 0.9642704129219055
15 63 0.13655290007591248
15 64 0.9636682271957397
15 65 0.1607060730457306
15 66 0.9658405184745789
15 67 0.9491351842880249
15 68 0.9658743143081665
15 69 0.961591362953186
15 70 0.9539811611175537
15 71 0.964675784111023
15 72 0.07186995446681976
15 73 0.9610204100608826
15 74 0.9599459767341614
15 75 0.9647066593170166
15 76 0.9668440222740173
15 77 0.5668506026268005
15 78 0.9674093723297119
15 79 0.06428243219852448
15 80 0.19837990403175354
15 81 0.07186995446681976
15 82 0.05567022040486336
15 83 0.9625967144966125
15 84 0.9630694389343262
15 85 0.9658077955245972
15 86 0.9658743143081665
15 87 0.9706045985221863
15 88 0.23045462369918823
15 89 0.14373990893363953
15 90 0.48004525899887085
15 91 0.9539162516593933
15 93 0.3860035538673401
15 94 0.20851440727710724
15 95 0.45126408338546753
15 96 0.19550737738609314
15 97 0.11134044080972672
15 98 0.9609870910644531
15 99 0.9621278047561646
15 100 0.9637352228164673
15 101 0.9695731401443481
15 102 0.9604499936103821
15 103 0.1407400518655777
15 104 0.9679751992225647
15 105 0.12472623586654663
15 106 0.9669421315193176
15 107 0.9631996750831604
15 108 0.9653061628341675
15 109 0.10206207633018494
15 110 0.9669085144996643
15 111 0.931346595287323
15 112 0.9674755930900574
15 113 0.8819261789321899
15 114 0.32783573865890503
15 115 0.9459035992622375
15 116 0.432803750038147
15 117 0.19837990403175354
15 118 0.24945247173309326
15 120 0.9626297950744629
15 121 0.9642035365104675
15 122 0.9550961256027222
15 123 0.9673776030540466
15 124 0.9657759666442871
15 125 0.2406659722328186
15 126 0.14744195342063904
15 127 0.9604833126068115
15 128 0.17604470252990723
15 129 0.5644116997718811
15 130 0.9535091519355774
15 131 0.906734824180603
15 132 0.96854168176651
15 133 0.9696065187454224
15 134 0.20333939790725708
15 135 0.9663746953010559
15 136 0.7546637654304504
15 137 0.9689767360687256
15 138 0.9679751992225647
15 139 0.9663746953010559
15 140 0.9615572094917297
15 141 0.9307921528816223
15 142 0.9485912919044495
15 143 0.30167531967163086
15 144 0.935446560382843
15 145 0.9700728058815002
15 146 0.9587424397468567
15 147 0.9689461588859558
15 148 0.9637011885643005
15 149 0.9642704129219055
15 151 0.934725821018219
15 152 0.9689767360687256
15 153 0.32654786109924316
15 154 0.960386335849762
15 155 0.9614917039871216
15 156 0.9663101434707642
15 157 0.9674419164657593
15 158 0.2136363536119461
15 159 0.9642704129219055
15 160 0.9614917039871216
15 161 0.9147381782531738
15 162 0.1767766773700714
15 163 0.9647715091705322
15 164 0.9577935338020325
15 165 0.9669421315193176
15 166 0.9594083428382874
15 167 0.9701051115989685
15 168 0.9625645875930786
15 169 0.9556024670600891
15 170 0.3328031301498413
15 171 0.9469581842422485
15 172 0.9647715091705322
15 173 0.9658743143081665
15 174 0.253350168466568
15 175 0.9523571133613586
15 176 0.9716359972953796
15 177 0.9668440222740173
15 178 0.9599803686141968
15 179 0.8256920576095581
15 180 0.9567155241966248
15 181 0.3092789947986603
15 182 0.9620282649993896
15 183 0.9705731868743896
15 184 0.9598802328109741
15 185 0.9523911476135254
15 186 0.9695407152175903
15 187 0.9674755930900574
15 188 0.9648053646087646
15 189 0.9657152891159058
15 190 0.9658405184745789
15 191 0.9647386074066162
15 192 0.9610546827316284
15 193 0.966408371925354
15 194 0.9690742492675781
15 195 0.9642035365104675
15 196 0.9679110050201416
15 197 0.9408108592033386
15 198 0.12856486439704895
15 199 0.956142246723175
15 200 0.1818181723356247
15 201 0.2513071894645691
15 202 0.9674419164657593
15 203 0.4027990996837616
15 204 0.49651697278022766
15 205 0.9035481214523315
15 206 0.5501972436904907
15 207 0.9642704129219055
15 208 0.9615238904953003
15 209 0.05567022040486336
15 210 0.2571601867675781
15 211 0.17604470252990723
15 212 0.9610546827316284
15 213 0.3199394643306732
15 214 0.37918564677238464
15 215 0.1161835715174675
15 216 0.9695407152175903
15 217 0.9647715091705322
15 218 0.9545906782150269
15 219 0.9669421315193176
15 220 0.96854168176651
15 221 0.9642035365104675
15 222 0.9652414917945862
15 223 0.9621278047561646
15 224 0.8564442992210388
15 225 0.9653061628341675
15 226 0.950799822807312
15 227 0.9566817879676819
15 228 0.23704147338867188
15 229 0.941359281539917
15 230 0.3479527533054352
15 231 0.9604833126068115
15 232 0.9631326198577881
15 233 0.7793214917182922
15 234 0.2531120777130127
15 235 0.9674419164657593
15 236 0.9545906782150269
15 237 0.966408371925354
15 238 0.9658077955245972
15 239 0.9621278047561646
15 240 0.5512561798095703
15 241 0.9583321213722229
15 242 0.3949664235115051
15 243 0.9657451510429382
15 244 0.9631996750831604
15 245 0.9566490650177002
15 246 0.13655290007591248
15 247 0.9648053646087646
15 248 0.9550294876098633
15 249 0.15414386987686157
15 250 0.9594083428382874
15 251 0.21320073306560516
15 252 0.9582985639572144
15 253 0.9625967144966125
15 254 0.21799233555793762
15 255 0.5244883298873901
16 17 0.9512544870376587
16 18 0.2853487432003021
16 19 0.9571554064750671
16 20 0.95058673620224
16 21 0.9640266299247742
16 22 0.9489806294441223
16 23 0.18092802166938782
16 24 0.9550073146820068
16 25 0.944474995136261
16 26 0.16612018644809723
16 27 0.9539041519165039
16 28 0.9555584788322449
16 29 0.9475423097610474
16 30 0.9567155241966248
16 31 0.9483127593994141
16 32 0.22845083475112915
16 33 0.13419018685817719
16 34 0.9527995586395264
16 35 0.9454224705696106
16 36 0.9454224705696106
16 37 0.9559475779533386
16 38 0.13020800054073334
16 39 0.9421858787536621
16 40 0.2371564507484436
16 41 0.09797801822423935
16 42 0.9561650156974792
16 43 0.5112578868865967
16 44 0.956605076789856
16 45 0.9576517343521118
16 46 0.9377049803733826
16 47 0.956109344959259
16 48 0.9467019438743591
16 49 0.2710812985897064
16 50 0.9549524188041687
16 51 0.9589141011238098
16 52 0.9467592835426331
16 53 0.43658822774887085
16 54 0.9217784404754639
16 55 0.9415706992149353
16 56 0.17807859182357788
16 57 0.941011369228363
16 58 0.6716649532318115
16 59 0.9479469656944275
16 60 0.9517502188682556
16 61 0.9528558850288391
16 62 0.9529129862785339
16 63 0.1380586475133896
16 64 0.9532967209815979
16 65 0.12348341196775436
16 66 0.956605076789856
16 67 0.9500263929367065
16 68 0.9566598534584045
16 69 0.9532967209815979
16 70 0.9433027505874634
16 71 0.9574463963508606
16 72 0.05812995508313179
16 73 0.95058673620224
16 74 0.94737309217453
16 75 0.9522468447685242
16 76 0.9534081220626831
16 77 0.5731012225151062
16 78 0.9550632834434509
16 79 0.06499126553535461
16 80 0.19555321335792542
16 81 0.07266244292259216
16 82 0.056284088641405106
16 83 0.954293429851532
16 84 0.9494783878326416
16 85 0.9575989842414856
16 86 0.9556143283843994
16 87 0.9573220610618591
16 88 0.24547773599624634
16 89 0.13079239428043365
16 90 0.48533865809440613
16 91 0.9453161954879761
16 93 0.3694460690021515
16 94 0.2012312412261963
16 95 0.4626963138580322
16 96 0.19766321778297424
16 97 0.09380681812763214
16 98 0.95368891954422
16 99 0.9559475779533386
16 100 0.9555035829544067
16 101 0.9573220610618591
16 102 0.9520833492279053
16 103 0.12196454405784607
16 104 0.9608932733535767
16 105 0.13398294150829315
16 106 0.9567155241966248
16 107 0.9549524188041687
16 108 0.9550073146820068
16 109 0.11256817728281021
16 110 0.9556143283843994
16 111 0.914339005947113
16 112 0.9603973031044006
16 113 0.8790603876113892
16 114 0.3251969516277313
16 115 0.9403417706489563
16 116 0.43063053488731384
16 117 0.18051066994667053
16 118 0.22461844980716705
16 120 0.9543465971946716
16 121 0.9517502188682556
16 122 0.944474995136261
16 123 0.9571016430854797
16 124 0.9523032307624817
16 125 0.24751494824886322
16 126 0.155843585729599
16 127 0.953188955783844
16 128 0.17798592150211334
16 129 0.5581136345863342
16 130 0.9470921158790588
16 131 0.8955435752868652
16 132 0.9573220610618591
16 133 0.9615465402603149
16 134 0.20558159053325653
16 135 0.956109344959259
16 136 0.7359291911125183
16 137 0.9577054381370544
16 138 0.9588043689727783
16 139 0.9540172219276428
16 140 0.954293429851532
16 141 0.9137630462646484
16 142 0.939891517162323
16 143 0.28824350237846375
16 144 0.9317423105239868
16 145 0.9588587880134583
16 146 0.9502667188644409
16 147 0.9607915878295898
16 148 0.9533520340919495
16 149 0.9550073146820068
16 151 0.9233329892158508
16 152 0.9566598534584045
16 153 0.3301486670970917
16 154 0.9498682022094727
16 155 0.9478706121444702
16 156 0.9528558850288391
16 157 0.9582550525665283
16 158 0.20220538973808289
16 159 0.9529129862785339
16 160 0.9478706121444702
16 161 0.9038562774658203
16 162 0.1787259727716446
16 163 0.9555035829544067
16 164 0.9493675827980042
16 165 0.9577599763870239
16 166 0.9489237666130066
16 167 0.9589141011238098
16 168 0.9500327110290527
16 169 0.9470921158790588
16 170 0.3304644823074341
16 171 0.9414079189300537
16 172 0.9544559121131897
16 173 0.9556143283843994
16 174 0.23644046485424042
16 175 0.940565288066864
16 176 0.9594076871871948
16 177 0.9544559121131897
16 178 0.9526897668838501
16 179 0.8287034034729004
16 180 0.9461457133293152
16 181 0.33145076036453247
16 182 0.9526363015174866
16 183 0.9572656154632568
16 184 0.9493675827980042
16 185 0.9427444338798523
16 186 0.9562217593193054
16 187 0.958309531211853
16 188 0.9534652829170227
16 189 0.9521914124488831
16 190 0.956605076789856
16 191 0.9523032307624817
16 192 0.9527442455291748
16 193 0.9561650156974792
16 194 0.9589141011238098
16 195 0.9517502188682556
16 196 0.9597449898719788
16 197 0.9296406507492065
16 198 0.10561081022024155
16 199 0.944474995136261
16 200 0.18382306396961212
16 201 0.25407829880714417
16 202 0.9561650156974792
16 203 0.39451444149017334
16 204 0.5099918842315674
16 205 0.8840066194534302
16 206 0.546867847442627
16 207 0.9571016430854797
16 208 0.9510847926139832
16 209 0.056284088641405106
16 210 0.25999587774276733
16 211 0.1542544662952423
16 212 0.954845130443573
16 213 0.3171249032020569
16 214 0.40858834981918335
16 215 0.10907437652349472
16 216 0.9603973031044006
16 217 0.9534081220626831
16 218 0.9450322389602661
16 219 0.9556710124015808
16 220 0.9594076871871948
16 221 0.9601449370384216
16 222 0.9538488984107971
16 223 0.9517502188682556
16 224 0.8447402715682983
16 225 0.9539601802825928
16 226 0.9421858787536621
16 227 0.948203444480896
16 228 0.25184115767478943
16 229 0.9345133900642395
16 230 0.3460225462913513
16 231 0.9510847926139832
16 232 0.9527442455291748
16 233 0.7788881063461304
16 234 0.2437172532081604
16 235 0.9561650156974792
16 236 0.9450322389602661
16 237 0.9582550525665283
16 238 0.9544559121131897
16 239 0.9538488984107971
16 240 0.5517799258232117
16 241 0.9488677978515625
16 242 0.3756776452064514
16 243 0.9543465971946716
16 244 0.9580971002578735
16 245 0.9492084383964539
16 246 0.1380586475133896
16 247 0.956605076789856
16 248 0.9443626403808594
16 249 0.155843585729599
16 250 0.9489237666130066
16 251 0.19105713069438934
16 252 0.9498682022094727
16 253 0.9511404633522034
16 254 0.19644001126289368
16 255 0.5167739391326904
17 18 0.28341010212898254
17 19 0.96312016248703
17 20 0.9587500095367432
17 21 0.9647386074066162
17 22 0.9571624994277954
17 23 0.17969882488250732
17 24 0.9620397090911865
17 25 0.9548656344413757
17 26 0.1590990275144577
17 27 0.9609580039978027
17 28 0.9646590352058411
17 29 0.9505789875984192
17 30 0.9668132662773132
17 31 0.952346920967102
17 32 0.24370607733726501
17 33 0.11846978217363358
17 34 0.9598750472068787
17 35 0.949526309967041
17 36 0.9474208950996399
17 37 0.9588328003883362
17 38 0.12932337820529938
17 39 0.9484304189682007
17 40 0.24794235825538635
17 41 0.10704360902309418
17 42 0.9641993641853333
17 43 0.5134899020195007
17 44 0.9605010151863098
17 45 0.9605010151863098
17 46 0.9472092390060425
17 47 0.962081253528595
17 48 0.9549455046653748
17 49 0.2656969726085663
17 50 0.9609580039978027
17 51 0.9648219347000122
17 52 0.9549869298934937
17 53 0.4622367322444916
17 54 0.9198703765869141
17 55 0.9457287192344666
17 56 0.14834152162075043
17 57 0.9462348818778992
17 58 0.6518362164497375
17 59 0.9446731805801392
17 60 0.9609172344207764
17 61 0.9619991183280945
17 62 0.9651597738265991
17 63 0.14433756470680237
17 64 0.9572476744651794
17 65 0.14200939238071442
17 66 0.9625800251960754
17 67 0.9435719847679138
17 68 0.9615830779075623
17 69 0.9593331217765808
17 70 0.9484735727310181
17 71 0.9582484364509583
17 72 0.07216878235340118
17 73 0.9577056169509888
17 74 0.9555734992027283
17 75 0.9635041356086731
17 76 0.962539553642273
17 77 0.5692076086997986
17 78 0.9610422849655151
17 80 0.2041848748922348
17 81 0.05773502215743065
17 82 0.055901702493429184
17 83 0.9582484364509583
17 84 0.9566190242767334
17 85 0.9614989161491394
17 86 0.9615830779075623
17 87 0.9642828702926636
17 88 0.23554524779319763
17 89 0.13712067902088165
17 90 0.4671765863895416
17 91 0.9483882188796997
17 92 0.06454972177743912
17 93 0.3746882975101471
17 94 0.20938143134117126
17 95 0.4723775386810303
17 96 0.1910143792629242
17 97 0.11180340498685837
17 98 0.9555734992027283
17 99 0.9609172344207764
17 100 0.9594177603721619
17 101 0.9642828702926636
17 102 0.9560753703117371
17 103 0.1480550318956375
17 104 0.9626638889312744
17 105 0.1252448707818985
17 106 0.9657759666442871
17 107 0.9588757753372192
17 108 0.9630797505378723
17 109 0.08385255932807922
17 110 0.9626215100288391
17 111 0.9211312532424927
17 112 0.9642406702041626
17 113 0.8878669142723083
17 114 0.3105649948120117
17 115 0.9445422291755676
17 116 0.43690282106399536
17 117 0.1842643916606903
17 118 0.2622314393520355
17 120 0.9614186882972717
17 121 0.9577906131744385
17 122 0.9569665789604187
17 123 0.9620397090911865
17 124 0.9624999761581421
17 125 0.23750001192092896
17 126 0.15478479862213135
17 127 0.9561175107955933
17 128 0.1649915874004364
17 129 0.5738652348518372
17 130 0.950116753578186
17 131 0.9060743451118469
17 132 0.9663543701171875
17 133 0.965360701084137
17 134 0.19422464072704315
17 135 0.9641591310501099
17 136 0.7430219054222107
17 137 0.964698314666748
17 138 0.9657759666442871
17 139 0.96312016248703
17 140 0.9592922329902649
17 141 0.9216508865356445
17 142 0.945135235786438
17 143 0.29294300079345703
17 144 0.9318386316299438
17 145 0.964779794216156
17 146 0.950116753578186
17 147 0.9605010151863098
17 148 0.9583333134651184
17 149 0.9620397090911865
17 151 0.9267585873603821
17 152 0.9615830779075623
17 153 0.32183337211608887
17 154 0.9549455046653748
17 155 0.9560753703117371
17 156 0.9609580039978027
17 157 0.9621236324310303
17 158 0.2236533761024475
17 159 0.9641197323799133
17 160 0.955029308795929
17 161 0.9108688235282898
17 162 0.17213259637355804
17 163 0.962539553642273
17 164 0.9586330056190491
17 165 0.9647386074066162
17 166 0.9571213722229004
17 167 0.9658570885658264
17 168 0.9571624994277954
17 169 0.9543207883834839
17 170 0.3461221754550934
17 171 0.9434833526611328
17 172 0.9594177603721619
17 173 0.963659942150116
17 174 0.2583175301551819
17 175 0.945773184299469
17 176 0.9642828702926636
17 177 0.9614989161491394
17 178 0.9566612839698792
17 179 0.833966851234436
17 180 0.955449640750885
17 181 0.3229875862598419
17 182 0.9566190242767334
17 183 0.9642406702041626
17 184 0.9533945918083191
17 185 0.9500318169593811
17 186 0.9652774333953857
17 187 0.9642406702041626
17 188 0.9636195302009583
17 189 0.9572045803070068
17 190 0.9615405201911926
17 191 0.9635416865348816
17 192 0.9567043781280518
17 193 0.9641993641853333
17 194 0.9689627885818481
17 195 0.9598750472068787
17 196 0.9605010151863098
17 197 0.9329538941383362
17 198 0.12909944355487823
17 199 0.9527647495269775
17 200 0.1654578596353531
17 201 0.2562951445579529
17 202 0.9641993641853333
17 203 0.37919431924819946
17 204 0.48864954710006714
17 205 0.8858903646469116
17 206 0.5244874358177185
17 207 0.960999608039856
17 208 0.9571624994277954
17 209 0.055901702493429184
17 210 0.23439288139343262
17 211 0.1767767071723938
17 212 0.9587909579277039
17 213 0.31182071566581726
17 214 0.3932873606681824
17 215 0.11666666716337204
17 216 0.9642406702041626
17 217 0.9604583382606506
17 218 0.9522604942321777
17 219 0.9678506255149841
17 220 0.9663543701171875
17 221 0.9609172344207764
17 222 0.9577906131744385
17 223 0.9598750472068787
17 224 0.8611722588539124
17 225 0.9641197323799133
17 226 0.9494842290878296
17 227 0.9512105584144592
17 228 0.22995838522911072
17 229 0.9367189407348633
17 230 0.3579913079738617
17 231 0.9561175107955933
17 232 0.9587909579277039
17 233 0.7825619578361511
17 234 0.23399274051189423
17 235 0.9631614685058594
17 236 0.9522604942321777
17 237 0.9641993641853333
17 238 0.9635801315307617
17 239 0.9609172344207764
17 240 0.5406750440597534
17 241 0.9549869298934937
17 242 0.3783438503742218
17 243 0.9582903981208801
17 244 0.963040292263031
17 245 0.9490657448768616
17 246 0.12990380823612213
17 247 0.9625800251960754
17 248 0.9537370204925537
17 249 0.14132525026798248
17 250 0.9592134952545166
17 251 0.19949035346508026
17 252 0.9528489708900452
17 253 0.9582484364509583
17 254 0.20462274551391602
17 255 0.5209236741065979
18 19 0.2897418141365051
18 20 0.28770291805267334
18 21 0.2822365462779999
18 22 0.280746191740036
18 23 0.05914272740483284
18 24 0.28296831250190735
18 25 0.28580179810523987
18 27 0.28680339455604553
18 28 0.2686804234981537
18 29 0.2828291058540344
18 30 0.2822365462779999
18 31 0.28504788875579834
18 32 0.057160358875989914
18 33 0.07554494589567184
18 34 0.28710225224494934
18 35 0.2864092290401459
18 36 0.2756688892841339
18 37 0.2800133228302002
18 38 0.05174336954951286
18 39 0.24370723962783813
18 41 0.06619033217430115
18 42 0.2788526713848114
18 43 0.1552301049232483
18 44 0.28282150626182556
18 45 0.2898920178413391
18 46 0.29514357447624207
18 47 0.29327523708343506
18 48 0.2816332280635834
18 49 0.07228915393352509
18 50 0.27972182631492615
18 51 0.2710931599140167
18 52 0.2706529498100281
18 53 0.06737274676561356
18 54 0.23324216902256012
18 55 0.2871740162372589
18 56 0.11642257869243622
18 57 0.28014451265335083
18 58 0.1505584716796875
18 59 0.2799946367740631
18 60 0.2800133228302002
18 61 0.2903441786766052
18 62 0.2723569869995117
18 64 0.27661311626434326
18 66 0.2686804234981537
18 67 0.2695140540599823
18 68 0.2613389492034912
18 69 0.26597413420677185
18 70 0.2864092290401459
18 71 0.2804523706436157
18 73 0.29480668902397156
18 74 0.28444904088974
18 75 0.27661311626434326
18 76 0.2866542637348175
18 77 0.1765194535255432
18 78 0.2685411870479584
18 80 0.06774797290563583
18 82 0.0633724257349968
18 83 0.2804523706436157
18 84 0.28800463676452637
18 85 0.26895958185195923
18 86 0.2684021592140198
18 87 0.2853226959705353
18 88 0.09837710857391357
18 89 0.12272016704082489
18 90 0.18054893612861633
18 91 0.29419606924057007
18 93 0.17576348781585693
18 95 0.16719426214694977
18 98 0.27378222346305847
18 99 0.25165754556655884
18 100 0.26188167929649353
18 101 0.29236772656440735
18 102 0.2668110132217407
18 103 0.09154971688985825
18 104 0.2716526985168457
18 105 0.0798652246594429
18 106 0.2822365462779999
18 107 0.2903441786766052
18 108 0.2900424897670746
18 110 0.2825286090373993
18 111 0.2911563217639923
18 112 0.27503862977027893
18 113 0.28997108340263367
18 114 0.08449657261371613
18 115 0.26649239659309387
18 116 0.15640759468078613
18 117 0.15243293344974518
18 118 0.0532434843480587
18 120 0.27306681871414185
18 121 0.2800133228302002
18 122 0.29294681549072266
18 123 0.28296831250190735
18 124 0.2869527041912079
18 125 0.08502302318811417
18 127 0.27719244360923767
18 128 0.1402808427810669
18 129 0.13293112814426422
18 130 0.2752300500869751
18 131 0.22602596879005432
18 132 0.26771020889282227
18 133 0.27095380425453186
18 135 0.2720746397972107
18 136 0.2147686630487442
18 137 0.2825286090373993
18 138 0.2857644855976105
18 139 0.2897418141365051
18 140 0.2804523706436157
18 141 0.28025779128074646
18 142 0.2480859011411667
18 143 0.1132131889462471
18 144 0.2622711658477783
18 145 0.28194546699523926
18 146 0.2788044512271881
18 147 0.26160988211631775
18 148 0.2763248383998871
18 149 0.2652827799320221
18 151 0.2748691439628601
18 152 0.2860601842403412
18 153 0.10325752943754196
18 154 0.2851982116699219
18 155 0.2810409367084503
18 156 0.27264028787612915
18 157 0.2859122157096863
18 158 0.12418407946825027
18 159 0.2723569869995117
18 160 0.2881558835506439
18 161 0.2870398163795471
18 163 0.2724985182285309
18 164 0.2743586003780365
18 165 0.28929245471954346
18 166 0.2952708601951599
18 167 0.2781345248222351
18 168 0.2878536880016327
18 169 0.2859532833099365
18 170 0.1319202184677124
18 171 0.2736949026584625
18 172 0.29019322991371155
18 173 0.2860601842403412
18 174 0.11979784071445465
18 175 0.27969565987586975
18 176 0.2712327241897583
18 177 0.27603745460510254
18 178 0.2805991470813751
18 179 0.22640648484230042
18 180 0.2853487432003021
18 182 0.27733781933784485
18 183 0.2820909023284912
18 184 0.28148478269577026
18 185 0.2579055428504944
18 186 0.26798635721206665
18 187 0.28561702370643616
18 188 0.2898920178413391
18 189 0.2946524918079376
18 190 0.28635674715042114
18 191 0.28341010212898254
18 192 0.2696612775325775
18 193 0.2576740086078644
18 194 0.2781345248222351
18 195 0.2658354341983795
18 196 0.2934272885322571
18 197 0.27289873361587524
18 198 0.05488213151693344
18 199 0.2715117037296295
18 201 0.053639356046915054
18 202 0.28238245844841003
18 203 0.16335061192512512
18 204 0.14862151443958282
18 205 0.24532058835029602
18 206 0.20947840809822083
18 207 0.28296831250190735
18 208 0.2878536880016327
18 210 0.05404418706893921
18 211 0.0801604837179184
18 212 0.2661130726337433
18 213 0.10711894929409027
18 214 0.0937129482626915
18 215 0.08502302318811417
18 216 0.2785647511482239
18 217 0.2654206156730652
18 218 0.27136799693107605
18 219 0.2787086069583893
18 220 0.2888452112674713
18 221 0.26229095458984375
18 222 0.2800133228302002
18 223 0.2906467318534851
18 224 0.2500177025794983
18 225 0.28296831250190735
18 226 0.27596262097358704
18 227 0.2428029328584671
18 228 0.05488213151693344
18 229 0.29093217849731445
18 230 0.07792001962661743
18 231 0.280746191740036
18 232 0.2767575979232788
18 233 0.23086068034172058
18 234 0.17836691439151764
18 235 0.2788526713848114
18 236 0.25351482629776
18 237 0.2682633399963379
18 238 0.26895958185195923
18 239 0.25874650478363037
18 240 0.19388635456562042
18 241 0.28133660554885864
18 242 0.15085653960704803
18 243 0.2943447232246399
18 244 0.27618104219436646
18 245 0.2823788523674011
18 246 0.09817613661289215
18 247 0.2686804234981537
18 248 0.27208876609802246
18 250 0.2881558835506439
18 251 0.19857099652290344
18 252 0.27450326085090637
18 253 0.2804523706436157
18 254 0.06473542749881744
18 255 0.1432928442955017
19 20 0.9614713191986084
19 21 0.9684440493583679
19 22 0.9598907232284546
19 23 0.17923268675804138
19 24 0.9647308588027954
19 25 0.954484224319458
19 26 0.1586863100528717
19 27 0.962618887424469
19 28 0.9652671217918396
19 29 0.9502130150794983
19 30 0.9684440493583679
19 31 0.9592812061309814
19 32 0.24307391047477722
19 33 0.1403179168701172
19 34 0.9615431427955627
19 35 0.9575628042221069
19 36 0.9523130059242249
19 37 0.9646616578102112
19 38 0.13657543063163757
19 39 0.9533277153968811
19 40 0.23905585706233978
19 41 0.0970599353313446
19 42 0.9648038148880005
19 43 0.5254360437393188
19 44 0.9642303586006165
19 45 0.9673407077789307
19 46 0.9500301480293274
19 47 0.9658031463623047
19 48 0.9597870111465454
19 49 0.2826749384403229
19 50 0.9615805149078369
19 51 0.9685142636299133
19 52 0.959820568561554
19 53 0.4522560238838196
19 54 0.9185699820518494
19 55 0.949592113494873
19 56 0.17640994489192963
19 57 0.9501003623008728
19 58 0.6623260974884033
19 59 0.9485392570495605
19 60 0.9615431427955627
19 61 0.9646956920623779
19 62 0.9657681584358215
19 63 0.10077419877052307
19 64 0.962044894695282
19 65 0.15451745688915253
19 66 0.9642303586006165
19 67 0.9463937282562256
19 68 0.9653031229972839
19 69 0.9610047936439514
19 70 0.9533629417419434
19 71 0.9609683752059937
19 73 0.9583463072776794
19 74 0.9593513607978821
19 75 0.9630849361419678
19 76 0.9662699699401855
19 77 0.581536054611206
19 78 0.9637306332588196
19 79 0.06438227742910385
19 80 0.19868803024291992
19 81 0.07198157161474228
19 82 0.05575668811798096
19 83 0.9609683752059937
19 84 0.9603942036628723
19 85 0.9631562829017639
19 86 0.9673745632171631
19 87 0.9690129160881042
19 88 0.24317751824855804
19 89 0.12956683337688446
19 90 0.4829089045524597
19 91 0.9532934427261353
19 93 0.389180451631546
19 94 0.20883828401565552
19 95 0.4583606719970703
19 96 0.19581106305122375
19 97 0.11151337623596191
19 98 0.9593513607978821
19 99 0.9625826478004456
19 100 0.9641941785812378
19 101 0.9669467806816101
19 102 0.9567252397537231
19 103 0.12753401696681976
19 104 0.9674093723297119
19 105 0.1327274739742279
19 106 0.9674093723297119
19 107 0.9615805149078369
19 108 0.9626561403274536
19 109 0.11151337623596191
19 110 0.9663388133049011
19 111 0.9349548816680908
19 112 0.9669100642204285
19 113 0.8798943758010864
19 114 0.29736900329589844
19 115 0.9452605247497559
19 116 0.43118247389793396
19 117 0.20862242579460144
19 118 0.261551171541214
19 120 0.9610047936439514
19 121 0.9636221528053284
19 122 0.9555319547653198
19 123 0.9668055176734924
19 124 0.9641591310501099
19 125 0.24103978276252747
19 126 0.14095865190029144
19 127 0.9588484764099121
19 128 0.17044085264205933
19 129 0.5546560287475586
19 130 0.9528934955596924
19 131 0.9092479348182678
19 132 0.9690129160881042
19 133 0.9690485596656799
19 134 0.19372081756591797
19 135 0.9678756594657898
19 136 0.7397543787956238
19 137 0.9673745632171631
19 138 0.9674093723297119
19 139 0.9658031463623047
19 140 0.9588861465454102
19 141 0.9311563968658447
19 142 0.9500646591186523
19 143 0.30546414852142334
19 144 0.9390361309051514
19 145 0.9674450755119324
19 146 0.9518452286720276
19 147 0.9642303586006165
19 148 0.962081253528595
19 149 0.9657681584358215
19 151 0.9340280294418335
19 152 0.964267373085022
19 153 0.3361399471759796
19 154 0.9587414860725403
19 155 0.9577685594558716
19 156 0.962618887424469
19 157 0.9710149765014648
19 158 0.21852070093154907
19 159 0.9626561403274536
19 160 0.9629851579666138
19 161 0.9128791093826294
19 162 0.18241645395755768
19 163 0.9631562829017639
19 164 0.9571912884712219
19 165 0.9674093723297119
19 166 0.9567252397537231
19 167 0.9685142636299133
19 168 0.9588484764099121
19 169 0.9560384154319763
19 170 0.33034399151802063
19 171 0.9484289884567261
19 172 0.9631562829017639
19 173 0.964267373085022
19 174 0.23422494530677795
19 175 0.9496297240257263
19 176 0.9690129160881042
19 177 0.9652321338653564
19 178 0.9614713191986084
19 179 0.8293890357017517
19 180 0.956109344959259
19 181 0.3283449411392212
19 182 0.9603942036628723
19 183 0.9669100642204285
19 184 0.956146240234375
19 185 0.9580725431442261
19 186 0.9679441452026367
19 187 0.9679441452026367
19 188 0.9652671217918396
19 189 0.9588861465454102
19 190 0.9683775305747986
19 191 0.9641591310501099
19 192 0.9604661464691162
19 193 0.9648038148880005
19 194 0.9674817323684692
19 195 0.9615431427955627
19 196 0.9652671217918396
19 197 0.9380037188529968
19 198 0.12071677297353745
19 199 0.9534364342689514
19 200 0.17640994489192963
19 201 0.25956305861473083
19 202 0.9648038148880005
19 203 0.3857749402523041
19 204 0.49134448170661926
19 205 0.8880890011787415
19 206 0.5454668402671814
19 207 0.9636934399604797
19 208 0.9598907232284546
19 209 0.05575668811798096
19 210 0.24170978367328644
19 211 0.17631812393665314
19 212 0.9625473618507385
19 213 0.32357797026634216
19 214 0.3922671675682068
19 215 0.12467575073242188
19 216 0.9669100642204285
19 217 0.9641941785812378
19 218 0.9560733437538147
19 219 0.9684440493583679
19 220 0.9690129160881042
19 221 0.9636221528053284
19 222 0.9625826478004456
19 223 0.965701162815094
19 224 0.8647577166557312
19 225 0.9626561403274536
19 226 0.9501744508743286
19 227 0.9560733437538147
19 228 0.2535052001476288
19 229 0.9342890381813049
19 230 0.3570626974105835
19 231 0.9578062295913696
19 232 0.9604661464691162
19 233 0.7792544364929199
19 234 0.24948132038116455
19 235 0.9658389687538147
19 236 0.9571204781532288
19 237 0.9699797630310059
19 238 0.9652321338653564
19 239 0.9605036377906799
19 240 0.5484438538551331
19 241 0.9587761759757996
19 242 0.3825674057006836
19 243 0.9662050008773804
19 244 0.9636573195457458
19 245 0.9560384154319763
19 246 0.12956683337688446
19 247 0.9663039445877075
19 248 0.9565128684043884
19 249 0.14095865190029144
19 250 0.9598551392555237
19 251 0.19897285103797913
19 252 0.9545593857765198
19 253 0.9599272608757019
19 254 0.21358460187911987
19 255 0.5214825868606567
20 21 0.9631005525588989
20 22 0.9533788561820984
20 23 0.17435672879219055
20 24 0.9593409299850464
20 25 0.9499896168708801
20 26 0.17723886668682098
20 27 0.9561633467674255
20 28 0.9598855376243591
20 29 0.9488424062728882
20 30 0.9662207365036011
20 31 0.9569375514984131
20 32 0.24013040959835052
20 33 0.14105066657066345
20 34 0.9550700187683105
20 35 0.9446206092834473
20 36 0.9446206092834473
20 37 0.9561149477958679
20 38 0.1372886300086975
20 39 0.9466837048530579
20 40 0.24444739520549774
20 41 0.10732346028089523
20 42 0.9594359993934631
20 43 0.5319933891296387
20 44 0.9609277248382568
20 45 0.9598855376243591
20 46 0.9411967992782593
20 47 0.959388017654419
20 48 0.9532381892204285
20 49 0.29125481843948364
20 50 0.9582510590553284
20 51 0.9631926417350769
20 52 0.9532841444015503
20 53 0.45682457089424133
20 54 0.9135436415672302
20 55 0.9450265169143677
20 56 0.18305151164531708
20 57 0.942355751991272
20 58 0.6566014289855957
20 59 0.9429099559783936
20 60 0.9582048654556274
20 61 0.957207202911377
20 62 0.9593409299850464
20 63 0.1302434355020523
20 64 0.9576593637466431
20 65 0.15532435476779938
20 66 0.9598855376243591
20 67 0.9407418966293335
20 68 0.9599325060844421
20 69 0.9587048292160034
20 70 0.949897825717926
20 71 0.9555208086967468
20 72 0.07235746085643768
20 73 0.9528795480728149
20 74 0.9528307318687439
20 75 0.9597502946853638
20 76 0.9598394632339478
20 77 0.5672264099121094
20 78 0.9604296684265137
20 79 0.06471847742795944
20 80 0.19972556829452515
20 81 0.07235746085643768
20 82 0.056047845631837845
20 83 0.9565674066543579
20 84 0.9538789391517639
20 85 0.9619261026382446
20 86 0.9588913321495056
20 87 0.9626500606536865
20 88 0.24444739520549774
20 89 0.13747917115688324
20 90 0.46839797496795654
20 91 0.9455791711807251
20 92 0.06471847742795944
20 93 0.3963943421840668
20 94 0.21469992399215698
20 95 0.4543251097202301
20 96 0.1915137618780136
20 97 0.11209569126367569
20 98 0.9528307318687439
20 99 0.9571599364280701
20 100 0.9577528834342957
20 101 0.9626500606536865
20 102 0.9512335062026978
20 103 0.13494735956192017
20 104 0.9610204100608826
20 105 0.11772403120994568
20 106 0.9599803686141968
20 107 0.9582510590553284
20 108 0.9593409299850464
20 109 0.1027543917298317
20 110 0.9599325060844421
20 111 0.9289719462394714
20 112 0.9615639448165894
20 113 0.8799299001693726
20 114 0.33005955815315247
20 115 0.9406415820121765
20 116 0.44035059213638306
20 117 0.1847461313009262
20 118 0.2668411433696747
20 120 0.9555683732032776
20 121 0.9582048654556274
20 122 0.9510428309440613
20 123 0.9593409299850464
20 124 0.9566612839698792
20 125 0.22141067683696747
20 126 0.15518946945667267
20 127 0.9523311853408813
20 128 0.17133089900016785
20 129 0.5379579067230225
20 130 0.9462780952453613
20 131 0.900669276714325
20 132 0.9647269248962402
20 133 0.9626975655555725
20 134 0.1947324126958847
20 135 0.9604296684265137
20 136 0.7395758628845215
20 137 0.9609736204147339
20 138 0.9610204100608826
20 139 0.959388017654419
20 140 0.9544742703437805
20 141 0.9186248183250427
20 142 0.9465462565422058
20 143 0.28703367710113525
20 144 0.9299792647361755
20 145 0.9621071219444275
20 146 0.9515469074249268
20 147 0.9598855376243591
20 148 0.9577056169509888
20 149 0.9593409299850464
20 151 0.9259401559829712
20 152 0.9599325060844421
20 153 0.3287629187107086
20 154 0.9532381892204285
20 155 0.9512335062026978
20 156 0.9582510590553284
20 157 0.9625577926635742
20 158 0.21508552134037018
20 159 0.957255482673645
20 160 0.9522823095321655
20 161 0.90555739402771
20 162 0.18876221776008606
20 163 0.9608827829360962
20 164 0.9506349563598633
20 165 0.9599803686141968
20 166 0.9554286003112793
20 167 0.9642305374145508
20 168 0.9533788561820984
20 169 0.9473318457603455
20 170 0.32608577609062195
20 171 0.9427649974822998
20 172 0.9587961435317993
20 173 0.9620147347450256
20 174 0.25506874918937683
20 175 0.9482458233833313
20 176 0.9626500606536865
20 177 0.9567095637321472
20 178 0.9560209512710571
20 179 0.8264387249946594
20 180 0.9526897668838501
20 181 0.32071825861930847
20 182 0.9517825245857239
20 183 0.9605243802070618
20 184 0.95168536901474
20 185 0.948291540145874
20 186 0.9615639448165894
20 187 0.9605243802070618
20 188 0.9588432908058167
20 189 0.9555208086967468
20 190 0.9598855376243591
20 191 0.9566612839698792
20 192 0.9539754390716553
20 193 0.9594359993934631
20 194 0.9642305374145508
20 195 0.9550700187683105
20 196 0.9619699716567993
20 197 0.9300294518470764
20 198 0.12134714424610138
20 199 0.948936402797699
20 200 0.1716107875108719
20 201 0.24115194380283356
20 202 0.9635984301567078
20 203 0.4080659747123718
20 204 0.4998849630355835
20 205 0.8927266001701355
20 206 0.5501865744590759
20 207 0.9593409299850464
20 208 0.9596649408340454
20 209 0.056047845631837845
20 210 0.24695512652397156
20 211 0.1654229313135147
20 212 0.9592055678367615
20 213 0.31579384207725525
20 214 0.4118964970111847
20 215 0.12532679736614227
20 216 0.9615639448165894
20 217 0.9577528834342957
20 218 0.9473815560340881
20 219 0.9610204100608826
20 220 0.9636884927749634
20 221 0.9550700187683105
20 222 0.9582048654556274
20 223 0.9571599364280701
20 224 0.8482142686843872
20 225 0.957255482673645
20 226 0.9477402567863464
20 227 0.9505395293235779
20 228 0.2548289895057678
20 229 0.9348794221878052
20 230 0.35031306743621826
20 231 0.9533788561820984
20 232 0.9560675024986267
20 233 0.7769030928611755
20 234 0.2548289895057678
20 235 0.9604765772819519
20 236 0.9515921473503113
20 237 0.9635984301567078
20 238 0.9587961435317993
20 239 0.9561149477958679
20 240 0.527337908744812
20 241 0.9543339610099792
20 242 0.3924134075641632
20 243 0.9618412256240845
20 244 0.9561633467674255
20 245 0.9494393467903137
20 246 0.13747917115688324
20 247 0.9578010439872742
20 248 0.9477869868278503
20 249 0.15518946945667267
20 250 0.9564773440361023
20 251 0.21464692056179047
20 252 0.952187180519104
20 253 0.9576139450073242
20 254 0.20515771210193634
20 255 0.5165250897407532
21 22 0.9615238904953003
21 23 0.17895472049713135
21 24 0.9642704129219055
21 25 0.9550961256027222
21 26 0.17604470252990723
21 27 0.9652733206748962
21 28 0.9679110050201416
21 29 0.9592227935791016
21 30 0.9721074104309082
21 31 0.9577935338020325
21 32 0.24269694089889526
21 33 0.13272660970687866
21 34 0.9642035365104675
21 35 0.9518845081329346
21 36 0.958174467086792
21 37 0.9662793874740601
21 38 0.13636362552642822
21 39 0.9539481997489929
21 40 0.23868514597415924
21 41 0.10660036653280258
21 42 0.9674419164657593
21 43 0.5321969389915466
21 44 0.9648053646087646
21 45 0.9668757319450378
21 46 0.947502851486206
21 47 0.9653400182723999
21 48 0.9582985639572144
21 49 0.2857644855976105
21 50 0.9673469662666321
21 51 0.9690742492675781
21 52 0.9583321213722229
21 53 0.4493626356124878
21 54 0.9279865026473999
21 55 0.9512727856636047
21 56 0.1818181723356247
21 57 0.9496785998344421
21 58 0.6597786545753479
21 59 0.9523239135742188
21 60 0.9631656408309937
21 61 0.9642365574836731
21 62 0.9653061628341675
21 63 0.1149919182062149
21 64 0.9647066593170166
21 65 0.1607060730457306
21 66 0.9668757319450378
21 67 0.9543964266777039
21 68 0.9689767360687256
21 69 0.9626297950744629
21 70 0.9560778141021729
21 71 0.9636362195014954
21 72 0.07186995446681976
21 73 0.9620605111122131
21 74 0.9599459767341614
21 75 0.9636682271957397
21 76 0.9668440222740173
21 77 0.5754653811454773
21 78 0.9684440493583679
21 79 0.06428243219852448
21 80 0.20333939790725708
21 81 0.07186995446681976
21 83 0.9615572094917297
21 84 0.9609870910644531
21 85 0.9647715091705322
21 86 0.9669085144996643
21 87 0.9695731401443481
21 88 0.23456989228725433
21 89 0.12217891216278076
21 90 0.4842747449874878
21 91 0.9528656601905823
21 93 0.39372363686561584
21 94 0.20851440727710724
21 95 0.4810645282268524
21 96 0.19550737738609314
21 97 0.09278370440006256
21 98 0.9589048027992249
21 99 0.9631656408309937
21 100 0.9647715091705322
21 101 0.9706045985221863
21 102 0.9583665728569031
21 103 0.1407400518655777
21 104 0.969008207321167
21 105 0.1325216293334961
21 106 0.9669421315193176
21 107 0.9694206118583679
21 108 0.9653061628341675
21 109 0.11134044080972672
21 110 0.9669085144996643
21 111 0.9302673935890198
21 112 0.9685081243515015
21 113 0.8887189030647278
21 114 0.32783573865890503
21 115 0.9490671753883362
21 116 0.4419635832309723
21 117 0.18846091628074646
21 118 0.253350168466568
21 120 0.961591362953186
21 121 0.9631656408309937
21 122 0.956142246723175
21 123 0.9663418531417847
21 124 0.9637011885643005
21 125 0.244815394282341
21 126 0.14744195342063904
21 127 0.9636051654815674
21 128 0.17604470252990723
21 129 0.5644116997718811
21 130 0.9566490650177002
21 131 0.906734824180603
21 132 0.9695731401443481
21 133 0.9706369042396545
21 134 0.20829890668392181
21 135 0.9684440493583679
21 136 0.7399451732635498
21 137 0.9700108170509338
21 138 0.9679751992225647
21 139 0.9653400182723999
21 140 0.9636362195014954
21 141 0.9264729619026184
21 142 0.9485912919044495
21 143 0.3083055317401886
21 144 0.9386464953422546
21 145 0.9700728058815002
21 146 0.9535091519355774
21 147 0.9668757319450378
21 148 0.9626638889312744
21 149 0.9653061628341675
21 151 0.9357990026473999
21 152 0.9669085144996643
21 153 0.33561867475509644
21 154 0.9593424201011658
21 155 0.9583665728569031
21 156 0.9642365574836731
21 157 0.9684755206108093
21 158 0.2181818038225174
21 159 0.9653061628341675
21 160 0.9594083428382874
21 161 0.9158297181129456
21 162 0.18213355541229248
21 163 0.9647715091705322
21 164 0.9598802328109741
21 165 0.9669421315193176
21 166 0.9604499936103821
21 167 0.9701051115989685
21 168 0.9615238904953003
21 169 0.9566490650177002
21 170 0.32983168959617615
21 171 0.9522308111190796
21 172 0.9678803086280823
21 173 0.9658743143081665
21 174 0.24945247173309326
21 175 0.9513070583343506
21 176 0.9706045985221863
21 177 0.9647715091705322
21 178 0.9620605111122131
21 179 0.8353351354598999
21 180 0.9577599763870239
21 181 0.315464586019516
21 182 0.9589048027992249
21 183 0.9674755930900574
21 184 0.9588368535041809
21 185 0.9565867185592651
21 186 0.9685081243515015
21 187 0.9674755930900574
21 188 0.9648053646087646
21 189 0.9605176448822021
21 190 0.9648053646087646
21 191 0.9626638889312744
21 192 0.9620936512947083
21 193 0.9674419164657593
21 194 0.9711360335350037
21 195 0.9662793874740601
21 196 0.9658405184745789
21 197 0.9397454261779785
21 198 0.12856486439704895
21 199 0.9571883082389832
21 200 0.17045453190803528
21 201 0.24738050997257233
21 202 0.966408371925354
21 203 0.4078340530395508
21 204 0.49651697278022766
21 205 0.8945687413215637
21 206 0.544620931148529
21 207 0.9673776030540466
21 208 0.9604833126068115
21 209 0.05567022040486336
21 210 0.24924755096435547
21 211 0.17604470252990723
21 212 0.9620936512947083
21 213 0.3199394643306732
21 214 0.3966481387615204
21 215 0.12448239326477051
21 216 0.9695407152175903
21 217 0.9647715091705322
21 218 0.9545906782150269
21 219 0.9679751992225647
21 220 0.9695731401443481
21 221 0.9631656408309937
21 222 0.9642035365104675
21 223 0.9631656408309937
21 224 0.854120135307312
21 225 0.9653061628341675
21 226 0.950799822807312
21 227 0.9556362628936768
21 228 0.2571297287940979
21 229 0.9402943253517151
21 230 0.3622131049633026
21 231 0.9615238904953003
21 232 0.9610546827316284
21 233 0.7882499098777771
21 234 0.2571297287940979
21 235 0.9674419164657593
21 236 0.9556362628936768
21 237 0.9695091247558594
21 238 0.9668440222740173
21 239 0.9631656408309937
21 240 0.5567504167556763
21 241 0.9572893381118774
21 242 0.38976946473121643
21 243 0.9636682271957397
21 244 0.9642365574836731
21 245 0.957695722579956
21 246 0.12217891216278076
21 247 0.9658405184745789
21 248 0.9529328346252441
21 249 0.15414386987686157
21 250 0.9583665728569031
21 251 0.20835524797439575
21 252 0.9572546482086182
21 253 0.9625967144966125
21 254 0.20377543568611145
21 255 0.5244883298873901
22 23 0.16281822323799133
22 24 0.9588003158569336
22 25 0.947326123714447
22 26 0.17142066359519958
22 27 0.9587531089782715
22 28 0.9603884816169739
22 29 0.9461715817451477
22 30 0.9604833126068115
22 31 0.9500820636749268
22 32 0.22761115431785583
22 33 0.12626934051513672
22 34 0.9639343023300171
22 35 0.9472275376319885
22 36 0.9546195268630981
22 37 0.9566159248352051
22 38 0.12209827452898026
22 39 0.9450654983520508
22 40 0.23213942348957062
22 41 0.10737969726324081
22 42 0.9630621671676636
22 43 0.5151020884513855
22 44 0.9572601318359375
22 45 0.9593456387519836
22 46 0.9395666718482971
22 47 0.9609329700469971
22 48 0.9495315551757812
22 49 0.29140743613243103
22 50 0.9577087163925171
22 51 0.9647358059883118
22 52 0.9558843970298767
22 53 0.45927193760871887
22 54 0.916206419467926
22 55 0.942345142364502
22 56 0.1545306295156479
22 57 0.9428495168685913
22 58 0.6477574110031128
22 59 0.944462776184082
22 60 0.9576614499092102
22 61 0.9577087163925171
22 62 0.9577570557594299
22 63 0.14479075372219086
22 64 0.9581611156463623
22 65 0.1618809700012207
22 66 0.9603884816169739
22 67 0.9465345144271851
22 68 0.9604353904724121
22 69 0.9550230503082275
22 70 0.9493395686149597
22 71 0.9560214877128601
22 72 0.07239537686109543
22 73 0.9596649408340454
22 74 0.9575250744819641
22 75 0.9612991809844971
22 76 0.9603423476219177
22 77 0.574465811252594
22 78 0.9619751572608948
22 79 0.06475239247083664
22 80 0.19983021914958954
22 81 0.07239537686109543
22 83 0.954974353313446
22 84 0.9522812366485596
22 85 0.9572108387947083
22 86 0.9614771008491516
22 87 0.9652323722839355
22 88 0.24043011665344238
22 89 0.14479075372219086
22 90 0.4729038178920746
22 91 0.9450164437294006
22 92 0.06475239247083664
22 93 0.39400988817214966
22 94 0.21958604454994202
22 95 0.45885151624679565
22 96 0.19161410629749298
22 97 0.0934620276093483
22 98 0.9522812366485596
22 99 0.9597523808479309
22 100 0.9582546949386597
22 101 0.9631544351577759
22 102 0.9548798203468323
22 103 0.14176897704601288
22 104 0.9615238904953003
22 105 0.12563809752464294
22 106 0.9615238904953003
22 107 0.9566643834114075
22 108 0.9567137360572815
22 109 0.0934620276093483
22 110 0.9593937397003174
22 111 0.9175007939338684
22 112 0.9620677828788757
22 113 0.8701273202896118
22 114 0.333347886800766
22 115 0.9443212151527405
22 116 0.4244343340396881
22 117 0.2048259675502777
22 118 0.25520238280296326
22 120 0.9539769887924194
22 121 0.9597523808479309
22 122 0.9494335651397705
22 123 0.9577570557594299
22 124 0.9561175107955933
22 125 0.24242542684078217
22 126 0.14176897704601288
22 127 0.9517819881439209
22 128 0.16550961136817932
22 129 0.5507155060768127
22 130 0.9467739462852478
22 131 0.9000300168991089
22 132 0.9631544351577759
22 133 0.9642398953437805
22 134 0.19983021914958954
22 135 0.9588484764099121
22 136 0.7453547716140747
22 137 0.9625187516212463
22 138 0.9625645875930786
22 139 0.9588484764099121
22 140 0.9560214877128601
22 141 0.9191060662269592
22 142 0.9428001046180725
22 143 0.30388084053993225
22 144 0.928317666053772
22 145 0.9636507630348206
22 146 0.9562627673149109
22 147 0.9593456387519836
22 148 0.9571624994277954
22 149 0.9588003158569336
22 151 0.9296683073043823
22 152 0.9614771008491516
22 153 0.30152395367622375
22 154 0.9537376761436462
22 155 0.9527812004089355
22 156 0.9587531089782715
22 157 0.9620209336280823
22 158 0.21519821882247925
22 159 0.9619302749633789
22 160 0.9538305401802063
22 161 0.9071314334869385
22 162 0.1834651082754135
22 163 0.9582546949386597
22 164 0.9521840214729309
22 165 0.9625645875930786
22 166 0.9559292197227478
22 167 0.9678512215614319
22 168 0.9517819881439209
22 169 0.9499368667602539
22 170 0.320270299911499
22 171 0.9421967267990112
22 172 0.9603423476219177
22 173 0.9604353904724121
22 174 0.26698094606399536
22 175 0.9455696940422058
22 176 0.9631544351577759
22 177 0.9572108387947083
22 178 0.9544265866279602
22 179 0.8293001055717468
22 180 0.9510847926139832
22 181 0.3208862841129303
22 182 0.9522812366485596
22 183 0.9599875807762146
22 184 0.9521840214729309
22 185 0.9477317333221436
22 186 0.9631078243255615
22 187 0.9620677828788757
22 188 0.96247398853302
22 189 0.9539272785186768
22 190 0.958302915096283
22 191 0.9571624994277954
22 192 0.9534287452697754
22 193 0.9609798192977905
22 194 0.9647358059883118
22 195 0.9566159248352051
22 196 0.958302915096283
22 197 0.9337366223335266
22 198 0.12950478494167328
22 199 0.9462723731994629
22 200 0.17170070111751556
22 201 0.23336753249168396
22 202 0.9620209336280823
22 203 0.39052852988243103
22 204 0.49416905641555786
22 205 0.890933096408844
22 206 0.5298789143562317
22 207 0.9588003158569336
22 208 0.9549266695976257
22 210 0.2550550103187561
22 211 0.17142066359519958
22 212 0.9544752836227417
22 213 0.32543811202049255
22 214 0.4045737087726593
22 215 0.10867346078157425
22 216 0.9641479253768921
22 217 0.9582546949386597
22 218 0.951037585735321
22 219 0.9625645875930786
22 220 0.9621154069900513
22 221 0.9566159248352051
22 222 0.9576614499092102
22 223 0.9566159248352051
22 224 0.852170467376709
22 225 0.9588003158569336
22 226 0.9482368230819702
22 227 0.9478779435157776
22 228 0.23877444863319397
22 229 0.936441957950592
22 230 0.3447507321834564
22 231 0.959119439125061
22 232 0.9544752836227417
22 233 0.7824493050575256
22 234 0.24686849117279053
22 235 0.9641032814979553
22 236 0.9478779435157776
22 237 0.9609798192977905
22 238 0.9561669826507568
22 239 0.9587069153785706
22 240 0.5515967011451721
22 241 0.9516826868057251
22 242 0.3952364921569824
22 243 0.9539769887924194
22 244 0.9577087163925171
22 245 0.9478282332420349
22 246 0.11583259701728821
22 247 0.9614312052726746
22 248 0.9461715817451477
22 249 0.1552707850933075
22 250 0.9569784998893738
22 251 0.20011669397354126
22 252 0.952686071395874
22 253 0.9560214877128601
22 254 0.21003882586956024
22 255 0.5187169313430786
23 24 0.1562678962945938
23 25 0.1812152862548828
23 27 0.16222414374351501
23 28 0.16197150945663452
23 29 0.16402621567249298
23 30 0.1674092561006546
23 31 0.15741634368896484
23 32 0.18706093728542328
23 34 0.1623932123184204
23 35 0.16988429427146912
23 36 0.1523100584745407
23 37 0.16819296777248383
23 39 0.17592962086200714
23 40 0.09198441356420517
23 42 0.16749580204486847
23 43 0.07408340275287628
23 44 0.17932561039924622
23 45 0.16775621473789215
23 46 0.1766846925020218
23 47 0.1561058759689331
23 48 0.18083257973194122
23 50 0.16801786422729492
23 51 0.17282527685165405
23 52 0.16898779571056366
23 54 0.15144839882850647
23 55 0.17033793032169342
23 56 0.09525009244680405
23 57 0.1645522117614746
23 58 0.08495039492845535
23 59 0.17033793032169342
23 60 0.17399272322654724
23 61 0.1506367027759552
23 62 0.17941869795322418
23 64 0.1682807356119156
23 66 0.16775621473789215
23 67 0.1646403819322586
23 68 0.1733611673116684
23 69 0.17988631129264832
23 70 0.17574237287044525
23 71 0.18007436394691467
23 73 0.15692105889320374
23 74 0.1454496532678604
23 75 0.17408351600170135
23 76 0.17372122406959534
23 77 0.11553425341844559
23 78 0.16188758611679077
23 83 0.174265518784523
23 84 0.18035757541656494
23 85 0.1679305136203766
23 86 0.1791398823261261
23 87 0.17291425168514252
23 90 0.07090296596288681
23 91 0.17611747980117798
23 94 0.07944406569004059
23 95 0.11894651502370834
23 96 0.08858078718185425
23 98 0.17453959584236145
23 99 0.17399272322654724
23 100 0.1795119345188141
23 101 0.1613866239786148
23 102 0.18045228719711304
23 104 0.17318198084831238
23 106 0.16163651645183563
23 107 0.16801786422729492
23 108 0.1736309975385666
23 110 0.1675824671983719
23 111 0.18694722652435303
23 112 0.16732284426689148
23 113 0.15183183550834656
23 114 0.05184758082032204
23 115 0.1532091349363327
23 116 0.1663525253534317
23 120 0.1682807356119156
23 121 0.16819296777248383
23 122 0.16952398419380188
23 123 0.17941869795322418
23 124 0.17390207946300507
23 127 0.1453734040260315
23 128 0.06558258086442947
23 129 0.06920862942934036
23 130 0.1637651026248932
23 131 0.13560883700847626
23 132 0.17867805063724518
23 133 0.17849433422088623
23 134 0.05542739853262901
23 135 0.17345097661018372
23 136 0.1121559888124466
23 137 0.1675824671983719
23 138 0.17318198084831238
23 139 0.16188758611679077
23 140 0.16845667362213135
23 141 0.16895082592964172
23 142 0.1764950156211853
23 143 0.11114923655986786
23 144 0.16689151525497437
23 145 0.1672365814447403
23 146 0.13452133536338806
23 147 0.17932561039924622
23 148 0.15651187300682068
23 149 0.1736309975385666
23 151 0.1619148552417755
23 152 0.1791398823261261
23 154 0.16333265602588654
23 155 0.16881020367145538
23 156 0.17960530519485474
23 157 0.16172008216381073
23 158 0.07620007544755936
23 159 0.167843297123909
23 160 0.16881020367145538
23 161 0.1585926115512848
23 162 0.05986843258142471
23 163 0.1795119345188141
23 164 0.1690768152475357
23 165 0.16163651645183563
23 166 0.1746312379837036
23 167 0.16706442832946777
23 168 0.18026302754878998
23 169 0.18131135404109955
23 171 0.1826724410057068
23 172 0.1795119345188141
23 173 0.1675824671983719
23 175 0.1760234832763672
23 176 0.16715043783187866
23 177 0.1795119345188141
23 178 0.18016862869262695
23 179 0.1616574078798294
23 180 0.16925525665283203
23 181 0.06913010776042938
23 182 0.18035757541656494
23 183 0.17309260368347168
23 184 0.16324657201766968
23 185 0.16411353647708893
23 186 0.16732284426689148
23 187 0.17886234819889069
23 188 0.17932561039924622
23 189 0.1626478135585785
23 190 0.1735409051179886
23 191 0.17969882488250732
23 192 0.17998027801513672
23 193 0.155944362282753
23 194 0.17858612537384033
23 195 0.17399272322654724
23 196 0.17932561039924622
23 197 0.13693873584270477
23 199 0.15783266723155975
23 202 0.16172008216381073
23 203 0.11254218220710754
23 204 0.0663236528635025
23 205 0.156802237033844
23 206 0.11425527185201645
23 207 0.1736309975385666
23 208 0.16281822323799133
23 209 0.20739035308361053
23 212 0.1741744577884674
23 213 0.1402214616537094
23 214 0.09758052229881287
23 216 0.15001358091831207
23 217 0.17372122406959534
23 218 0.15774913132190704
23 219 0.1674092561006546
23 220 0.1613866239786148
23 221 0.1623932123184204
23 222 0.16819296777248383
23 223 0.17979247868061066
23 224 0.13636651635169983
23 225 0.1736309975385666
23 226 0.1817939430475235
23 227 0.16359169781208038
23 228 0.08980264514684677
23 229 0.1785176694393158
23 230 0.11156175285577774
23 231 0.1570032835006714
23 232 0.17998027801513672
23 233 0.12829354405403137
23 235 0.16749580204486847
23 236 0.1519065797328949
23 237 0.1732715219259262
23 238 0.17372122406959534
23 239 0.17399272322654724
23 240 0.14327546954154968
23 241 0.16316063702106476
23 242 0.05808091536164284
23 243 0.1682807356119156
23 244 0.17381158471107483
23 245 0.17546260356903076
23 247 0.17932561039924622
23 248 0.16988429427146912
23 250 0.16881020367145538
23 251 0.0812295526266098
23 252 0.17499926686286926
23 253 0.174265518784523
23 254 0.052962712943553925
23 255 0.06394568085670471
24 25 0.9575724601745605
24 26 0.1470842808485031
24 27 0.9636179804801941
24 28 0.9631552696228027
24 29 0.9522503018379211
24 30 0.9673776030540466
24 31 0.9560925364494324
24 32 0.24332618713378906
24 33 0.13307073712348938
24 34 0.959419310092926
24 35 0.9533013701438904
24 36 0.9522503018379211
24 37 0.9604598879814148
24 38 0.1291217803955078
24 39 0.9532648921012878
24 40 0.24755585193634033
24 41 0.09716066718101501
24 42 0.965805172920227
24 43 0.5240825414657593
24 44 0.9641931653022766
24 45 0.9641931653022766
24 46 0.9510161280632019
24 47 0.9626561403274536
24 48 0.9576432704925537
24 49 0.28296831250190735
24 50 0.9646574854850769
24 51 0.9684858918190002
24 52 0.9587256908416748
24 53 0.4439345896244049
24 54 0.9184364676475525
24 55 0.9474160671234131
24 56 0.1481102854013443
24 57 0.9468687176704407
24 58 0.6645376086235046
24 59 0.951631486415863
24 60 0.959419310092926
24 61 0.9615389704704285
24 62 0.9636552333831787
24 63 0.1369069367647171
24 64 0.9599199295043945
24 65 0.14823293685913086
24 66 0.9631552696228027
24 67 0.9494858980178833
24 68 0.9663049578666687
24 69 0.9599199295043945
24 70 0.9543524384498596
24 71 0.9609235525131226
24 72 0.05764502286911011
24 73 0.9582982063293457
24 74 0.960347056388855
24 75 0.9630433320999146
24 76 0.9631170034408569
24 77 0.5769573450088501
24 78 0.9657681584358215
24 79 0.06444909423589706
24 80 0.20386658608913422
24 81 0.07205627858638763
24 82 0.055814556777477264
24 83 0.9609235525131226
24 84 0.960347056388855
24 85 0.9631170034408569
24 86 0.9642313718795776
24 87 0.9679503440856934
24 88 0.22280025482177734
24 89 0.1369069367647171
24 90 0.4812898635864258
24 91 0.9521762728691101
24 92 0.06444909423589706
24 93 0.3766842186450958
24 94 0.2043037712574005
24 95 0.4716411828994751
24 96 0.19071660935878754
24 97 0.10232669115066528
24 98 0.9593032002449036
24 99 0.9646222591400146
24 100 0.961039125919342
24 101 0.9658820629119873
24 102 0.9577181935310364
24 103 0.15454350411891937
24 104 0.9653061628341675
24 105 0.10941840708255768
24 106 0.9694491028785706
24 107 0.9615389704704285
24 108 0.9636552333831787
24 109 0.10232669115066528
24 110 0.9642313718795776
24 111 0.9240233302116394
24 112 0.9689487814903259
24 113 0.8842127919197083
24 114 0.3162824809551239
24 115 0.9462416172027588
24 116 0.43622177839279175
24 117 0.19392186403274536
24 118 0.2618226110935211
24 120 0.9630433320999146
24 121 0.9615004658699036
24 122 0.955474853515625
24 123 0.9657320976257324
24 124 0.960999608039856
24 125 0.24128994345664978
24 126 0.15454350411891937
24 127 0.9608869552612305
24 128 0.17061775922775269
24 129 0.5711967945098877
24 130 0.9559813141822815
24 131 0.9002381563186646
24 132 0.9658820629119873
24 133 0.969021201133728
24 134 0.1839771568775177
24 135 0.9668055176734924
24 136 0.7499127984046936
24 137 0.9663049578666687
24 138 0.9653061628341675
24 139 0.9626561403274536
24 140 0.9588391184806824
24 141 0.9364532828330994
24 142 0.9457729458808899
24 143 0.28916263580322266
24 144 0.9314554333686829
24 145 0.9653451442718506
24 146 0.9528331756591797
24 147 0.9673068523406982
24 148 0.9599595665931702
24 149 0.9626168012619019
24 151 0.9263898730278015
24 152 0.9663049578666687
24 153 0.3304259181022644
24 154 0.9576432704925537
24 155 0.956673800945282
24 156 0.9636179804801941
24 157 0.9678776860237122
24 158 0.19596129655838013
24 159 0.9626168012619019
24 160 0.956673800945282
24 161 0.9127321839332581
24 162 0.18797652423381805
24 163 0.9620780944824219
24 164 0.9560925364494324
24 165 0.9663418531417847
24 166 0.9577181935310364
24 167 0.9664187431335449
24 168 0.959843635559082
24 169 0.9528331756591797
24 170 0.3396243453025818
24 171 0.9441271424293518
24 172 0.9631170034408569
24 173 0.9631944894790649
24 174 0.2540070414543152
24 175 0.9495626091957092
24 176 0.9658820629119873
24 177 0.961039125919342
24 178 0.957255482673645
24 179 0.8326668739318848
24 180 0.9581487774848938
24 181 0.32558491826057434
24 182 0.9613909721374512
24 183 0.9679136276245117
24 184 0.9560925364494324
24 185 0.9517056345939636
24 186 0.966878354549408
24 187 0.965843141078949
24 188 0.9631552696228027
24 189 0.9650924205780029
24 190 0.9631552696228027
24 191 0.9641197323799133
24 192 0.9583380222320557
24 193 0.9689139723777771
24 194 0.9684858918190002
24 195 0.9625411033630371
24 196 0.9641931653022766
24 197 0.9411136507987976
24 198 0.11278592050075531
24 199 0.9533771872520447
24 200 0.18228958547115326
24 201 0.2598324418067932
24 202 0.9647688865661621
24 203 0.37355518341064453
24 204 0.4938376843929291
24 205 0.8890107870101929
24 206 0.5180791020393372
24 207 0.9626168012619019
24 208 0.9619302749633789
24 209 0.055814556777477264
24 210 0.22609436511993408
24 211 0.1588510125875473
24 212 0.9593797326087952
24 213 0.31762418150901794
24 214 0.3976765275001526
24 215 0.11648479849100113
24 216 0.966878354549408
24 217 0.9620780944824219
24 218 0.9549691081047058
24 219 0.9684134125709534
24 220 0.9689844846725464
24 221 0.9625411033630371
24 222 0.9646222591400146
24 223 0.9625411033630371
24 224 0.874975860118866
24 225 0.9615784287452698
24 226 0.9490562677383423
24 227 0.9518243074417114
24 228 0.23362797498703003
24 229 0.9363263845443726
24 230 0.33455756306648254
24 231 0.9588003158569336
24 232 0.9604213833808899
24 233 0.7736693024635315
24 234 0.24571219086647034
24 235 0.9647688865661621
24 236 0.9549691081047058
24 237 0.9647688865661621
24 238 0.9620780944824219
24 239 0.9625411033630371
24 240 0.5453407764434814
24 241 0.9566347002983093
24 242 0.3803592622280121
24 243 0.962002158164978
24 244 0.9604994654655457
24 245 0.9559813141822815
24 246 0.14411255717277527
24 247 0.9631552696228027
24 248 0.9522503018379211
24 249 0.15454350411891937
24 250 0.958762526512146
24 251 0.19917936623096466
24 252 0.9555500745773315
24 253 0.9609235525131226
24 254 0.21380627155303955
24 255 0.5067264437675476
25 26 0.1544993817806244
25 27 0.9512190222740173
25 28 0.9539307951927185
25 29 0.9384309649467468
25 30 0.9540500640869141
25 31 0.9477052688598633
25 32 0.24152542650699615
25 33 0.14187008142471313
25 34 0.9522103071212769
25 35 0.941615641117096
25 36 0.9384309649467468
25 37 0.9501083493232727
25 38 0.13041473925113678
25 39 0.9394309520721436
25 40 0.25003471970558167
25 41 0.07850686460733414
25 42 0.9566364884376526
25 43 0.5005624294281006
25 44 0.9528825283050537
25 45 0.9549790620803833
25 46 0.941328227519989
25 47 0.954484224319458
25 48 0.9482050538063049
25 49 0.28937429189682007
25 50 0.9533188343048096
25 51 0.9573047161102295
25 52 0.9461504220962524
25 53 0.46169811487197876
25 54 0.9045795798301697
25 55 0.9377435445785522
25 56 0.17836134135723114
25 57 0.9350505471229553
25 58 0.6465610265731812
25 59 0.9377435445785522
25 60 0.9511592984199524
25 61 0.9522689580917358
25 62 0.9544259905815125
25 63 0.14555563032627106
25 64 0.9537587761878967
25 65 0.13018891215324402
25 66 0.9528825283050537
25 67 0.9408791661262512
25 68 0.957131564617157
25 69 0.9516556262969971
25 70 0.9426773190498352
25 71 0.9484399557113647
25 72 0.07277781516313553
25 73 0.95420241355896
25 74 0.953094482421875
25 75 0.9516556262969971
25 76 0.9528231620788574
25 77 0.5722663402557373
25 78 0.9523887038230896
25 79 0.06509445607662201
25 80 0.2008858621120453
25 81 0.05822225287556648
25 82 0.05637345090508461
25 83 0.9505453109741211
25 84 0.9478229284286499
25 85 0.9517738223075867
25 86 0.9529427886009216
25 87 0.9588419795036316
25 88 0.24586749076843262
25 89 0.14555563032627106
25 90 0.4625532925128937
25 91 0.9383063316345215
25 92 0.06509445607662201
25 93 0.393485426902771
25 94 0.20155073702335358
25 95 0.4677419364452362
25 96 0.18727558851242065
25 97 0.10335133969783783
25 98 0.9509859085083008
25 99 0.9532613754272461
25 100 0.9507244229316711
25 101 0.9567530751228333
25 102 0.9462109208106995
25 103 0.13573132455348969
25 104 0.9571883082389832
25 105 0.1105140745639801
25 106 0.956142246723175
25 107 0.9522689580917358
25 108 0.955474853515625
25 109 0.10335133969783783
25 110 0.9560843706130981
25 111 0.9179763197898865
25 112 0.9566943049430847
25 113 0.8712846636772156
25 114 0.31631770730018616
25 115 0.9364955425262451
25 116 0.4220386743545532
25 117 0.20590800046920776
25 118 0.24470974504947662
25 120 0.9548103213310242
25 121 0.9532613754272461
25 122 0.9502118229866028
25 123 0.9533771872520447
25 124 0.9527647495269775
25 125 0.23110058903694153
25 126 0.14930444955825806
25 127 0.9462723731994629
25 128 0.16638393700122833
25 129 0.5518330931663513
25 130 0.9507155418395996
25 131 0.8913803696632385
25 132 0.9567530751228333
25 133 0.9578561186790466
25 134 0.19084157049655914
25 135 0.9534364342689514
25 136 0.7384525537490845
25 137 0.9539900422096252
25 138 0.9540500640869141
25 139 0.9555319547653198
25 140 0.9515979290008545
25 141 0.9261482954025269
25 142 0.9371193647384644
25 143 0.29541516304016113
25 144 0.9245807528495789
25 145 0.9551560282707214
25 146 0.9411765933036804
25 147 0.9539307951927185
25 148 0.9496133327484131
25 149 0.9523283839225769
25 151 0.9182786345481873
25 152 0.9550371766090393
25 153 0.32454928755760193
25 154 0.9471479654312134
25 155 0.9483206868171692
25 156 0.9522689580917358
25 157 0.9545432329177856
25 158 0.20712928473949432
25 159 0.9544259905815125
25 160 0.9462109208106995
25 161 0.9052913188934326
25 162 0.16816067695617676
25 163 0.9517738223075867
25 164 0.950874924659729
25 165 0.956142246723175
25 166 0.9472658038139343
25 167 0.9573047161102295
25 168 0.9515411257743835
25 169 0.9475359320640564
25 170 0.35205209255218506
25 171 0.935427725315094
25 172 0.9528231620788574
25 173 0.9539900422096252
25 174 0.26444438099861145
25 175 0.939932107925415
25 176 0.9588419795036316
25 177 0.9517738223075867
25 178 0.9510428309440613
25 179 0.8190336227416992
25 180 0.94659024477005
25 181 0.31318584084510803
25 182 0.9488772749900818
25 183 0.9566943049430847
25 184 0.9487618803977966
25 185 0.9442412853240967
25 186 0.9556487202644348
25 187 0.9577398896217346
25 188 0.9549790620803833
25 189 0.9537032246589661
25 190 0.9539307951927185
25 191 0.9527647495269775
25 192 0.9521527290344238
25 193 0.9566364884376526
25 194 0.9583486318588257
25 195 0.9501083493232727
25 196 0.9518342614173889
25 197 0.9268009066581726
25 198 0.08950487524271011
25 199 0.943855881690979
25 200 0.1668541580438614
25 201 0.24652914702892303
25 202 0.9555898308753967
25 203 0.3747464418411255
25 204 0.48876702785491943
25 205 0.8740442395210266
25 206 0.5232668519020081
25 207 0.9512795805931091
25 208 0.9494335651397705
25 209 0.05637345090508461
25 210 0.2523960769176483
25 211 0.1544993817806244
25 212 0.9511006474494934
25 213 0.32398098707199097
25 214 0.38902783393859863
25 215 0.12605486810207367
25 216 0.9556487202644348
25 217 0.9528231620788574
25 218 0.9475914239883423
25 219 0.956142246723175
25 220 0.9557085037231445
25 221 0.9501083493232727
25 222 0.9532613754272461
25 223 0.9511592984199524
25 224 0.8531419038772583
25 225 0.9544259905815125
25 226 0.940493643283844
25 227 0.942297637462616
25 228 0.2400358021259308
25 229 0.9262921214103699
25 230 0.34079575538635254
25 231 0.9494335651397705
25 232 0.950048565864563
25 233 0.7749583721160889
25 234 0.2400358021259308
25 235 0.9534965753555298
25 236 0.9454739689826965
25 237 0.9534965753555298
25 238 0.9507244229316711
25 239 0.9511592984199524
25 240 0.5359650254249573
25 241 0.9524862766265869
25 242 0.37627407908439636
25 243 0.9516556262969971
25 244 0.9533188343048096
25 245 0.9422364830970764
25 246 0.14555563032627106
25 247 0.9539307951927185
25 248 0.9458619952201843
25 249 0.14930444955825806
25 250 0.9472658038139343
25 251 0.2011738419532776
25 252 0.9482050538063049
25 253 0.9515979290008545
25 254 0.20155073702335358
25 255 0.5079378485679626
26 27 0.15901623666286469
26 28 0.1764095574617386
26 29 0.17864739894866943
26 30 0.17017653584480286
26 31 0.17779827117919922
26 34 0.17097321152687073
26 35 0.16078266501426697
26 36 0.16673757135868073
26 37 0.1650775820016861
26 39 0.16691523790359497
26 42 0.17613568902015686
26 43 0.1398577243089676
26 44 0.1764095574617386
26 45 0.15876860916614532
26 46 0.1676316112279892
26 47 0.17631812393665314
26 48 0.16603253781795502
26 50 0.15312674641609192
26 51 0.16982601583003998
26 52 0.16585767269134521
26 53 0.0747087374329567
26 54 0.17242608964443207
26 55 0.1612119823694229
26 56 0.06454972177743912
26 57 0.17324627935886383
26 58 0.05181277543306351
26 59 0.1671828031539917
26 60 0.17097321152687073
26 61 0.17079521715641022
26 62 0.17650113999843597
26 64 0.16516371071338654
26 66 0.1764095574617386
26 67 0.1733390986919403
26 68 0.17035260796546936
26 69 0.17696112394332886
26 70 0.14887283742427826
26 71 0.17124126851558685
26 73 0.1654229313135147
26 74 0.15376810729503632
26 75 0.1710624247789383
26 76 0.15893355011940002
26 77 0.1468050479888916
26 78 0.17044085264205933
26 80 0.08451542258262634
26 83 0.17124126851558685
26 84 0.17742474377155304
26 85 0.15893355011940002
26 86 0.17035260796546936
26 87 0.16405436396598816
26 88 0.09350491315126419
26 91 0.16112583875656128
26 93 0.058470532298088074
26 94 0.16151456534862518
26 95 0.07254762202501297
26 98 0.17151057720184326
26 99 0.17097321152687073
26 100 0.17659282684326172
26 101 0.15233618021011353
26 102 0.17160063982009888
26 104 0.17604470252990723
26 105 0.08856149017810822
26 106 0.17017653584480286
26 107 0.17079521715641022
26 108 0.1647343933582306
26 109 0.10540926456451416
26 110 0.1644783765077591
26 111 0.17164675891399384
26 112 0.17008869349956512
26 113 0.16077253222465515
26 114 0.08784104883670807
26 115 0.16772182285785675
26 116 0.11707085371017456
26 120 0.16516371071338654
26 121 0.17686884105205536
26 122 0.1723262220621109
26 123 0.17061775922775269
26 124 0.1649915874004364
26 126 0.0761386975646019
26 127 0.17142066359519958
26 129 0.07035264372825623
26 130 0.1724175661802292
26 131 0.16918011009693146
26 132 0.1757725328207016
26 133 0.17559179663658142
26 135 0.17044085264205933
26 136 0.09880861639976501
26 137 0.1644783765077591
26 138 0.17017653584480286
26 139 0.17631812393665314
26 140 0.17124126851558685
26 141 0.11040659993886948
26 142 0.17343208193778992
26 144 0.16965024173259735
26 145 0.175863116979599
26 146 0.17836301028728485
26 147 0.16464892029762268
26 148 0.1708841472864151
26 149 0.17650113999843597
26 151 0.16459131240844727
26 152 0.17035260796546936
26 154 0.16603253781795502
26 155 0.17160063982009888
26 156 0.16490572690963745
26 157 0.17026449739933014
26 158 0.12909944355487823
26 159 0.17650113999843597
26 160 0.15976610779762268
26 161 0.16121414303779602
26 163 0.17659282684326172
26 164 0.16594505310058594
26 165 0.17017653584480286
26 166 0.15384884178638458
26 167 0.16982601583003998
26 168 0.1536874920129776
26 169 0.15458126366138458
26 171 0.13777150213718414
26 172 0.17659282684326172
26 173 0.17622683942317963
26 174 0.08856149017810822
26 175 0.17893315851688385
26 176 0.16991344094276428
26 177 0.17659282684326172
26 178 0.15951497852802277
26 179 0.1574825495481491
26 180 0.16018731892108917
26 182 0.1596822589635849
26 183 0.15835843980312347
26 184 0.16594505310058594
26 185 0.16086825728416443
26 186 0.17595383524894714
26 187 0.15835843980312347
26 188 0.15288828313350677
26 189 0.1535266488790512
26 190 0.1764095574617386
26 191 0.1355288028717041
26 192 0.1711517721414566
26 193 0.17026449739933014
26 194 0.17568209767341614
26 195 0.17097321152687073
26 196 0.16464892029762268
26 197 0.16946369409561157
26 198 0.09128709137439728
26 199 0.1723262220621109
26 202 0.17026449739933014
26 203 0.1287028193473816
26 204 0.14607663452625275
26 205 0.15939415991306305
26 206 0.20061221718788147
26 207 0.17650113999843597
26 208 0.16550961136817932
26 209 0.10540926456451416
26 210 0.11236664652824402
26 211 0.13333334028720856
26 212 0.1770535707473755
26 213 0.12472191452980042
26 214 0.11336404085159302
26 216 0.17008869349956512
26 217 0.15893355011940002
26 218 0.16035673022270203
26 219 0.16430838406085968
26 220 0.16405436396598816
26 221 0.17097321152687073
26 222 0.1650775820016861
26 223 0.15328632295131683
26 224 0.11221672594547272
26 225 0.1588510125875473
26 226 0.16691523790359497
26 227 0.1662958711385727
26 228 0.13693062961101532
26 229 0.16332170367240906
26 230 0.11340587586164474
26 231 0.17142066359519958
26 232 0.1770535707473755
26 233 0.15214994549751282
26 235 0.16439330577850342
26 236 0.17817415297031403
26 237 0.17613568902015686
26 238 0.16481997072696686
26 239 0.1650775820016861
26 240 0.1976594626903534
26 241 0.15993419289588928
26 243 0.17696112394332886
26 244 0.17668470740318298
26 245 0.1486358344554901
26 247 0.15876860916614532
26 248 0.17269249260425568
26 250 0.16568337380886078
26 252 0.17789201438426971
26 253 0.16533638536930084
26 254 0.05383818969130516
26 255 0.15167298913002014
27 28 0.9620791673660278
27 29 0.9521884918212891
27 30 0.9631996750831604
27 31 0.9549926519393921
27 32 0.2393796294927597
27 33 0.14060963690280914
27 34 0.9604172110557556
27 35 0.9490321278572083
27 36 0.9490321278572083
27 37 0.9604172110557556
27 38 0.12925608456134796
27 39 0.9489901065826416
27 40 0.23542265594005585
27 41 0.10698790103197098
27 42 0.9647349715232849
27 43 0.5246276259422302
27 44 0.961040198802948
27 45 0.9620791673660278
27 46 0.9446007609367371
27 47 0.962618887424469
27 48 0.9534008502960205
27 49 0.27264028787612915
27 50 0.9604578614234924
27 51 0.9684584736824036
27 52 0.9565830826759338
27 53 0.453196257352829
27 54 0.9204796552658081
27 55 0.9473465085029602
27 56 0.1767766922712326
27 57 0.9457424283027649
27 58 0.6484454870223999
27 59 0.9515662789344788
27 60 0.9604172110557556
27 61 0.9604578614234924
27 62 0.9604994654655457
27 63 0.1370493322610855
27 64 0.9598761200904846
27 65 0.16129031777381897
27 66 0.9631180763244629
27 67 0.9451930522918701
27 68 0.962120532989502
27 69 0.9577916860580444
27 70 0.9511364102363586
27 71 0.9598363637924194
27 72 0.07213123142719269
27 73 0.9634702801704407
27 74 0.9561212062835693
27 75 0.9598761200904846
27 76 0.9620386362075806
27 77 0.5810158252716064
27 78 0.9615805149078369
27 79 0.06451612710952759
27 80 0.19910110533237457
27 81 0.05770498141646385
27 82 0.055872607976198196
27 83 0.9567064642906189
27 84 0.9561212062835693
27 85 0.9620386362075806
27 86 0.9641962647438049
27 87 0.9679219126701355
27 88 0.24781331419944763
27 89 0.14426246285438538
27 90 0.4733007252216339
27 91 0.9478946924209595
27 92 0.06451612710952759
27 93 0.37707599997520447
27 94 0.1997600793838501
27 95 0.46358633041381836
27 96 0.1697021871805191
27 97 0.11174521595239639
27 98 0.955076277256012
27 99 0.9593755602836609
27 100 0.96099853515625
27 101 0.9699922800064087
27 102 0.954532265663147
27 103 0.14125171303749084
27 104 0.9642365574836731
27 105 0.13300341367721558
27 106 0.9631996750831604
27 107 0.9635796546936035
27 108 0.9667364954948425
27 109 0.10243312269449234
27 110 0.963158369064331
27 111 0.9217349886894226
27 112 0.9637388586997986
27 113 0.8828598856925964
27 114 0.3228195011615753
27 115 0.9461674094200134
27 116 0.42978060245513916
27 117 0.20407862961292267
27 118 0.2620949447154999
27 120 0.96196049451828
27 121 0.9614588618278503
27 122 0.9512190222740173
27 123 0.9615389704704285
27 124 0.9609580039978027
27 125 0.237376406788826
27 126 0.14125171303749084
27 127 0.9587531089782715
27 128 0.16490572690963745
27 129 0.5753422975540161
27 130 0.9517232179641724
27 131 0.9044957160949707
27 132 0.9648162722587585
27 133 0.967960774898529
27 134 0.20407862961292267
27 135 0.9646956920623779
27 136 0.7345777153968811
27 137 0.962120532989502
27 138 0.9631996750831604
27 139 0.9636573195457458
27 140 0.9567064642906189
27 141 0.9190038442611694
27 142 0.9456999897956848
27 143 0.29279056191444397
27 144 0.9356357455253601
27 145 0.9653134942054749
27 146 0.9527737498283386
27 147 0.9641570448875427
27 148 0.959916889667511
27 149 0.9615389704704285
27 151 0.9305845499038696
27 152 0.963158369064331
27 153 0.3368387818336487
27 154 0.9544485807418823
27 155 0.954532265663147
27 156 0.9594172835350037
27 157 0.9636975526809692
27 158 0.22809897363185883
27 159 0.9625784754753113
27 160 0.9587142467498779
27 161 0.9169681072235107
27 162 0.1827957034111023
27 163 0.9620386362075806
27 164 0.9591812491416931
27 165 0.9642365574836731
27 166 0.9587142467498779
27 167 0.9663891196250916
27 168 0.9566643834114075
27 169 0.9527737498283386
27 170 0.34594208002090454
27 171 0.9472257494926453
27 172 0.9630786776542664
27 173 0.962120532989502
27 174 0.2620949447154999
27 175 0.9473887085914612
27 176 0.9648162722587585
27 177 0.9599584937095642
27 178 0.9561633467674255
27 179 0.831113338470459
27 180 0.9528558850288391
27 181 0.33213162422180176
27 182 0.9571661949157715
27 183 0.9658114314079285
27 184 0.9549926519393921
27 185 0.9484845995903015
27 186 0.9637388586997986
27 187 0.9658114314079285
27 188 0.9631180763244629
27 189 0.9577497839927673
27 190 0.9620791673660278
27 191 0.9619991183280945
27 192 0.9593347311019897
27 193 0.9626602530479431
27 194 0.9663891196250916
27 195 0.9645838737487793
27 196 0.9631180763244629
27 197 0.9356763958930969
27 198 0.11290322244167328
27 199 0.9533188343048096
27 200 0.17107421159744263
27 201 0.25616174936294556
27 202 0.9647349715232849
27 203 0.3966835141181946
27 204 0.5062633752822876
27 205 0.885429322719574
27 206 0.5260800123214722
27 207 0.9636179804801941
27 208 0.9608418941497803
27 209 0.055872607976198196
27 210 0.24221228063106537
27 211 0.16490572690963745
27 212 0.9582920074462891
27 213 0.31795454025268555
27 214 0.39308270812034607
27 215 0.12493494898080826
27 216 0.9668476581573486
27 217 0.9630786776542664
27 218 0.9507155418395996
27 219 0.9663101434707642
27 220 0.9668866395950317
27 221 0.9583338499069214
27 222 0.9593755602836609
27 223 0.9614588618278503
27 224 0.8595578074455261
27 225 0.9615389704704285
27 226 0.9510967135429382
27 227 0.9507155418395996
27 228 0.23790323734283447
27 229 0.9362314343452454
27 230 0.3578050434589386
27 231 0.9577087163925171
27 232 0.9624630212783813
27 233 0.7808745503425598
27 234 0.24193547666072845
27 235 0.9626602530479431
27 236 0.9507155418395996
27 237 0.9657723307609558
27 238 0.9620386362075806
27 239 0.9625005125999451
27 240 0.5422317385673523
27 241 0.9555364847183228
27 242 0.3781469464302063
27 243 0.9598761200904846
27 244 0.9635796546936035
27 245 0.9517232179641724
27 246 0.1370493322610855
27 247 0.9620791673660278
27 248 0.9490321278572083
27 249 0.14125171303749084
27 250 0.9587142467498779
27 251 0.20911270380020142
27 252 0.9565439224243164
27 253 0.9608796834945679
27 254 0.20451626181602478
27 255 0.5168243050575256
28 29 0.9517562389373779
28 30 0.9668757319450378
28 31 0.9566420316696167
28 32 0.22642752528190613
28 33 0.11822373420000076
28 34 0.9599616527557373
28 35 0.9549077749252319
28 36 0.9580593109130859
28 37 0.9630818367004395
28 38 0.13664625585079193
28 39 0.951718807220459
28 40 0.2391798347234726
28 41 0.10682129114866257
28 42 0.9673755764961243
28 43 0.5276064276695251
28 44 0.9657676219940186
28 45 0.9636929035186768
28 46 0.9462981820106506
28 47 0.9663039445877075
28 48 0.9540082812309265
28 49 0.27221569418907166
28 50 0.9620791673660278
28 51 0.9679834842681885
28 52 0.958228349685669
28 53 0.4678664207458496
28 54 0.9277370572090149
28 55 0.9469245076179504
28 56 0.1708078235387802
28 57 0.9484851956367493
28 58 0.6565759778022766
28 59 0.9479778409004211
28 60 0.9610016942024231
28 61 0.961040198802948
28 62 0.9652311205863953
28 63 0.14403779804706573
28 64 0.9594219326972961
28 65 0.16103914380073547
28 66 0.9657676219940186
28 67 0.9468845129013062
28 68 0.9658036828041077
28 69 0.963584303855896
28 70 0.9496552348136902
28 71 0.9614666700363159
28 72 0.07201889902353287
28 73 0.9588432908058167
28 74 0.9577622413635254
28 75 0.9625437259674072
28 76 0.9615789651870728
28 77 0.5628458261489868
28 78 0.9673407077789307
28 79 0.06441566348075867
28 80 0.20376081764698029
28 81 0.057615119963884354
28 83 0.9604250192642212
28 84 0.9577622413635254
28 85 0.9646941423416138
28 86 0.9647673964500427
28 87 0.9664146304130554
28 88 0.2350560426712036
28 89 0.14403779804706573
28 90 0.46832549571990967
28 91 0.9506295919418335
28 92 0.06441566348075867
28 93 0.3893822431564331
28 94 0.2089465856552124
28 95 0.4671304523944855
28 96 0.18532273173332214
28 97 0.11157120019197464
28 98 0.956718921661377
28 99 0.9641218781471252
28 100 0.9657326340675354
28 101 0.9684817790985107
28 102 0.9572213292121887
28 103 0.15446335077285767
28 104 0.9658405184745789
28 105 0.1327963024377823
28 106 0.9668757319450378
28 107 0.961040198802948
28 108 0.9631552696228027
28 109 0.11157120019197464
28 110 0.9647673964500427
28 111 0.9246253371238708
28 112 0.9653420448303223
28 113 0.879216194152832
28 114 0.31611838936805725
28 115 0.9468073844909668
28 116 0.4291113317012787
28 117 0.1888515055179596
28 118 0.2616868317127228
28 120 0.9625437259674072
28 121 0.9610016942024231
28 122 0.9528825283050537
28 123 0.9641931653022766
28 124 0.9615405201911926
28 125 0.24948078393936157
28 126 0.15446335077285767
28 127 0.958302915096283
28 128 0.1352473348379135
28 129 0.5833113789558411
28 130 0.9523388147354126
28 131 0.9119301438331604
28 132 0.9664146304130554
28 133 0.9674859046936035
28 134 0.20376081764698029
28 135 0.9631934762001038
28 136 0.7441603541374207
28 137 0.9668399095535278
28 138 0.9679110050201416
28 139 0.9673407077789307
28 140 0.958341658115387
28 141 0.9229828715324402
28 142 0.950557291507721
28 143 0.3089444935321808
28 144 0.9373853206634521
28 145 0.9669126868247986
28 146 0.9523388147354126
28 147 0.9626556038856506
28 148 0.9605010151863098
28 149 0.9641931653022766
28 151 0.9355877041816711
28 152 0.9637311697006226
28 153 0.33631423115730286
28 154 0.9550543427467346
28 155 0.9572213292121887
28 156 0.9620791673660278
28 157 0.9663398265838623
28 158 0.2140791416168213
28 159 0.9621174335479736
28 160 0.9603528380393982
28 161 0.9133524894714355
28 162 0.18787901103496552
28 163 0.9646941423416138
28 164 0.9566420316696167
28 165 0.9668757319450378
28 166 0.9561774730682373
28 167 0.9679834842681885
28 168 0.958302915096283
28 169 0.9533876776695251
28 170 0.33944812417030334
28 171 0.9457507133483887
28 172 0.9636557698249817
28 173 0.9678761959075928
28 174 0.2616868317127228
28 175 0.9501221776008606
28 176 0.9664146304130554
28 177 0.9626173377037048
28 178 0.9588432908058167
28 179 0.8274033069610596
28 180 0.956605076789856
28 181 0.3285152018070221
28 182 0.958805501461029
28 183 0.9663767218589783
28 184 0.9566420316696167
28 185 0.9554160833358765
28 186 0.9674113988876343
28 187 0.9663767218589783
28 188 0.9626556038856506
28 189 0.9614666700363159
28 190 0.9647303223609924
28 191 0.9636195302009583
28 192 0.9588820338249207
28 193 0.9684113264083862
28 194 0.9669504165649414
28 195 0.9599616527557373
28 196 0.9626556038856506
28 197 0.9395577311515808
28 198 0.1207793727517128
28 199 0.9549790620803833
28 200 0.1821950078010559
28 201 0.25576284527778625
28 202 0.9663398265838623
28 203 0.3884976804256439
28 204 0.49952828884124756
28 205 0.8896742463111877
28 206 0.5215355157852173
28 207 0.9652311205863953
28 208 0.9593456387519836
28 209 0.05578560009598732
28 210 0.25769317150115967
28 211 0.1764095574617386
28 212 0.9609642624855042
28 213 0.3143162131309509
28 214 0.3949703872203827
28 215 0.10810833424329758
28 216 0.9663767218589783
28 217 0.9615789651870728
28 218 0.9544737339019775
28 219 0.9679110050201416
28 220 0.9674481749534607
28 221 0.9599616527557373
28 222 0.9610016942024231
28 223 0.9599616527557373
28 224 0.8628771901130676
28 225 0.9621174335479736
28 226 0.9496155977249146
28 227 0.9544737339019775
28 228 0.2536366581916809
28 229 0.9358406066894531
28 230 0.35438987612724304
28 231 0.958302915096283
28 232 0.9609642624855042
28 233 0.7822148203849792
28 234 0.23350678384304047
28 235 0.9663398265838623
28 236 0.9544737339019775
28 237 0.9653041362762451
28 238 0.9646941423416138
28 239 0.9599616527557373
28 240 0.5395521521568298
28 241 0.9592732787132263
28 242 0.3645387887954712
28 243 0.9604625105857849
28 244 0.9631180763244629
28 245 0.9533876776695251
28 246 0.14403779804706573
28 247 0.9668049812316895
28 248 0.9538572430610657
28 249 0.14774754643440247
28 250 0.9582651853561401
28 251 0.20878705382347107
28 252 0.9571464657783508
28 253 0.9614666700363159
28 254 0.21844415366649628
28 255 0.52939772605896
29 30 0.9518845081329346
29 31 0.9433669447898865
29 32 0.2335461676120758
29 33 0.12720617651939392
29 34 0.9531809091567993
29 35 0.9393616914749146
29 36 0.9425531625747681
29 37 0.9489679336547852
29 38 0.11531639099121094
29 39 0.9424926042556763
29 40 0.208805114030838
29 41 0.0983421579003334
29 42 0.953425407409668
29 43 0.503548264503479
29 44 0.9549077749252319
29 45 0.9559582471847534
29 46 0.9358422160148621
29 47 0.9523130059242249
29 48 0.9417456984519958
29 49 0.2828291058540344
29 50 0.9511364102363586
29 51 0.9551547169685364
29 52 0.9439285397529602
29 53 0.4248642921447754
29 54 0.9153031706809998
29 55 0.9365366101264954
29 56 0.17874041199684143
29 57 0.9359706044197083
29 58 0.658734142780304
29 59 0.9365366101264954
29 60 0.9468615055084229
29 61 0.9511364102363586
29 62 0.9511992335319519
29 63 0.14586499333381653
29 64 0.9515706896781921
29 65 0.15655873715877533
29 66 0.9549077749252319
29 67 0.9375398755073547
29 68 0.9528693556785583
29 69 0.9494631290435791
29 70 0.9393616914749146
29 71 0.9462361931800842
29 72 0.07293249666690826
29 73 0.949897825717926
29 74 0.9466677904129028
29 75 0.9494631290435791
29 76 0.9485387802124023
29 77 0.5717342495918274
29 78 0.9544128775596619
29 79 0.06523280590772629
29 80 0.20634561777114868
29 81 0.07293249666690826
29 82 0.05649326741695404
29 83 0.9483460187911987
29 84 0.9445547461509705
29 85 0.9495903253555298
29 86 0.9528693556785583
29 87 0.9556463956832886
29 88 0.24221393465995789
29 89 0.13127849996089935
29 90 0.46568238735198975
29 91 0.9403005838394165
29 93 0.3890989124774933
29 94 0.19717006385326385
29 95 0.46873605251312256
29 96 0.1769494116306305
29 97 0.10357099771499634
29 98 0.9456112384796143
29 99 0.9500212669372559
29 100 0.9516935348510742
29 101 0.9556463956832886
29 102 0.9450507164001465
29 103 0.142820805311203
29 104 0.9550294876098633
29 105 0.12657023966312408
29 106 0.9529328346252441
29 107 0.9500842690467834
29 108 0.9554034471511841
29 109 0.11298653483390808
29 110 0.9528693556785583
29 111 0.9155467748641968
29 112 0.9576798677444458
29 113 0.8777319192886353
29 114 0.32640552520751953
29 115 0.9374158978462219
29 116 0.4345548152923584
29 117 0.15601742267608643
29 118 0.265006422996521
29 120 0.950516939163208
29 121 0.9521276950836182
29 122 0.9394925236701965
29 123 0.9511992335319519
29 124 0.9484735727310181
29 125 0.22738100588321686
29 126 0.14962178468704224
29 127 0.9461715817451477
29 128 0.16673757135868073
29 129 0.5655742883682251
29 130 0.9399906396865845
29 131 0.8988718390464783
29 132 0.9566930532455444
29 133 0.9546637535095215
29 134 0.2013128101825714
29 135 0.9586127400398254
29 136 0.7305172085762024
29 137 0.9518199563026428
29 138 0.9571261405944824
29 139 0.9502130150794983
29 140 0.9472911357879639
29 141 0.9072971343994141
29 142 0.9369743466377258
29 143 0.29940712451934814
29 144 0.9243810176849365
29 145 0.9540444016456604
29 146 0.9431770443916321
29 147 0.9517562389373779
29 148 0.9516316652297974
29 149 0.9533013701438904
29 151 0.9191413521766663
29 152 0.9507704973220825
29 153 0.340580552816391
29 154 0.9417456984519958
29 155 0.9513933062553406
29 156 0.9479799270629883
29 157 0.9544742703437805
29 158 0.20756952464580536
29 159 0.9501482248306274
29 160 0.9450507164001465
29 161 0.9038922786712646
29 162 0.1902623325586319
29 163 0.950641930103302
29 164 0.941249430179596
29 165 0.9550294876098633
29 166 0.9492791295051575
29 167 0.9562008380889893
29 168 0.9482836127281189
29 169 0.9431770443916321
29 170 0.34073880314826965
29 171 0.933135449886322
29 172 0.9516935348510742
29 173 0.9549681544303894
29 174 0.25314047932624817
29 175 0.9376676678657532
29 176 0.9535529613494873
29 177 0.9485387802124023
29 178 0.9477869868278503
29 179 0.8195511698722839
29 180 0.9422428607940674
29 181 0.32012853026390076
29 182 0.9466677904129028
29 183 0.9524409174919128
29 184 0.9497195482254028
29 185 0.940926194190979
29 186 0.9524409174919128
29 187 0.9576798677444458
29 188 0.9517562389373779
29 189 0.9462361931800842
29 190 0.9517562389373779
29 191 0.9474208950996399
29 192 0.9478504061698914
29 193 0.9523765444755554
29 194 0.9572470188140869
29 195 0.9500212669372559
29 196 0.9528067708015442
29 197 0.9244458675384521
29 198 0.13046561181545258
29 199 0.9394925236701965
29 200 0.16720877587795258
29 201 0.2470531314611435
29 202 0.9544742703437805
29 203 0.41130897402763367
29 204 0.51188725233078
29 205 0.8815969824790955
29 206 0.543241560459137
29 207 0.9543524384498596
29 208 0.9482836127281189
29 209 0.05649326741695404
29 210 0.24088811874389648
29 211 0.17269249260425568
29 212 0.9499590396881104
29 213 0.31830352544784546
29 214 0.4025123119354248
29 215 0.1179012656211853
29 216 0.9597755074501038
29 217 0.9516935348510742
29 218 0.9443003535270691
29 219 0.9529328346252441
29 220 0.9556463956832886
29 221 0.951074481010437
29 222 0.947914719581604
29 223 0.9500212669372559
29 224 0.8419834971427917
29 225 0.9522503018379211
29 226 0.9414276480674744
29 227 0.9443003535270691
29 228 0.2487000823020935
29 229 0.9358252882957458
29 230 0.3328373432159424
29 231 0.9514515399932861
29 232 0.9499590396881104
29 233 0.7804885506629944
29 234 0.23646892607212067
29 235 0.9544742703437805
29 236 0.9411172866821289
29 237 0.9523765444755554
29 238 0.9516935348510742
29 239 0.9542341232299805
29 240 0.5389626622200012
29 241 0.9439285397529602
29 242 0.37707382440567017
29 243 0.950516939163208
29 244 0.9490321278572083
29 245 0.9474255442619324
29 246 0.12398524582386017
29 247 0.9507057666778564
29 248 0.9393616914749146
29 249 0.15642277896404266
29 250 0.9450507164001465
29 251 0.18685010075569153
29 252 0.9428050518035889
29 253 0.9462361931800842
29 254 0.20678812265396118
29 255 0.5303071737289429
30 31 0.9588368535041809
30 32 0.2468813806772232
30 33 0.1253529042005539
30 34 0.9631656408309937
30 35 0.9518845081329346
30 36 0.9529328346252441
30 37 0.9621278047561646
30 38 0.13636362552642822
30 39 0.9528987407684326
30 40 0.25103092193603516
30 41 0.10660036653280258
30 42 0.9684755206108093
30 43 0.5359848141670227
30 44 0.9648053646087646
30 45 0.9648053646087646
30 46 0.9485567808151245
30 47 0.9653400182723999
30 48 0.9593424201011658
30 49 0.28929245471954346
30 50 0.9631996750831604
30 51 0.9701051115989685
30 52 0.9604177474975586
30 53 0.4559386670589447
30 54 0.9225659370422363
30 55 0.9512727856636047
30 56 0.17045453190803528
30 57 0.9486269354820251
30 58 0.661298930644989
30 59 0.9544261693954468
30 60 0.9631656408309937
30 61 0.9631996750831604
30 62 0.9663418531417847
30 63 0.10061793029308319
30 64 0.961591362953186
30 65 0.1607060730457306
30 66 0.9658405184745789
30 67 0.9480828642845154
30 68 0.9658743143081665
30 69 0.9647066593170166
30 70 0.9560778141021729
30 71 0.9615572094917297
30 72 0.05749595910310745
30 73 0.9610204100608826
30 74 0.9589048027992249
30 75 0.9647066593170166
30 76 0.9678803086280823
30 77 0.5737423896789551
30 78 0.9674093723297119
30 79 0.06428243219852448
30 80 0.19837990403175354
30 81 0.07186995446681976
30 82 0.05567022040486336
30 83 0.9615572094917297
30 84 0.9641105532646179
30 85 0.9647715091705322
30 86 0.9669085144996643
30 87 0.9695731401443481
30 88 0.24280041456222534
30 89 0.13655290007591248
30 90 0.4842747449874878
30 91 0.949713945388794
30 92 0.06428243219852448
30 93 0.39115026593208313
30 94 0.21799233555793762
30 95 0.47680729627609253
30 96 0.1849394142627716
30 97 0.11134044080972672
30 98 0.9589048027992249
30 99 0.9631656408309937
30 100 0.9658077955245972
30 101 0.9736989736557007
30 102 0.9583665728569031
30 103 0.1407400518655777
30 104 0.9669421315193176
30 105 0.1325216293334961
30 106 0.9710744023323059
30 107 0.9642365574836731
30 108 0.9653061628341675
30 109 0.11134044080972672
30 110 0.9658743143081665
30 111 0.931346595287323
30 112 0.9685081243515015
30 113 0.8898510336875916
30 114 0.3216501474380493
30 115 0.9501217007637024
30 116 0.4419635832309723
30 117 0.20829890668392181
30 118 0.2572478652000427
30 120 0.961591362953186
30 121 0.9631656408309937
30 122 0.9571883082389832
30 123 0.9653061628341675
30 124 0.9637011885643005
30 125 0.2406659722328186
30 126 0.14744195342063904
30 127 0.9604833126068115
30 128 0.17604470252990723
30 129 0.5644116997718811
30 130 0.9556024670600891
30 131 0.9078379273414612
30 132 0.9695731401443481
30 133 0.9706369042396545
30 134 0.19342041015625
30 135 0.9663746953010559
30 136 0.743959367275238
30 137 0.9658743143081665
30 138 0.9669421315193176
30 139 0.9653400182723999
30 140 0.9636362195014954
30 141 0.9286325573921204
30 142 0.9485912919044495
30 143 0.3049904406070709
30 144 0.9365131855010986
30 145 0.9690408110618591
30 146 0.9545558094978333
30 147 0.9668757319450378
30 148 0.9647386074066162
30 149 0.9642704129219055
30 151 0.9336526989936829
30 152 0.9658743143081665
30 153 0.3386422395706177
30 154 0.9562107920646667
30 155 0.9583665728569031
30 156 0.9663101434707642
30 157 0.9695091247558594
30 158 0.2136363536119461
30 159 0.9642704129219055
30 160 0.9583665728569031
30 161 0.9147381782531738
30 162 0.19284729659557343
30 163 0.9647715091705322
30 164 0.9577935338020325
30 165 0.9669421315193176
30 166 0.9594083428382874
30 167 0.9701051115989685
30 168 0.9604833126068115
30 169 0.9556024670600891
30 170 0.3209173083305359
30 171 0.9501217007637024
30 172 0.9647715091705322
30 173 0.9658743143081665
30 174 0.2572478652000427
30 175 0.9555070996284485
30 176 0.9695731401443481
30 177 0.9658077955245972
30 178 0.9599803686141968
30 179 0.8293081521987915
30 180 0.9577599763870239
30 181 0.3309285342693329
30 182 0.9589048027992249
30 183 0.9705731868743896
30 184 0.9588368535041809
30 185 0.9544889330863953
30 186 0.9685081243515015
30 187 0.9674755930900574
30 188 0.9658405184745789
30 189 0.9625967144966125
30 190 0.9648053646087646
30 191 0.9637011885643005
30 192 0.9610546827316284
30 193 0.9674419164657593
30 194 0.9690742492675781
30 195 0.9631656408309937
30 196 0.9648053646087646
30 197 0.9376145005226135
30 198 0.12856486439704895
30 199 0.9592806100845337
30 200 0.1818181723356247
30 201 0.2630872130393982
30 202 0.966408371925354
30 203 0.39524659514427185
30 204 0.4945387840270996
30 205 0.8912014365196228
30 206 0.5427621603012085
30 207 0.9663418531417847
30 208 0.9615238904953003
30 209 0.05567022040486336
30 210 0.2532038688659668
30 211 0.17604470252990723
30 212 0.9631326198577881
30 213 0.3199394643306732
30 214 0.4091213345527649
30 215 0.1161835715174675
30 216 0.9695407152175903
30 217 0.9637352228164673
30 218 0.9556362628936768
30 219 0.9710744023323059
30 220 0.96854168176651
30 221 0.9652414917945862
30 222 0.9631656408309937
30 223 0.9621278047561646
30 224 0.8576063513755798
30 225 0.9653061628341675
30 226 0.9518492817878723
30 227 0.9556362628936768
30 228 0.2531120777130127
30 229 0.9381645917892456
30 230 0.3565089702606201
30 231 0.9594427347183228
30 232 0.9641715884208679
30 233 0.783147931098938
30 234 0.24507677555084229
30 235 0.9674419164657593
30 236 0.9556362628936768
30 237 0.9726098775863647
30 238 0.9637352228164673
30 239 0.9621278047561646
30 240 0.5475932955741882
30 241 0.9583321213722229
30 242 0.37158024311065674
30 243 0.9626297950744629
30 244 0.9642365574836731
30 245 0.9556024670600891
30 246 0.12217891216278076
30 247 0.9668757319450378
30 248 0.9529328346252441
30 249 0.14744195342063904
30 250 0.9625334143638611
30 251 0.21320073306560516
30 252 0.9572546482086182
30 253 0.9625967144966125
30 254 0.21799233555793762
30 255 0.5321172475814819
31 32 0.22398386895656586
31 33 0.1340487003326416
31 34 0.9549397826194763
31 35 0.9444257020950317
31 36 0.941249430179596
31 37 0.9570361971855164
31 38 0.1377219557762146
31 39 0.9422523975372314
31 40 0.23275016248226166
31 41 0.10766219347715378
31 42 0.9562008380889893
31 43 0.5221956968307495
31 44 0.9566420316696167
31 45 0.9555965065956116
31 46 0.94416743516922
31 47 0.961371123790741
31 48 0.9499210119247437
31 49 0.2779216766357422
31 50 0.9570869207382202
31 51 0.9589443206787109
31 52 0.9499738216400146
31 53 0.4405556321144104
31 54 0.9120475053787231
31 55 0.9405779838562012
31 56 0.18362925946712494
31 57 0.9410814046859741
31 58 0.6509969830513
31 59 0.945885956287384
31 60 0.9549397826194763
31 61 0.9570869207382202
31 62 0.9550464749336243
31 63 0.13791309297084808
31 64 0.9533404111862183
31 65 0.16230687499046326
31 66 0.9608240723609924
31 67 0.9437110424041748
31 68 0.9629622101783752
31 69 0.9554380178451538
31 70 0.9454845190048218
31 71 0.9532873034477234
31 72 0.07258584350347519
31 73 0.9537862539291382
31 74 0.9537350535392761
31 75 0.9554380178451538
31 76 0.9555427432060242
31 77 0.5777172446250916
31 78 0.9571912884712219
31 79 0.0649227499961853
31 80 0.19534704089164734
31 82 0.056224748492240906
31 83 0.9553869962692261
31 84 0.9495289325714111
31 85 0.9544962048530579
31 86 0.9587845206260681
31 87 0.9636049270629883
31 88 0.22859391570091248
31 89 0.13791309297084808
31 90 0.47201216220855713
31 91 0.9453805685043335
31 93 0.3950464725494385
31 94 0.2010190784931183
31 95 0.4364108145236969
31 96 0.16009850800037384
31 97 0.10307870805263519
31 98 0.9505804181098938
31 99 0.9528432488441467
31 100 0.9544962048530579
31 101 0.9594379663467407
31 102 0.9500274658203125
31 103 0.14214195311069489
31 104 0.9588368535041809
31 105 0.11809559166431427
31 106 0.956750214099884
31 107 0.9570869207382202
31 108 0.9571385383605957
31 109 0.11244949698448181
31 110 0.9556512236595154
31 111 0.9242744445800781
31 112 0.9572991728782654
31 113 0.8735600113868713
31 114 0.33110129833221436
31 115 0.9457405805587769
31 116 0.42555099725723267
31 117 0.18532924354076385
31 118 0.25981029868125916
31 120 0.9533404111862183
31 121 0.9559879899024963
31 122 0.9477052688598633
31 123 0.9560925364494324
31 124 0.957585334777832
31 125 0.20115578174591064
31 126 0.14214195311069489
31 127 0.9542859792709351
31 128 0.17779827117919922
31 129 0.561099112033844
31 130 0.9460935592651367
31 131 0.8990556597709656
31 132 0.9594379663467407
31 133 0.962614119052887
31 134 0.19534704089164734
31 135 0.9603261351585388
31 136 0.7554240226745605
31 137 0.9577401280403137
31 138 0.9577935338020325
31 139 0.956146240234375
31 140 0.9532873034477234
31 141 0.9149808287620544
31 142 0.9420905709266663
31 143 0.30133214592933655
31 144 0.9307599663734436
31 145 0.9578478336334229
31 146 0.9471506476402283
31 147 0.9566420316696167
31 148 0.956537663936615
31 149 0.9540004730224609
31 151 0.9212756752967834
31 152 0.9608733654022217
31 153 0.3145320415496826
31 154 0.9530839323997498
31 155 0.9510795474052429
31 156 0.9560397863388062
31 157 0.9572447538375854
31 158 0.2157643884420395
31 159 0.9550464749336243
31 160 0.953183650970459
31 161 0.9183375835418701
31 162 0.18394778668880463
31 163 0.9565893411636353
31 164 0.9483667016029358
31 165 0.9588368535041809
31 166 0.9510795474052429
31 167 0.9599854946136475
31 168 0.9532350301742554
31 169 0.9450364708900452
31 170 0.32111290097236633
31 171 0.936155378818512
31 172 0.9555427432060242
31 173 0.9598289132118225
31 174 0.24012771248817444
31 175 0.9491178393363953
31 176 0.960479736328125
31 177 0.9576359391212463
31 178 0.95168536901474
31 179 0.8132209777832031
31 180 0.9493675827980042
31 181 0.3248541057109833
31 182 0.9505804181098938
31 183 0.9614704251289368
31 184 0.950474202632904
31 185 0.9428098201751709
31 186 0.9572991728782654
31 187 0.9593847990036011
31 188 0.9566420316696167
31 189 0.9522374272346497
31 190 0.9618695378303528
31 191 0.955489993095398
31 192 0.9559371471405029
31 193 0.9572447538375854
31 194 0.9641503095626831
31 195 0.9559879899024963
31 196 0.958733081817627
31 197 0.92866051197052
31 198 0.12173014879226685
31 199 0.9487618803977966
31 200 0.17215242981910706
31 201 0.2379472851753235
31 202 0.9582886099815369
31 203 0.3890133798122406
31 204 0.5014627575874329
31 205 0.8762730956077576
31 206 0.5369048118591309
31 207 0.9540004730224609
31 208 0.9521840214729309
31 210 0.24373885989189148
31 211 0.1600184440612793
31 212 0.9569864869117737
31 213 0.3136226534843445
31 214 0.3779236972332001
31 215 0.11734087020158768
31 216 0.9593847990036011
31 217 0.9607757329940796
31 218 0.9472037553787231
31 219 0.9577935338020325
31 220 0.9594379663467407
31 221 0.9528432488441467
31 222 0.9570361971855164
31 223 0.9549397826194763
31 224 0.8520650863647461
31 225 0.9540004730224609
31 226 0.9454320669174194
31 227 0.9514276385307312
31 228 0.25157564878463745
31 229 0.9303016662597656
31 230 0.3370162844657898
31 231 0.9511330723762512
31 232 0.9517398476600647
31 233 0.7819315791130066
31 234 0.25157564878463745
31 235 0.9582886099815369
31 236 0.9461477994918823
31 237 0.9614202976226807
31 238 0.9565893411636353
31 239 0.9528432488441467
31 240 0.5197539925575256
31 241 0.9489206075668335
31 242 0.37790587544441223
31 243 0.9617306590080261
31 244 0.9570869207382202
31 245 0.9460935592651367
31 246 0.13791309297084808
31 247 0.9545510411262512
31 248 0.9433669447898865
31 249 0.15567928552627563
31 250 0.9489754438400269
31 251 0.21532438695430756
31 252 0.9509753584861755
31 253 0.9574868083000183
31 254 0.205805242061615
31 255 0.5239340662956238
32 34 0.24383310973644257
32 35 0.2377924621105194
32 36 0.220807284116745
32 37 0.201792910695076
32 38 0.09205745160579681
32 39 0.24229666590690613
32 42 0.23444920778274536
32 43 0.13041473925113678
32 44 0.2306206375360489
32 45 0.24739304184913635
32 46 0.20918406546115875
32 47 0.21792832016944885
32 48 0.2494720220565796
32 50 0.22258105874061584
32 51 0.23802123963832855
32 52 0.24498538672924042
32 53 0.10654571652412415
32 54 0.21516697108745575
32 55 0.23416979610919952
32 57 0.22151538729667664
32 58 0.14778538048267365
32 59 0.19585110247135162
32 60 0.22281302511692047
32 61 0.2393796294927597
32 62 0.23493562638759613
32 64 0.24816656112670898
32 65 0.13018891215324402
32 66 0.23481373488903046
32 67 0.21310967206954956
32 68 0.23875929415225983
32 69 0.24816656112670898
32 70 0.2377924621105194
32 71 0.23579417169094086
32 73 0.2190663367509842
32 74 0.1855582296848297
32 75 0.23554791510105133
32 76 0.24345260858535767
32 77 0.14655601978302002
32 78 0.23050113022327423
32 80 0.12053150683641434
32 82 0.07516460865736008
32 83 0.2400047928094864
32 84 0.24038223922252655
32 85 0.23086023330688477
32 86 0.2303817868232727
32 87 0.23814377188682556
32 88 0.10001388937234879
32 90 0.1627502292394638
32 91 0.23404467105865479
32 94 0.09597653895616531
32 95 0.1379515379667282
32 97 0.07516460865736008
32 98 0.21929606795310974
32 99 0.24383310973644257
32 100 0.2392551600933075
32 101 0.23814377188682556
32 102 0.22363068163394928
32 104 0.22177478671073914
32 106 0.23014365136623383
32 107 0.2393796294927597
32 108 0.23493562638759613
32 110 0.23875929415225983
32 111 0.2316797375679016
32 112 0.2425716668367386
32 113 0.23387114703655243
32 115 0.234924778342247
32 116 0.2411649525165558
32 117 0.06026575341820717
32 118 0.09472634643316269
32 119 0.09205746650695801
32 120 0.23554791510105133
32 121 0.2312210500240326
32 122 0.2288135439157486
32 123 0.23493562638759613
32 124 0.24790790677070618
32 125 0.08403658121824265
32 126 0.054292526096105576
32 127 0.24025623500347137
32 128 0.07130740582942963
32 129 0.13616661727428436
32 130 0.2374139130115509
32 131 0.2189355194568634
32 132 0.23814377188682556
32 133 0.2170305699110031
32 134 0.06026575341820717
32 135 0.23888298869132996
32 136 0.16259506344795227
32 137 0.23457053303718567
32 138 0.23851251602172852
32 139 0.2346920520067215
32 140 0.22316235303878784
32 141 0.24493177235126495
32 142 0.23881083726882935
32 144 0.2376258820295334
32 145 0.22990627586841583
32 146 0.22045576572418213
32 147 0.2306206375360489
32 148 0.24790790677070618
32 149 0.24332618713378906
32 150 0.09205746650695801
32 151 0.22603781521320343
32 152 0.24294805526733398
32 153 0.11022428423166275
32 154 0.23678699135780334
32 155 0.21097233891487122
32 156 0.24777890741825104
32 157 0.2386358082294464
32 158 0.07364597171545029
32 159 0.21815450489521027
32 160 0.23628902435302734
32 161 0.24317960441112518
32 162 0.1735852062702179
32 163 0.2392551600933075
32 164 0.23666219413280487
32 165 0.24269694089889526
32 166 0.23206958174705505
32 167 0.22131799161434174
32 168 0.2444712519645691
32 169 0.2374139130115509
32 171 0.21356797218322754
32 172 0.22246532142162323
32 173 0.23457053303718567
32 174 0.1105140745639801
32 175 0.24242593348026276
32 176 0.23814377188682556
32 177 0.2392551600933075
32 178 0.22749195992946625
32 179 0.20994602143764496
32 180 0.22845083475112915
32 181 0.11274690181016922
32 182 0.20242713391780853
32 183 0.2342071235179901
32 184 0.2282099723815918
32 185 0.2294219434261322
32 186 0.2425716668367386
32 187 0.24675394594669342
32 188 0.2306206375360489
32 189 0.23579417169094086
32 190 0.23900683224201202
32 191 0.24370607733726501
32 192 0.24408777058124542
32 193 0.23444920778274536
32 194 0.24637286365032196
32 195 0.2396290898323059
32 196 0.23481373488903046
32 197 0.22873318195343018
32 199 0.23728813230991364
32 201 0.127240851521492
32 202 0.23444920778274536
32 203 0.14276055991649628
32 204 0.10416345298290253
32 205 0.23186609148979187
32 206 0.15058039128780365
32 207 0.24752147495746613
32 208 0.248686283826828
32 210 0.08012574166059494
32 211 0.26146048307418823
32 212 0.23987936973571777
32 213 0.0889359563589096
32 214 0.1313600391149521
32 215 0.134458526968956
32 216 0.23838940262794495
32 217 0.24345260858535767
32 218 0.24563264846801758
32 219 0.23432807624340057
32 220 0.2214319258928299
32 221 0.23542506992816925
32 222 0.23542506992816925
32 223 0.23542506992816925
32 224 0.19298657774925232
32 225 0.24332618713378906
32 226 0.2252933830022812
32 227 0.21598732471466064
32 228 0.11391529440879822
32 229 0.22860760986804962
32 230 0.23104795813560486
32 231 0.23182618618011475
32 232 0.22725413739681244
32 233 0.21698834002017975
32 235 0.24282239377498627
32 236 0.18210695683956146
32 237 0.2386358082294464
32 238 0.24345260858535767
32 239 0.24803712964057922
32 240 0.14836402237415314
32 241 0.228089839220047
32 242 0.09472634643316269
32 243 0.23554791510105133
32 244 0.23098033666610718
32 245 0.2458929866552353
32 247 0.23900683224201202
32 248 0.2123146951198578
32 249 0.054292526096105576
32 250 0.23206958174705505
32 251 0.058880146592855453
32 252 0.23678699135780334
32 253 0.24421539902687073
32 254 0.05758592113852501
32 255 0.17768169939517975
33 34 0.13334797322750092
33 35 0.11972346156835556
33 36 0.11972346156835556
33 37 0.14075618982315063
33 38 0.05407380685210228
33 39 0.12734171748161316
33 40 0.08812101930379868
33 42 0.13279521465301514
33 43 0.05407380685210228
33 44 0.12561272084712982
33 45 0.12561272084712982
33 46 0.12036540359258652
33 47 0.1403179168701172
33 48 0.13411937654018402
33 50 0.13320913910865784
33 51 0.13981175422668457
33 52 0.11164843291044235
33 54 0.08511800318956375
33 55 0.12754584848880768
33 56 0.1216660588979721
33 57 0.1276141107082367
33 58 0.09765893220901489
33 59 0.1425512433052063
33 60 0.14075618982315063
33 61 0.14060963690280914
33 62 0.11828510463237762
33 64 0.12600545585155487
33 66 0.12561272084712982
33 67 0.13519321382045746
33 68 0.12548260390758514
33 69 0.12600545585155487
33 70 0.13468889892101288
33 71 0.12613719701766968
33 73 0.12620322406291962
33 74 0.14119857549667358
33 75 0.12600545585155487
33 76 0.14053654670715332
33 77 0.11068176478147507
33 78 0.1255476027727127
33 79 0.11470786482095718
33 83 0.12613719701766968
33 84 0.12633557617664337
33 85 0.14053654670715332
33 86 0.14024527370929718
33 87 0.13988372683525085
33 90 0.10566112399101257
33 91 0.11997900158166885
33 93 0.05510387569665909
33 94 0.1014765053987503
33 95 0.1063539907336235
33 98 0.14119857549667358
33 99 0.13334797322750092
33 100 0.12574322521686554
33 101 0.1251591145992279
33 102 0.12640191614627838
33 104 0.13272660970687866
33 106 0.11797920614480972
33 107 0.13320913910865784
33 108 0.14046356081962585
33 110 0.14024527370929718
33 111 0.13095144927501678
33 112 0.13265812397003174
33 113 0.12121236324310303
33 115 0.0978495180606842
33 117 0.14159846305847168
33 120 0.14082962274551392
33 121 0.14075618982315063
33 122 0.13440322875976562
33 123 0.14046356081962585
33 124 0.1332785040140152
33 127 0.14112456142902374
33 128 0.08377078175544739
33 130 0.11206205934286118
33 131 0.10235585272312164
33 132 0.13988372683525085
33 133 0.13973988592624664
33 134 0.07079923152923584
33 135 0.13293276727199554
33 136 0.09550702571868896
33 137 0.12548260390758514
33 138 0.13272660970687866
33 139 0.13293276727199554
33 140 0.1335570365190506
33 141 0.13102532923221588
33 142 0.12023618817329407
33 143 0.11831212788820267
33 144 0.11420141905546188
33 145 0.1399558037519455
33 146 0.1344744712114334
33 147 0.12561272084712982
33 148 0.12587414681911469
33 149 0.13307073712348938
33 151 0.11489952355623245
33 152 0.14024527370929718
33 153 0.06474484503269196
33 154 0.1266683042049408
33 155 0.13383732736110687
33 156 0.11100760847330093
33 157 0.12541770935058594
33 158 0.06488857418298721
33 159 0.1256779134273529
33 160 0.14127273857593536
33 161 0.10128775984048843
33 163 0.13313987851142883
33 164 0.14149585366249084
33 165 0.14010031521320343
33 166 0.14127273857593536
33 167 0.13981175422668457
33 168 0.12626934051513672
33 169 0.1344744712114334
33 171 0.14301083981990814
33 172 0.14053654670715332
33 173 0.13286393880844116
33 175 0.13490433990955353
33 176 0.1251591145992279
33 177 0.13313987851142883
33 178 0.14105066657066345
33 179 0.11184890568256378
33 180 0.14164519309997559
33 181 0.08830215781927109
33 182 0.12633557617664337
33 183 0.14002801477909088
33 184 0.1340487003326416
33 185 0.1422473043203354
33 186 0.1252882182598114
33 187 0.14002801477909088
33 188 0.14039067924022675
33 189 0.14097686111927032
33 190 0.14039067924022675
33 191 0.1332785040140152
33 192 0.14090318977832794
33 193 0.12541770935058594
33 194 0.13981175422668457
33 195 0.13334797322750092
33 196 0.14039067924022675
33 197 0.12928597629070282
33 199 0.11200268566608429
33 201 0.056055184453725815
33 202 0.14017273485660553
33 204 0.09883693605661392
33 205 0.09613852947950363
33 206 0.06633727252483368
33 207 0.14046356081962585
33 208 0.14112456142902374
33 212 0.14090318977832794
33 213 0.08955472707748413
33 214 0.10683668404817581
33 216 0.1252882182598114
33 217 0.13313987851142883
33 218 0.1194063052535057
33 219 0.13272660970687866
33 220 0.13988372683525085
33 221 0.13334797322750092
33 222 0.14075618982315063
33 223 0.13334797322750092
33 224 0.1327126920223236
33 225 0.13307073712348938
33 226 0.1423230916261673
33 227 0.14179499447345734
33 229 0.11401323229074478
33 231 0.12626934051513672
33 232 0.14090318977832794
33 233 0.10014494508504868
33 234 0.08603089302778244
33 235 0.14017273485660553
33 236 0.1343320906162262
33 237 0.11804019659757614
33 238 0.11834655702114105
33 239 0.13334797322750092
33 240 0.14379391074180603
33 241 0.13397812843322754
33 243 0.14082962274551392
33 244 0.14060963690280914
33 245 0.1344744712114334
33 246 0.3077934980392456
33 247 0.13300170004367828
33 248 0.14217160642147064
33 250 0.14127273857593536
33 251 0.10375715792179108
33 252 0.13411937654018402
33 253 0.12613719701766968
33 255 0.06806659698486328
34 35 0.951074481010437
34 36 0.9489679336547852
34 37 0.9582898616790771
34 38 0.12177956849336624
34 39 0.9478704333305359
34 40 0.21912990510463715
34 41 0.10709939897060394
34 42 0.9636635780334473
34 43 0.534688413143158
34 44 0.9610016942024231
34 45 0.9630818367004395
34 46 0.9445263147354126
34 47 0.9615431427955627
34 48 0.9512481689453125
34 49 0.28710225224494934
34 50 0.9583338499069214
34 51 0.9653248190879822
34 52 0.9544370770454407
34 53 0.45366859436035156
34 54 0.923617422580719
34 55 0.9483337998390198
34 56 0.18266935646533966
34 57 0.9456714987754822
34 58 0.6537033319473267
34 59 0.9472777247428894
34 60 0.9582898616790771
34 61 0.9625005125999451
34 62 0.9604598879814148
34 63 0.1444128006696701
34 64 0.9587898850440979
34 65 0.16145841777324677
34 66 0.9682820439338684
34 67 0.9430065751075745
34 68 0.9662402272224426
34 69 0.9587898850440979
34 70 0.951074481010437
34 71 0.956659197807312
34 72 0.05776512250304222
34 73 0.9634295105934143
34 74 0.9581636786460876
34 75 0.9587898850440979
34 76 0.9609590172767639
34 77 0.5712352991104126
34 78 0.9636221528053284
34 79 0.06458336859941483
34 80 0.20429129898548126
34 81 0.07220640033483505
34 82 0.055930834263563156
34 83 0.956659197807312
34 84 0.9539795517921448
34 85 0.9588767886161804
34 86 0.9620842933654785
34 87 0.9647854566574097
34 88 0.231533482670784
34 89 0.1444128006696701
34 90 0.47166937589645386
34 91 0.9488825798034668
34 92 0.06458336859941483
34 93 0.38522520661354065
34 94 0.209490567445755
34 95 0.4662080407142639
34 96 0.18580520153045654
34 97 0.10253987461328506
34 98 0.9539795517921448
34 99 0.9614181518554688
34 100 0.9620001316070557
34 101 0.9637491703033447
34 102 0.9544805288314819
34 103 0.15486548840999603
34 104 0.9621278047561646
34 105 0.13314202427864075
34 106 0.9621278047561646
34 107 0.9604172110557556
34 108 0.959419310092926
34 109 0.10253987461328506
34 110 0.9610453844070435
34 111 0.9205271005630493
34 112 0.963705837726593
34 113 0.8815051317214966
34 114 0.3262631893157959
34 115 0.9450345635414124
34 116 0.44173192977905273
34 117 0.20429129898548126
34 118 0.2545362412929535
34 120 0.9567033052444458
34 121 0.9582898616790771
34 122 0.9501083493232727
34 123 0.9604598879814148
34 124 0.9609172344207764
34 125 0.24596147239208221
34 126 0.15486548840999603
34 127 0.9545249342918396
34 128 0.17097321152687073
34 129 0.5528331995010376
34 130 0.9506120085716248
34 131 0.9021136164665222
34 132 0.9647854566574097
34 133 0.966899037361145
34 134 0.1993086040019989
34 135 0.9646616578102112
34 136 0.7541638016700745
34 137 0.9610453844070435
34 138 0.9621278047561646
34 139 0.9625826478004456
34 140 0.9597923159599304
34 141 0.9210464358329773
34 142 0.9435123205184937
34 143 0.29642632603645325
34 144 0.9323243498802185
34 145 0.9642459154129028
34 146 0.9495604634284973
34 147 0.9599616527557373
34 148 0.9598750472068787
34 149 0.959419310092926
34 151 0.930476188659668
34 152 0.9620842933654785
34 153 0.3311143219470978
34 154 0.9512481689453125
34 155 0.9544805288314819
34 156 0.9614588618278503
34 157 0.9636635780334473
34 158 0.21920321881771088
34 159 0.9604598879814148
34 160 0.9576202034950256
34 161 0.9135370254516602
34 162 0.19375009834766388
34 163 0.9609590172767639
34 164 0.9528432488441467
34 165 0.9621278047561646
34 166 0.9576202034950256
34 167 0.9653248190879822
34 168 0.9566159248352051
34 169 0.9537667036056519
34 170 0.33734652400016785
34 171 0.9418562054634094
34 172 0.9588767886161804
34 173 0.9631232619285583
34 174 0.2662840485572815
34 175 0.9483760595321655
34 176 0.9637491703033447
34 177 0.9588767886161804
34 178 0.9561149477958679
34 179 0.823502242565155
34 180 0.9527995586395264
34 181 0.3200486898422241
34 182 0.9550256133079529
34 183 0.963705837726593
34 184 0.9549397826194763
34 185 0.9494731426239014
34 186 0.963705837726593
34 187 0.9626684784889221
34 188 0.9599616527557373
34 189 0.9577035307884216
34 190 0.9599616527557373
34 191 0.9577906131744385
34 192 0.9592906832695007
34 193 0.9615867137908936
34 194 0.9663605690002441
34 195 0.9582898616790771
34 196 0.9610016942024231
34 197 0.9355810284614563
34 198 0.12109380960464478
34 199 0.9522103071212769
34 200 0.1712525188922882
34 201 0.25248366594314575
34 202 0.9626251459121704
34 203 0.4021555185317993
34 204 0.49486657977104187
34 205 0.8931182622909546
34 206 0.5359656810760498
34 207 0.9635816812515259
34 208 0.9545249342918396
34 210 0.23848991096019745
34 211 0.17097321152687073
34 212 0.9572030305862427
34 213 0.3245886266231537
34 214 0.40101131796836853
34 215 0.1250651478767395
34 216 0.9668179750442505
34 217 0.9620001316070557
34 218 0.9527568221092224
34 219 0.9642035365104675
34 220 0.9647854566574097
34 221 0.9582898616790771
34 222 0.9582898616790771
34 223 0.9572471380233765
34 224 0.8476110100746155
34 225 0.9615004658699036
34 226 0.9499791264533997
34 227 0.9496054649353027
34 228 0.2542969882488251
34 229 0.9350674152374268
34 230 0.3524470925331116
34 231 0.9555704593658447
34 232 0.9572030305862427
34 233 0.7868142127990723
34 234 0.2542969882488251
34 235 0.9647020101547241
34 236 0.9496054649353027
34 237 0.9615867137908936
34 238 0.9588767886161804
34 239 0.9593325853347778
34 240 0.5427969098091125
34 241 0.9544370770454407
34 242 0.3811516761779785
34 243 0.9567033052444458
34 244 0.9604172110557556
34 245 0.9516635537147522
34 246 0.12997151911258698
34 247 0.9610016942024231
34 248 0.947914719581604
34 249 0.15486548840999603
34 250 0.9565736651420593
34 251 0.20446249842643738
34 252 0.9522969126701355
34 253 0.956659197807312
34 254 0.21425171196460724
34 255 0.5231113433837891
35 36 0.9382978677749634
35 37 0.951074481010437
35 38 0.13837967813014984
35 39 0.937167763710022
35 40 0.1837485134601593
35 41 0.0983421579003334
35 42 0.9544742703437805
35 43 0.5170018672943115
35 44 0.9570087790489197
35 45 0.9549077749252319
35 46 0.9379813075065613
35 47 0.9523130059242249
35 48 0.9449236989021301
35 49 0.2935694456100464
35 50 0.9511364102363586
35 51 0.9572470188140869
35 52 0.9449868202209473
35 53 0.4582306146621704
35 54 0.9098025560379028
35 55 0.9440033435821533
35 56 0.17874041199684143
35 57 0.9349033832550049
35 58 0.6556487083435059
35 59 0.9344033002853394
35 60 0.9489679336547852
35 61 0.9532406330108643
35 62 0.9533013701438904
35 63 0.13857175409793854
35 64 0.9494631290435791
35 65 0.15655873715877533
35 66 0.9528067708015442
35 67 0.9364720582962036
35 68 0.9539187550544739
35 69 0.9484093189239502
35 70 0.9436169862747192
35 71 0.9483460187911987
35 72 0.05834599956870079
35 73 0.9456760287284851
35 74 0.9445547461509705
35 75 0.9473555684089661
35 76 0.9495903253555298
35 77 0.5682374238967896
35 78 0.9512630105018616
35 79 0.06523280590772629
35 80 0.19124716520309448
35 81 0.05834599956870079
35 82 0.05649326741695404
35 83 0.9515107274055481
35 84 0.9456112384796143
35 85 0.9527450799942017
35 86 0.9518199563026428
35 87 0.9566930532455444
35 88 0.22550952434539795
35 89 0.14586499333381653
35 90 0.47212040424346924
35 91 0.9381684064865112
35 92 0.06523280590772629
35 93 0.3890989124774933
35 94 0.17312493920326233
35 95 0.4536155164241791
35 96 0.19303573668003082
35 97 0.10357099771499634
35 98 0.9487809538841248
35 99 0.9500212669372559
35 100 0.9537967443466187
35 101 0.9545996785163879
35 102 0.9471648931503296
35 103 0.14962178468704224
35 104 0.9592227935791016
35 105 0.12657023966312408
35 106 0.9550294876098633
35 107 0.9532406330108643
35 108 0.9511992335319519
35 109 0.11298653483390808
35 110 0.9528693556785583
35 111 0.9221177697181702
35 112 0.9545365571975708
35 113 0.8616478443145752
35 114 0.30443593859672546
35 115 0.9363458156585693
35 116 0.42293569445610046
35 117 0.19124716520309448
35 118 0.26896175742149353
35 120 0.9484093189239502
35 121 0.9489679336547852
35 122 0.9448004364967346
35 123 0.9533013701438904
35 124 0.9505789875984192
35 125 0.24422405660152435
35 126 0.12921881675720215
35 127 0.9472275376319885
35 128 0.17864739894866943
35 129 0.5583924055099487
35 130 0.9453012943267822
35 131 0.8921555280685425
35 132 0.9556463956832886
35 133 0.9557093977928162
35 134 0.20634561777114868
35 135 0.9554628133773804
35 136 0.733232855796814
35 137 0.9581164121627808
35 138 0.9560778141021729
35 139 0.9523130059242249
35 140 0.952565610408783
35 141 0.922637939453125
35 142 0.9391111135482788
35 143 0.31286361813545227
35 144 0.9243810176849365
35 145 0.9540444016456604
35 146 0.938928484916687
35 147 0.9549077749252319
35 148 0.9547897577285767
35 149 0.9501482248306274
35 151 0.9300316572189331
35 152 0.9528693556785583
35 153 0.3313756585121155
35 154 0.9438643455505371
35 155 0.9439936280250549
35 156 0.9490321278572083
35 157 0.9544742703437805
35 158 0.19834421575069427
35 159 0.9490971565246582
35 160 0.9513933062553406
35 161 0.9027845859527588
35 162 0.17939020693302155
35 163 0.9495903253555298
35 164 0.9476020336151123
35 165 0.9550294876098633
35 166 0.9471648931503296
35 167 0.9562008380889893
35 168 0.9482836127281189
35 169 0.9453012943267822
35 170 0.331692636013031
35 171 0.9309952855110168
35 172 0.9495903253555298
35 173 0.9528693556785583
35 174 0.24918514490127563
35 175 0.934471070766449
35 176 0.9556463956832886
35 177 0.9527450799942017
35 178 0.9477869868278503
35 179 0.8146582841873169
35 180 0.9486021995544434
35 181 0.32012853026390076
35 182 0.9508939981460571
35 183 0.9545365571975708
35 184 0.9454845190048218
35 185 0.940926194190979
35 186 0.9524409174919128
35 187 0.9545365571975708
35 188 0.9496552348136902
35 189 0.9472911357879639
35 190 0.9549077749252319
35 191 0.9516316652297974
35 192 0.9457417130470276
35 193 0.9523765444755554
35 194 0.9551547169685364
35 195 0.9489679336547852
35 196 0.9549077749252319
35 197 0.9320144653320312
35 198 0.11415741592645645
35 199 0.9405540823936462
35 200 0.1729745864868164
35 201 0.2390836775302887
35 202 0.9523765444755554
35 203 0.3704335391521454
35 204 0.4998428523540497
35 205 0.8804579973220825
35 206 0.5092889070510864
35 207 0.9522503018379211
35 208 0.9440596103668213
35 209 0.05649326741695404
35 210 0.25293251872062683
35 211 0.15482774376869202
35 212 0.9467960596084595
35 213 0.32148656249046326
35 214 0.3771970570087433
35 215 0.12632279098033905
35 216 0.9524409174919128
35 217 0.9495903253555298
35 218 0.949605405330658
35 219 0.9539811611175537
35 220 0.9566930532455444
35 221 0.9500212669372559
35 222 0.9489679336547852
35 223 0.9521276950836182
35 224 0.8608514666557312
35 225 0.9501482248306274
35 226 0.9382327198982239
35 227 0.9421783685684204
35 228 0.2487000823020935
35 229 0.9250189661979675
35 230 0.3502027988433838
35 231 0.9461715817451477
35 232 0.9499590396881104
35 233 0.7727224230766296
35 234 0.2283148318529129
35 235 0.9555231928825378
35 236 0.9443003535270691
35 237 0.9523765444755554
35 238 0.9537967443466187
35 239 0.9500212669372559
35 240 0.5408211350440979
35 241 0.9471032023429871
35 242 0.3638894259929657
35 243 0.9463017582893372
35 244 0.9532406330108643
35 245 0.9442391395568848
35 246 0.14586499333381653
35 247 0.9507057666778564
35 248 0.9393616914749146
35 249 0.12921881675720215
35 250 0.9439936280250549
35 251 0.1819329708814621
35 252 0.9449236989021301
35 253 0.9515107274055481
35 254 0.21159715950489044
35 255 0.4974048435688019
36 37 0.951074481010437
36 38 0.13837967813014984
36 39 0.937167763710022
36 40 0.23386172950267792
36 41 0.10817637294530869
36 42 0.9576208591461182
36 43 0.5112360119819641
36 44 0.9528067708015442
36 45 0.9517562389373779
36 46 0.9337031245231628
36 47 0.9512630105018616
36 48 0.9428050518035889
36 49 0.26492851972579956
36 50 0.9500842690467834
36 51 0.9541085362434387
36 52 0.9449868202209473
36 53 0.4471084773540497
36 54 0.9186035394668579
36 55 0.9344033002853394
36 56 0.1729745864868164
36 57 0.9391723871231079
36 58 0.6510206460952759
36 59 0.9376033544540405
36 60 0.951074481010437
36 61 0.9479799270629883
36 62 0.9511992335319519
36 63 0.13857175409793854
36 64 0.9484093189239502
36 65 0.15655873715877533
36 66 0.9528067708015442
36 67 0.9396755695343018
36 68 0.9528693556785583
36 69 0.950516939163208
36 70 0.9414893388748169
36 71 0.952565610408783
36 72 0.07293249666690826
36 73 0.9477869868278503
36 74 0.9477243423461914
36 75 0.950516939163208
36 76 0.9516935348510742
36 77 0.5612437129020691
36 78 0.9586127400398254
36 79 0.06523280590772629
36 80 0.20634561777114868
36 81 0.07293249666690826
36 83 0.9483460187911987
36 84 0.9466677904129028
36 85 0.9537967443466187
36 86 0.9549681544303894
36 87 0.9566930532455444
36 88 0.22968563437461853
36 89 0.13127849996089935
36 90 0.4570983946323395
36 91 0.9403005838394165
36 92 0.06523280590772629
36 93 0.3890989124774933
36 94 0.20678812265396118
36 95 0.4622558355331421
36 96 0.16622520983219147
36 97 0.094155453145504
36 98 0.9456112384796143
36 99 0.951074481010437
36 100 0.9516935348510742
36 101 0.9566930532455444
36 102 0.9513933062553406
36 103 0.15642277896404266
36 104 0.9560778141021729
36 105 0.13448087871074677
36 106 0.9550294876098633
36 107 0.9511364102363586
36 108 0.9522503018379211
36 109 0.11298653483390808
36 110 0.9549681544303894
36 111 0.9078807830810547
36 112 0.9534887075424194
36 113 0.8627966642379761
36 114 0.32326704263687134
36 115 0.9363458156585693
36 116 0.4159642159938812
36 117 0.18621434271335602
36 118 0.265006422996521
36 120 0.9484093189239502
36 121 0.951074481010437
36 122 0.941615641117096
36 123 0.9522503018379211
36 124 0.9474208950996399
36 125 0.24422405660152435
36 126 0.15642277896404266
36 127 0.9472275376319885
36 128 0.16673757135868073
36 129 0.5476195216178894
36 130 0.9399906396865845
36 131 0.8932749032974243
36 132 0.9556463956832886
36 133 0.9557093977928162
36 134 0.19627998769283295
36 135 0.9512630105018616
36 136 0.7318750619888306
36 137 0.9560176134109497
36 138 0.9550294876098633
36 139 0.9575628042221069
36 140 0.9472911357879639
36 141 0.9083929061889648
36 142 0.935905933380127
36 143 0.31286361813545227
36 144 0.9243810176849365
36 145 0.955091655254364
36 146 0.9410527348518372
36 147 0.9517562389373779
36 148 0.9484735727310181
36 149 0.9564545154571533
36 151 0.9202303886413574
36 152 0.9528693556785583
36 153 0.32217076420783997
36 154 0.9459830522537231
36 155 0.9450507164001465
36 156 0.9479799270629883
36 157 0.9555231928825378
36 158 0.21679484844207764
36 159 0.9490971565246582
36 160 0.9492791295051575
36 161 0.8983537554740906
36 162 0.17395414412021637
36 163 0.9495903253555298
36 164 0.9444257020950317
36 165 0.9560778141021729
36 166 0.9471648931503296
36 167 0.9572470188140869
36 168 0.9482836127281189
36 169 0.9399906396865845
36 170 0.331692636013031
36 171 0.9352756142616272
36 172 0.9548482894897461
36 173 0.9518199563026428
36 174 0.2373191863298416
36 175 0.934471070766449
36 176 0.9535529613494873
36 177 0.9485387802124023
36 178 0.9446206092834473
36 179 0.8244439959526062
36 180 0.9411829710006714
36 181 0.29188188910484314
36 182 0.9445547461509705
36 183 0.9534887075424194
36 184 0.9476020336151123
36 185 0.9366685748100281
36 186 0.9534887075424194
36 187 0.9534887075424194
36 188 0.9496552348136902
36 189 0.9472911357879639
36 190 0.9517562389373779
36 191 0.9516316652297974
36 192 0.9457417130470276
36 193 0.9523765444755554
36 194 0.9551547169685364
36 195 0.9500212669372559
36 196 0.9496552348136902
36 197 0.9330956339836121
36 198 0.12231151759624481
36 199 0.9458619952201843
36 200 0.18450623750686646
36 201 0.2390836775302887
36 202 0.9523765444755554
36 203 0.39342597126960754
36 204 0.48579102754592896
36 205 0.8907091617584229
36 206 0.5319240093231201
36 207 0.9554034471511841
36 208 0.9461715817451477
36 210 0.2649769186973572
36 211 0.17864739894866943
36 212 0.9478504061698914
36 213 0.32148656249046326
36 214 0.3721340000629425
36 215 0.12632279098033905
36 216 0.9566320776939392
36 217 0.9495903253555298
36 218 0.9432393908500671
36 219 0.9550294876098633
36 220 0.960879921913147
36 221 0.9521276950836182
36 222 0.9468615055084229
36 223 0.9500212669372559
36 224 0.8419834971427917
36 225 0.9501482248306274
36 226 0.9350377917289734
36 227 0.940056324005127
36 228 0.2527771294116974
36 229 0.9282608032226562
36 230 0.35309702157974243
36 231 0.9493395686149597
36 232 0.9489047527313232
36 233 0.7727224230766296
36 234 0.2487000823020935
36 235 0.953425407409668
36 236 0.940056324005127
36 237 0.9523765444755554
36 238 0.9485387802124023
36 239 0.9489679336547852
36 240 0.5463966131210327
36 241 0.9439285397529602
36 242 0.39025822281837463
36 243 0.9473555684089661
36 244 0.9521884918212891
36 245 0.9431770443916321
36 246 0.11669199913740158
36 247 0.9496552348136902
36 248 0.9404255151748657
36 249 0.142820805311203
36 250 0.9471648931503296
36 251 0.20160141587257385
36 252 0.9406864047050476
36 253 0.9472911357879639
36 254 0.20678812265396118
36 255 0.5109528303146362
37 38 0.12939079105854034
37 39 0.9510335326194763
37 40 0.23566801846027374
37 41 0.10709939897060394
37 42 0.9667788743972778
37 43 0.5175631642341614
37 44 0.9620417952537537
37 45 0.9610016942024231
37 46 0.9434674382209778
37 47 0.9615431427955627
37 48 0.9533457159996033
37 49 0.28355780243873596
37 50 0.9625005125999451
37 51 0.9642890691757202
37 52 0.9554847478866577
37 53 0.4558708667755127
37 54 0.9192606806755066
37 55 0.9515019059181213
37 56 0.17696093022823334
37 57 0.9456714987754822
37 58 0.6720314621925354
37 59 0.9525579810142517
37 60 0.9593325853347778
37 61 0.9625005125999451
37 62 0.9615004658699036
37 63 0.1444128006696701
37 64 0.9567033052444458
37 65 0.14854174852371216
37 66 0.9641218781471252
37 67 0.9482924938201904
37 68 0.9631232619285583
37 69 0.9587898850440979
37 70 0.9489679336547852
37 71 0.9556147456169128
37 72 0.05776512250304222
37 73 0.9571599364280701
37 74 0.9592097401618958
37 75 0.9598332047462463
37 76 0.9599179029464722
37 77 0.5712352991104126
37 78 0.9625826478004456
37 79 0.06458336859941483
37 80 0.1793777346611023
37 81 0.07220640033483505
37 83 0.9618811011314392
37 84 0.9571176171302795
37 85 0.9609590172767639
37 86 0.9641622304916382
37 87 0.9637491703033447
37 88 0.23566801846027374
37 89 0.13719215989112854
37 90 0.4822925627231598
37 91 0.9488825798034668
37 92 0.06458336859941483
37 93 0.38005438446998596
37 94 0.18568481504917145
37 95 0.47903943061828613
37 96 0.18580520153045654
37 97 0.10253987461328506
37 98 0.9581636786460876
37 99 0.9593325853347778
37 100 0.9599179029464722
37 101 0.9658217430114746
37 102 0.9544805288314819
37 103 0.14813220500946045
37 104 0.9652414917945862
37 105 0.13314202427864075
37 106 0.9652414917945862
37 107 0.9604172110557556
37 108 0.9604598879814148
37 109 0.11186166852712631
37 110 0.9610453844070435
37 111 0.9248641133308411
37 112 0.963705837726593
37 113 0.8792303204536438
37 114 0.32315593957901
37 115 0.9450345635414124
37 116 0.4486340284347534
37 117 0.1993086040019989
37 118 0.2349565178155899
37 120 0.9577466249465942
37 121 0.9603754281997681
37 122 0.9543123841285706
37 123 0.9604598879814148
37 124 0.9577906131744385
37 125 0.24596147239208221
37 126 0.1279323548078537
37 127 0.9566159248352051
37 128 0.17097321152687073
37 129 0.558165967464447
37 130 0.9506120085716248
37 131 0.9098713397979736
37 132 0.9668580293655396
37 133 0.966899037361145
37 134 0.20429129898548126
37 135 0.9615431427955627
37 136 0.7380319237709045
37 137 0.965201199054718
37 138 0.9662793874740601
37 139 0.9636221528053284
37 140 0.9597923159599304
37 141 0.9232161045074463
37 142 0.9498588442802429
37 143 0.30974888801574707
37 144 0.935539186000824
37 145 0.9642459154129028
37 146 0.9506120085716248
37 147 0.9620417952537537
37 148 0.9609172344207764
37 149 0.9604598879814148
37 151 0.9250852465629578
37 152 0.9641622304916382
37 153 0.3311143219470978
37 154 0.9543944597244263
37 155 0.9565736651420593
37 156 0.9583338499069214
37 157 0.9615867137908936
37 158 0.22376996278762817
37 159 0.9625411033630371
37 160 0.9576202034950256
37 161 0.9102469682693481
37 162 0.18298621475696564
37 163 0.9588767886161804
37 164 0.9528432488441467
37 165 0.9642035365104675
37 166 0.9555270671844482
37 167 0.9673963189125061
37 168 0.9576614499092102
37 169 0.9558697938919067
37 170 0.33734652400016785
37 171 0.9450345635414124
37 172 0.9599179029464722
37 173 0.9610453844070435
37 174 0.2153768092393875
37 175 0.9462661743164062
37 176 0.9647854566574097
37 177 0.9651235342025757
37 178 0.9582048654556274
37 179 0.821080207824707
37 180 0.9559475779533386
37 181 0.3200486898422241
37 182 0.964439868927002
37 183 0.963705837726593
37 184 0.9538915157318115
37 185 0.9526345133781433
37 186 0.9626684784889221
37 187 0.9668179750442505
37 188 0.9610016942024231
37 189 0.9597923159599304
37 190 0.9610016942024231
37 191 0.9598750472068787
37 192 0.9582468867301941
37 193 0.9626251459121704
37 194 0.9642890691757202
37 195 0.9593325853347778
37 196 0.9641218781471252
37 197 0.9334401488304138
37 198 0.12916673719882965
37 199 0.9522103071212769
37 200 0.18266935646533966
37 201 0.2564287483692169
37 202 0.9615867137908936
37 203 0.3743334114551544
37 204 0.5127533078193665
37 205 0.885224461555481
37 206 0.5378332138061523
37 207 0.959419310092926
37 208 0.9566159248352051
37 210 0.2504144012928009
37 211 0.13559944927692413
37 212 0.9592906832695007
37 213 0.31513458490371704
37 214 0.37845441699028015
37 215 0.1250651478767395
37 216 0.9647432565689087
37 217 0.9630413055419922
37 218 0.9538072943687439
37 219 0.9631656408309937
37 220 0.9689306020736694
37 221 0.9593325853347778
37 222 0.9582898616790771
37 223 0.9614181518554688
37 224 0.8592861294746399
37 225 0.959419310092926
37 226 0.9478704333305359
37 227 0.9559081792831421
37 228 0.23411470651626587
37 229 0.9350674152374268
37 230 0.3438508212566376
37 231 0.9576614499092102
37 232 0.9613783955574036
37 233 0.7804069519042969
37 234 0.2583334743976593
37 235 0.9636635780334473
37 236 0.9517063498497009
37 237 0.9626251459121704
37 238 0.9620001316070557
37 239 0.9593325853347778
37 240 0.5317569375038147
37 241 0.9544370770454407
37 242 0.3863728940486908
37 243 0.9598332047462463
37 244 0.9625005125999451
37 245 0.9516635537147522
37 246 0.1444128006696701
37 247 0.9610016942024231
37 248 0.951074481010437
37 249 0.14139892160892487
37 250 0.9534339308738708
37 251 0.19959433376789093
37 252 0.9533457159996033
37 253 0.958747923374176
37 254 0.21901287138462067
37 255 0.5096982717514038
38 39 0.10774332284927368
38 40 0.09053574502468109
38 42 0.13643412292003632
38 43 0.0694444477558136
38 44 0.12905479967594147
38 45 0.12905479967594147
38 46 0.10047675669193268
38 47 0.13657543063163757
38 48 0.13779455423355103
38 49 0.05174336954951286
38 50 0.12925608456134796
38 51 0.1285226047039032
38 52 0.10706067830324173
38 54 0.11925058811903
38 55 0.12333259731531143
38 57 0.1311110407114029
38 58 0.1003350093960762
38 59 0.13104088604450226
38 60 0.12939079105854034
38 61 0.13685938715934753
38 62 0.1291217803955078
38 64 0.12184310704469681
38 65 0.1414213627576828
38 66 0.12905479967594147
38 67 0.09259854257106781
38 68 0.12892113626003265
38 69 0.13707350194454193
38 70 0.13069191575050354
38 71 0.13721680641174316
38 73 0.1296614706516266
38 74 0.12216231226921082
38 75 0.12184310704469681
38 76 0.1367882341146469
38 77 0.07580979913473129
38 78 0.121400386095047
38 80 0.07273929566144943
38 83 0.1295936554670334
38 84 0.11452716588973999
38 85 0.1367882341146469
38 86 0.12892113626003265
38 87 0.12858876585960388
38 89 0.05270462855696678
38 90 0.06203227862715721
38 91 0.13097088038921356
38 93 0.15097028017044067
38 94 0.06950480490922928
38 95 0.10926833748817444
38 96 0.0774984285235405
38 97 0.06804138422012329
38 98 0.12216231226921082
38 99 0.12177956849336624
38 100 0.1215895339846611
38 101 0.13615281879901886
38 102 0.13750477135181427
38 104 0.13636362552642822
38 106 0.12878787517547607
38 107 0.13685938715934753
38 108 0.13671718537807465
38 110 0.13650473952293396
38 111 0.12662571668624878
38 112 0.12114956229925156
38 113 0.12453386932611465
38 115 0.10826396942138672
38 117 0.07273929566144943
38 118 0.057166192680597305
38 120 0.12945829331874847
38 121 0.13700200617313385
38 122 0.13041473925113678
38 123 0.13671718537807465
38 124 0.12932337820529938
38 127 0.12972941994667053
38 129 0.07784989476203918
38 130 0.12280834466218948
38 131 0.12942849099636078
38 132 0.12858876585960388
38 133 0.0982314795255661
38 135 0.13657543063163757
38 136 0.05887448042631149
38 137 0.11375394463539124
38 138 0.13636362552642822
38 139 0.13657543063163757
38 140 0.1295936554670334
38 141 0.1346157342195511
38 142 0.13897231221199036
38 144 0.12515287101268768
38 145 0.12865504622459412
38 146 0.13048386573791504
38 147 0.1214633360505104
38 148 0.12932337820529938
38 149 0.12152638286352158
38 151 0.1180480495095253
38 152 0.13650473952293396
38 153 0.06651900708675385
38 154 0.13779455423355103
38 155 0.1298656165599823
38 156 0.13685938715934753
38 157 0.12127477675676346
38 158 0.09999999403953552
38 159 0.1063355877995491
38 160 0.13750477135181427
38 161 0.12007302790880203
38 162 0.07856742292642593
38 163 0.1291888803243637
38 164 0.1300707310438156
38 165 0.13636362552642822
38 166 0.12222646176815033
38 167 0.13608276844024658
38 168 0.1373605579137802
38 169 0.13048386573791504
38 170 0.0653720423579216
38 171 0.13146339356899261
38 172 0.1291888803243637
38 173 0.13650473952293396
38 174 0.08574929088354111
38 175 0.13860101997852325
38 176 0.13615281879901886
38 177 0.1291888803243637
38 178 0.11440718173980713
38 179 0.10607429593801498
38 180 0.12254870682954788
38 182 0.11452716588973999
38 183 0.1135777086019516
38 184 0.1377219557762146
38 185 0.11537778377532959
38 186 0.12114956229925156
38 187 0.12872140109539032
38 188 0.1214633360505104
38 189 0.1295936554670334
38 190 0.13664625585079193
38 191 0.12932337820529938
38 192 0.13714510202407837
38 193 0.12127477675676346
38 194 0.1285226047039032
38 195 0.12939079105854034
38 196 0.12905479967594147
38 197 0.1406421810388565
38 198 0.0589255653321743
38 199 0.13041473925113678
38 201 0.05759122595191002
38 202 0.13643412292003632
38 203 0.14769300818443298
38 205 0.11523512005805969
38 206 0.12267912179231644
38 207 0.13671718537807465
38 208 0.1373605579137802
38 210 0.05802588537335396
38 212 0.12190674990415573
38 215 0.06085805967450142
38 216 0.1135777086019516
38 217 0.1139901876449585
38 218 0.12267831712961197
38 219 0.13636362552642822
38 220 0.13615281879901886
38 221 0.12939079105854034
38 222 0.12177956849336624
38 223 0.13700200617313385
38 224 0.11078382283449173
38 225 0.12152638286352158
38 226 0.10774332284927368
38 227 0.1380131095647812
38 229 0.11713746935129166
38 230 0.08366077393293381
38 231 0.11446712911128998
38 232 0.12952592968940735
38 233 0.13094981014728546
38 234 0.0589255653321743
38 235 0.11369509994983673
38 236 0.12267831712961197
38 237 0.13643412292003632
38 238 0.1291888803243637
38 239 0.11416833847761154
38 240 0.09401267766952515
38 241 0.13764944672584534
38 242 0.13338778913021088
38 243 0.13707350194454193
38 244 0.13685938715934753
38 245 0.12280834466218948
38 247 0.1214633360505104
38 248 0.10762862861156464
38 250 0.09930899739265442
38 251 0.07106690108776093
38 252 0.09186303615570068
38 253 0.13721680641174316
38 255 0.05594542622566223
39 40 0.24665258824825287
39 41 0.10829164832830429
39 42 0.955491304397583
39 43 0.5117807388305664
39 44 0.9496155977249146
39 45 0.9496155977249146
39 46 0.9336273670196533
39 47 0.9491233825683594
39 48 0.9416887760162354
39 49 0.27596262097358704
39 50 0.9542564153671265
39 51 0.9582670331001282
39 52 0.948112428188324
39 53 0.42086341977119446
39 54 0.9129745960235596
39 55 0.939670205116272
39 56 0.16161498427391052
39 57 0.9391047954559326
39 58 0.6548030376434326
39 59 0.93326336145401
39 60 0.9510335326194763
39 61 0.9510967135429382
39 62 0.9532648921012878
39 63 0.13871939480304718
39 64 0.9452002048492432
39 65 0.1371348649263382
39 66 0.9527704119682312
39 67 0.9396079182624817
39 68 0.9591373205184937
39 69 0.9452002048492432
39 70 0.9435575604438782
39 71 0.9472444653511047
39 72 0.05840816721320152
39 73 0.9435140490531921
39 74 0.9476765394210815
39 75 0.9504747986793518
39 76 0.9495494961738586
39 77 0.5653423070907593
39 78 0.9543787837028503
39 80 0.1662600338459015
39 81 0.07301021367311478
39 82 0.05655346065759659
39 83 0.9546366333961487
39 84 0.9497919082641602
39 85 0.9527075886726379
39 86 0.9538846611976624
39 87 0.9556168913841248
39 88 0.20902760326862335
39 89 0.13871939480304718
39 90 0.47262346744537354
39 91 0.9370335936546326
39 92 0.06530231237411499
39 93 0.352914959192276
39 94 0.1877518594264984
39 95 0.46707314252853394
39 96 0.1932414323091507
39 97 0.11310692131519318
39 98 0.9497919082641602
39 99 0.9573596715927124
39 100 0.9527075886726379
39 101 0.9566647410392761
39 102 0.9439412355422974
39 103 0.14297297596931458
39 104 0.950799822807312
39 105 0.1187860369682312
39 106 0.9528987407684326
39 107 0.9500434398651123
39 108 0.9501084685325623
39 109 0.11310692131519318
39 110 0.9517835974693298
39 111 0.9143297076225281
39 112 0.9587003588676453
39 113 0.8671663403511047
39 114 0.3141859173774719
39 115 0.9352010488510132
39 116 0.44664931297302246
39 117 0.1864127665758133
39 118 0.2494506686925888
39 120 0.9483649730682373
39 121 0.9457616806030273
39 122 0.940493643283844
39 123 0.9511606097221375
39 124 0.9515918493270874
39 125 0.24026905000209808
39 126 0.14297297596931458
39 127 0.9471797347068787
39 128 0.16691523790359497
39 129 0.5625821352005005
39 130 0.943118691444397
39 131 0.8942266702651978
39 132 0.9556168913841248
39 133 0.9619614481925964
39 134 0.19145096838474274
39 135 0.9512255191802979
39 136 0.7462477684020996
39 137 0.9507330656051636
39 138 0.9518492817878723
39 139 0.9491233825683594
39 140 0.9472444653511047
39 141 0.9104578495025635
39 142 0.9390422701835632
39 143 0.2929907739162445
39 144 0.9221152663230896
39 145 0.9540125727653503
39 146 0.9399289488792419
39 147 0.9527704119682312
39 148 0.9515918493270874
39 149 0.9522127509117126
39 151 0.9201207756996155
39 152 0.9507330656051636
39 153 0.3317287564277649
39 154 0.944870114326477
39 155 0.9439412355422974
39 156 0.9479368925094604
39 157 0.9523413777351379
39 158 0.21702584624290466
39 159 0.9553692936897278
39 160 0.9439412355422974
39 161 0.9026376008987427
39 162 0.17958135902881622
39 163 0.9484966993331909
39 164 0.9454320669174194
39 165 0.9518492817878723
39 166 0.9481741189956665
39 167 0.9551252126693726
39 168 0.9450654983520508
39 169 0.9399289488792419
39 170 0.3320460915565491
39 171 0.9352010488510132
39 172 0.9495494961738586
39 173 0.9528341889381409
39 174 0.229653000831604
39 175 0.9365334510803223
39 176 0.9524734020233154
39 177 0.9527075886726379
39 178 0.9487968683242798
39 179 0.8253225088119507
39 180 0.9453688859939575
39 181 0.3110440671443939
39 182 0.9508495330810547
39 183 0.9524069428443909
39 184 0.9411925077438354
39 185 0.9504529237747192
39 186 0.9534558653831482
39 187 0.9534558653831482
39 188 0.9527704119682312
39 189 0.9472444653511047
39 190 0.951718807220459
39 191 0.9515918493270874
39 192 0.9478049874305725
39 193 0.9523413777351379
39 194 0.9572197198867798
39 195 0.9499791264533997
39 196 0.9496155977249146
39 197 0.9221838116645813
39 198 0.13060462474822998
39 199 0.9415563344955444
39 200 0.18470284342765808
39 201 0.23933842778205872
39 202 0.9512913227081299
39 203 0.3785005211830139
39 204 0.49032774567604065
39 205 0.8813961744308472
39 206 0.5287142395973206
39 207 0.9501084685325623
39 208 0.9450654983520508
39 209 0.05655346065759659
39 210 0.25320202112197876
39 211 0.16691523790359497
39 212 0.9541377425193787
39 213 0.30271053314208984
39 214 0.38773587346076965
39 215 0.10116590559482574
39 216 0.9566025733947754
39 217 0.9516549110412598
39 218 0.9421201944351196
39 219 0.9528987407684326
39 220 0.9566647410392761
39 221 0.9531422257423401
39 222 0.9489247798919678
39 223 0.9457616806030273
39 224 0.8487831950187683
39 225 0.9532648921012878
39 226 0.9424307346343994
39 227 0.938933789730072
39 228 0.23263950645923615
39 229 0.9216775298118591
39 230 0.3216027319431305
39 231 0.9450654983520508
39 232 0.949915885925293
39 233 0.7696586847305298
39 234 0.2163139283657074
39 235 0.9544413089752197
39 236 0.9410580396652222
39 237 0.9523413777351379
39 238 0.9548130631446838
39 239 0.946816086769104
39 240 0.5320950746536255
39 241 0.9428157210350037
39 242 0.3801153004169464
39 243 0.9473100900650024
39 244 0.9479368925094604
39 245 0.9452452659606934
39 246 0.13871939480304718
39 247 0.9506672024726868
39 248 0.9456875324249268
39 249 0.15658946335315704
39 250 0.9449995160102844
39 251 0.18704921007156372
39 252 0.945930540561676
39 253 0.9504125714302063
39 254 0.20219431817531586
39 255 0.5076223611831665
40 42 0.23469115793704987
40 43 0.14334826171398163
40 44 0.22268466651439667
40 45 0.21856088936328888
40 46 0.2141232192516327
40 47 0.22669090330600739
40 48 0.24950666725635529
40 49 0.07026936858892441
40 50 0.2436830997467041
40 51 0.25051388144493103
40 52 0.24093575775623322
40 53 0.09605247527360916
40 54 0.2375217229127884
40 55 0.20098817348480225
40 57 0.23880119621753693
40 58 0.10295092314481735
40 59 0.2512352168560028
40 60 0.24393706023693085
40 61 0.24781331419944763
40 62 0.24755585193634033
40 64 0.2440643459558487
40 66 0.2391798347234726
40 67 0.20539522171020508
40 68 0.24717114865779877
40 69 0.24820102751255035
40 70 0.21715731918811798
40 71 0.24431951344013214
40 73 0.2113019824028015
40 74 0.24885126948356628
40 75 0.23992766439914703
40 76 0.25181254744529724
40 77 0.17158742249011993
40 78 0.24317751824855804
40 80 0.05926955118775368
40 81 0.11451966315507889
40 83 0.24846051633358002
40 84 0.25299879908561707
40 85 0.2394283264875412
40 86 0.24305163323879242
40 87 0.2383161336183548
40 88 0.08196721225976944
40 91 0.2218058705329895
40 93 0.07175808399915695
40 94 0.15102405846118927
40 95 0.14415064454078674
40 98 0.2447037547826767
40 99 0.2398025244474411
40 100 0.22704410552978516
40 101 0.2506428360939026
40 102 0.24068254232406616
40 104 0.23868514597415924
40 106 0.24280041456222534
40 107 0.2271622121334076
40 108 0.21454839408397675
40 110 0.24717114865779877
40 111 0.23214910924434662
40 112 0.24267509579658508
40 113 0.23451513051986694
40 114 0.12320355325937271
40 115 0.23944297432899475
40 116 0.10034475475549698
40 120 0.2523377239704132
40 121 0.2232644259929657
40 122 0.22919850051403046
40 123 0.24755585193634033
40 124 0.23967760801315308
40 125 0.06611796468496323
40 126 0.053395070135593414
40 127 0.24872080981731415
40 129 0.1691567450761795
40 130 0.24182835221290588
40 131 0.215316504240036
40 132 0.2383161336183548
40 133 0.24628043174743652
40 135 0.23905585706233978
40 136 0.19721905887126923
40 137 0.24305163323879242
40 138 0.23045462369918823
40 139 0.23493421077728271
40 140 0.2360374927520752
40 141 0.24088305234909058
40 142 0.2096993774175644
40 143 0.06602998077869415
40 144 0.19970549643039703
40 145 0.23021690547466278
40 146 0.24182835221290588
40 147 0.24330362677574158
40 148 0.22728049755096436
40 149 0.24342992901802063
40 151 0.2308514565229416
40 152 0.24717114865779877
40 154 0.23703134059906006
40 155 0.23653285205364227
40 156 0.25194355845451355
40 157 0.23469115793704987
40 158 0.07242859899997711
40 159 0.24342992901802063
40 160 0.2323831468820572
40 161 0.21741801500320435
40 163 0.23530025780200958
40 164 0.24937517940998077
40 165 0.24280041456222534
40 166 0.24898193776607513
40 167 0.24640707671642303
40 168 0.2362847775220871
40 169 0.23765891790390015
40 170 0.05918506905436516
40 171 0.25204524397850037
40 172 0.25181254744529724
40 173 0.2512906789779663
40 174 0.15526752173900604
40 175 0.24678416550159454
40 176 0.2506428360939026
40 177 0.25181254744529724
40 178 0.2527337372303009
40 179 0.21607911586761475
40 180 0.24547773599624634
40 182 0.22811366617679596
40 183 0.24267509579658508
40 184 0.22859391570091248
40 185 0.24234287440776825
40 186 0.24678821861743927
40 187 0.23444882035255432
40 188 0.24742740392684937
40 189 0.24431951344013214
40 190 0.24742740392684937
40 191 0.23554524779319763
40 192 0.24833066761493683
40 193 0.25116071105003357
40 194 0.23819351196289062
40 195 0.2398025244474411
40 196 0.22268466651439667
40 197 0.23768535256385803
40 198 0.06401844322681427
40 199 0.23753300309181213
40 201 0.0782109722495079
40 202 0.24704331159591675
40 203 0.09025759994983673
40 204 0.12608200311660767
40 205 0.17884966731071472
40 206 0.1925186663866043
40 207 0.23930399119853973
40 208 0.23213942348957062
40 211 0.09350491315126419
40 212 0.2400529831647873
40 214 0.1192510649561882
40 216 0.22622254490852356
40 217 0.23530025780200958
40 218 0.241572305560112
40 219 0.23868514597415924
40 220 0.23420724272727966
40 221 0.2480715811252594
40 222 0.2480715811252594
40 223 0.2232644259929657
40 224 0.19905488193035126
40 225 0.23517806828022003
40 226 0.23829148709774017
40 227 0.241572305560112
40 229 0.20786049962043762
40 230 0.09089148789644241
40 231 0.2362847775220871
40 232 0.2400529831647873
40 233 0.2032395452260971
40 234 0.12803688645362854
40 235 0.25116071105003357
40 236 0.2499023824930191
40 237 0.25116071105003357
40 238 0.23530025780200958
40 239 0.23566801846027374
40 240 0.13132041692733765
40 241 0.24093575775623322
40 242 0.0724581703543663
40 243 0.24820102751255035
40 244 0.2436830997467041
40 245 0.24182835221290588
40 247 0.24742740392684937
40 248 0.25056615471839905
40 250 0.24068254232406616
40 252 0.22455598413944244
40 253 0.24431951344013214
40 254 0.09439004212617874
40 255 0.09117108583450317
41 42 0.10665546357631683
41 44 0.10682129114866257
41 45 0.10682129114866257
41 46 0.09886946529150009
41 47 0.10676592588424683
41 48 0.09792633354663849
41 49 0.06619033217430115
41 50 0.10698790103197098
41 51 0.10638079792261124
41 52 0.09782319515943527
41 53 0.14394031465053558
41 54 0.0915275290608406
41 55 0.10846523195505142
41 57 0.10852327942848206
41 59 0.10846523195505142
41 60 0.08762677758932114
41 61 0.09726172685623169
41 62 0.09716066718101501
41 64 0.09741389006376266
41 66 0.10682129114866257
41 67 0.09871038049459457
41 68 0.10671065002679825
41 69 0.10715528577566147
41 70 0.10817637294530869
41 71 0.10726731270551682
41 72 0.1348399668931961
41 73 0.10732346028089523
41 74 0.10743601620197296
41 75 0.10715528577566147
41 76 0.07776892930269241
41 77 0.08081352710723877
41 78 0.10676592588424683
41 83 0.10726731270551682
41 84 0.07813528180122375
41 85 0.10693227499723434
41 86 0.10671065002679825
41 87 0.10643555223941803
41 89 0.06741998344659805
41 90 0.09918995201587677
41 91 0.09855207055807114
41 93 0.09656091034412384
41 95 0.07987230271100998
41 98 0.07813528180122375
41 99 0.10709939897060394
41 100 0.10693227499723434
41 101 0.09675959497690201
41 102 0.10749242454767227
41 104 0.08721847832202911
41 105 0.07312723994255066
41 106 0.09690941870212555
41 107 0.09726172685623169
41 108 0.10687673836946487
41 110 0.08730871230363846
41 111 0.11136136204004288
41 112 0.0968594029545784
41 113 0.07434198260307312
41 115 0.10881493240594864
41 120 0.09741389006376266
41 121 0.10709939897060394
41 122 0.09813358634710312
41 123 0.10687673836946487
41 124 0.10704360902309418
41 127 0.09761790186166763
41 130 0.09818560630083084
41 131 0.10347842425107956
41 132 0.10643555223941803
41 133 0.10632611066102982
41 135 0.0970599353313446
41 136 0.08786457031965256
41 137 0.09700968116521835
41 138 0.10660036653280258
41 139 0.0970599353313446
41 140 0.10726731270551682
41 141 0.06077682599425316
41 142 0.108639657497406
41 144 0.11006606370210648
41 145 0.10649040341377258
41 146 0.10800416767597198
41 147 0.09711026400327682
41 148 0.10704360902309418
41 149 0.10687673836946487
41 151 0.10067170858383179
41 152 0.10671065002679825
41 154 0.09792633354663849
41 155 0.10749242454767227
41 156 0.10698790103197098
41 157 0.10665546357631683
41 159 0.10687673836946487
41 160 0.10749242454767227
41 161 0.10239862650632858
41 163 0.10693227499723434
41 164 0.0978747233748436
41 165 0.09690941870212555
41 166 0.10749242454767227
41 167 0.10638079792261124
41 168 0.10737969726324081
41 169 0.10800416767597198
41 171 0.09892266243696213
41 172 0.10693227499723434
41 173 0.08730871230363846
41 175 0.08864951878786087
41 176 0.10643555223941803
41 177 0.10693227499723434
41 178 0.10732346028089523
41 179 0.06784535199403763
41 180 0.10777582228183746
41 182 0.10743601620197296
41 183 0.1065453439950943
41 184 0.10766219347715378
41 185 0.10823395848274231
41 186 0.0968594029545784
41 187 0.1065453439950943
41 188 0.10682129114866257
41 189 0.09751573950052261
41 190 0.09711026400327682
41 191 0.09731236845254898
41 192 0.10721126198768616
41 193 0.0872635617852211
41 194 0.10638079792261124
41 195 0.08762677758932114
41 196 0.10682129114866257
41 197 0.09995003789663315
41 198 0.07537783682346344
41 199 0.10794694721698761
41 200 0.053300175815820694
41 202 0.10665546357631683
41 204 0.05567022040486336
41 205 0.09476309269666672
41 206 0.05231054872274399
41 207 0.09716066718101501
41 208 0.08785611391067505
41 212 0.09746478497982025
41 213 0.08827347308397293
41 216 0.1065453439950943
41 217 0.10693227499723434
41 218 0.1078898087143898
41 219 0.10660036653280258
41 220 0.10643555223941803
41 221 0.10709939897060394
41 222 0.09736309200525284
41 223 0.09736309200525284
41 224 0.0872093215584755
41 225 0.10687673836946487
41 226 0.10829164832830429
41 227 0.07846531271934509
41 229 0.10988467931747437
41 231 0.10737969726324081
41 232 0.10721126198768616
41 233 0.09572089463472366
41 235 0.09695951640605927
41 236 0.1078898087143898
41 237 0.10665546357631683
41 238 0.10693227499723434
41 239 0.09736309200525284
41 241 0.10760551691055298
41 242 0.07312723249197006
41 243 0.08767250180244446
41 244 0.07780937850475311
41 245 0.10800416767597198
41 247 0.10682129114866257
41 248 0.10817637294530869
41 250 0.10749242454767227
41 251 0.09090908616781235
41 252 0.10771896690130234
41 253 0.09751573950052261
42 43 0.5305771231651306
42 44 0.9642683863639832
42 45 0.9653041362762451
42 46 0.9479926824569702
42 47 0.9679093956947327
42 48 0.9577494859695435
42 49 0.28238245844841003
42 50 0.9636975526809692
42 51 0.9695751667022705
42 52 0.9567407965660095
42 53 0.4583674967288971
42 54 0.9208735823631287
42 55 0.9517645835876465
42 56 0.1762274205684662
42 57 0.9501694440841675
42 58 0.6570776700973511
42 59 0.9496612548828125
42 60 0.9647020101547241
42 61 0.9636975526809692
42 62 0.9637326002120972
42 63 0.14381420612335205
42 64 0.961049497127533
42 65 0.15435758233070374
42 66 0.9673755764961243
42 67 0.9538369178771973
42 68 0.967408299446106
42 69 0.961049497127533
42 70 0.953425407409668
42 71 0.9630942940711975
42 72 0.05752567946910858
42 73 0.9615171551704407
42 74 0.961483895778656
42 75 0.962088406085968
42 76 0.9642333984375
42 77 0.5792104601860046
42 78 0.9648038148880005
42 79 0.06431566923856735
42 80 0.19352038204669952
42 81 0.07190710306167603
42 82 0.055698998272418976
42 83 0.9610141515731812
42 84 0.9583587646484375
42 85 0.9631965160369873
42 86 0.96637362241745
42 87 0.9690423011779785
42 88 0.23057375848293304
42 89 0.13662348687648773
42 90 0.48452508449554443
42 91 0.9523071050643921
42 92 0.06431566923856735
42 93 0.3939271569252014
42 94 0.21336360275745392
42 95 0.47705376148223877
42 96 0.19032174348831177
42 97 0.10211484134197235
42 98 0.961483895778656
42 99 0.9636635780334473
42 100 0.9642333984375
42 101 0.9690423011779785
42 102 0.9599042534828186
42 103 0.14081279933452606
42 104 0.9695091247558594
42 105 0.12479071319103241
42 106 0.9705427289009094
42 107 0.9636975526809692
42 108 0.965805172920227
42 109 0.11139799654483795
42 110 0.96637362241745
42 111 0.9264292120933533
42 112 0.96900874376297
42 113 0.8846474885940552
42 114 0.32800522446632385
42 115 0.9463925957679749
42 116 0.44448322057724
42 117 0.20344451069831848
42 118 0.2612805664539337
42 120 0.9631273746490479
42 121 0.9626251459121704
42 122 0.9555898308753967
42 123 0.965805172920227
42 124 0.9641993641853333
42 125 0.23663882911205292
42 126 0.15422354638576508
42 127 0.9588975310325623
42 128 0.15265092253684998
42 129 0.5647034645080566
42 130 0.9540020823478699
42 131 0.909410834312439
42 132 0.9700742959976196
42 133 0.9711386561393738
42 134 0.19352038204669952
42 135 0.9648038148880005
42 136 0.7510376572608948
42 137 0.96637362241745
42 138 0.966408371925354
42 139 0.9689446091651917
42 140 0.9651743769645691
42 141 0.9280321598052979
42 142 0.9501350522041321
42 143 0.3051481246948242
42 144 0.9348629713058472
42 145 0.9685091376304626
42 146 0.9540020823478699
42 147 0.9673755764961243
42 148 0.9631614685058594
42 149 0.9637326002120972
42 151 0.9330615997314453
42 152 0.96637362241745
42 153 0.32671666145324707
42 154 0.959838330745697
42 155 0.9578197598457336
42 156 0.9626602530479431
42 157 0.9679420590400696
42 158 0.22284241020679474
42 159 0.965805172920227
42 160 0.9578197598457336
42 161 0.9141188263893127
42 162 0.18758735060691833
42 163 0.9631965160369873
42 164 0.9582886099815369
42 165 0.9674419164657593
42 166 0.9609465003013611
42 167 0.9695751667022705
42 168 0.9609798192977905
42 169 0.9550492167472839
42 170 0.34189411997795105
42 171 0.9495577812194824
42 172 0.9642333984375
42 173 0.967408299446106
42 174 0.24958142638206482
42 175 0.9517987966537476
42 176 0.9680102467536926
42 177 0.9642333984375
42 178 0.9646390080451965
42 179 0.8393849730491638
42 180 0.9582550525665283
42 181 0.32800522446632385
42 182 0.9625255465507507
42 183 0.9679757356643677
42 184 0.9562008380889893
42 185 0.9570812582969666
42 186 0.9669426679611206
42 187 0.9700418710708618
42 188 0.9673755764961243
42 189 0.9620542526245117
42 190 0.9653041362762451
42 191 0.9641993641853333
42 192 0.9615514278411865
42 193 0.9679420590400696
42 194 0.9685437083244324
42 195 0.9615867137908936
42 196 0.9642683863639832
42 197 0.941297173500061
42 198 0.1286313384771347
42 199 0.9555898308753967
42 200 0.18191216886043549
42 201 0.22393617033958435
42 202 0.9658737778663635
42 203 0.3954509496688843
42 204 0.5027111172676086
42 205 0.8927851319313049
42 206 0.5337440371513367
42 207 0.9637326002120972
42 208 0.9609798192977905
42 209 0.055698998272418976
42 210 0.24937638640403748
42 211 0.16439330577850342
42 212 0.9605118632316589
42 213 0.3106900155544281
42 214 0.3993490934371948
42 215 0.1162436306476593
42 216 0.9669426679611206
42 217 0.9642333984375
42 218 0.9550841450691223
42 219 0.9684755206108093
42 220 0.9721382260322571
42 221 0.9626251459121704
42 222 0.9626251459121704
42 223 0.9636635780334473
42 224 0.8580496311187744
42 225 0.9637326002120972
42 226 0.9544413089752197
42 227 0.9550841450691223
42 228 0.24520348012447357
42 229 0.9375841021537781
42 230 0.3481326401233673
42 231 0.9588975310325623
42 232 0.9636304378509521
42 233 0.7746198177337646
42 234 0.24520348012447357
42 235 0.9689761996269226
42 236 0.9561302065849304
42 237 0.9669079780578613
42 238 0.9642333984375
42 239 0.9636635780334473
42 240 0.5423792600631714
42 241 0.957784116268158
42 242 0.37177231907844543
42 243 0.961049497127533
42 244 0.9657723307609558
42 245 0.9540020823478699
42 246 0.14381420612335205
42 247 0.9653041362762451
42 248 0.9565719962120056
42 249 0.15422354638576508
42 250 0.9609465003013611
42 251 0.18422307074069977
42 252 0.9567050337791443
42 253 0.9620542526245117
42 254 0.2181050330400467
42 255 0.5171266198158264
43 44 0.5143213868141174
43 45 0.5276064276695251
43 46 0.5159094929695129
43 47 0.52164226770401
43 48 0.5262986421585083
43 49 0.16169802844524384
43 50 0.5170243382453918
43 51 0.5329908132553101
43 52 0.5180972218513489
43 53 0.27327093482017517
43 54 0.5187400579452515
43 55 0.5048928260803223
43 56 0.1354166567325592
43 57 0.5244441628456116
43 58 0.2675600051879883
43 59 0.5048928260803223
43 60 0.534688413143158
43 61 0.5303301215171814
43 62 0.5202848315238953
43 63 0.07905693352222443
43 64 0.5216407775878906
43 65 0.094280906021595
43 66 0.5276064276695251
43 67 0.511221170425415
43 68 0.52895587682724
43 69 0.5254483819007874
43 70 0.5227676630020142
43 71 0.5221861600875854
43 73 0.5033915638923645
43 74 0.5115546584129333
43 75 0.5197369456291199
43 76 0.5186553597450256
43 77 0.3506203591823578
43 78 0.5311266779899597
43 79 0.0589255653321743
43 80 0.10910893231630325
43 81 0.07905693352222443
43 82 0.06804138422012329
43 83 0.5240919589996338
43 84 0.5344601273536682
43 85 0.5110560655593872
43 86 0.5213722586631775
43 87 0.5313741564750671
43 88 0.12071432918310165
43 90 0.24812911450862885
43 91 0.4969189167022705
43 93 0.19814848899841309
43 94 0.19982631504535675
43 95 0.2146342396736145
43 96 0.0774984285235405
43 97 0.10206206887960434
43 98 0.5134634971618652
43 99 0.5080491304397583
43 100 0.5224550366401672
43 101 0.5313741564750671
43 102 0.511823296546936
43 103 0.12286829203367233
43 104 0.5170453786849976
43 105 0.08574929088354111
43 106 0.5246211886405945
43 107 0.5265284180641174
43 108 0.5164871215820312
43 109 0.10206206887960434
43 110 0.5308517217636108
43 111 0.5025457739830017
43 112 0.5167785882949829
43 113 0.48775768280029297
43 114 0.17577356100082397
43 115 0.5065207481384277
43 116 0.29387906193733215
43 117 0.16366341710090637
43 118 0.17149858176708221
43 120 0.5197369456291199
43 121 0.5099518895149231
43 122 0.5043981671333313
43 123 0.5202848315238953
43 124 0.5268025994300842
43 125 0.09128708392381668
43 126 0.08600780367851257
43 127 0.5265488028526306
43 128 0.06454972177743912
43 129 0.32437455654144287
43 130 0.5392054319381714
43 131 0.5278255343437195
43 132 0.5238101482391357
43 133 0.5308278203010559
43 134 0.13638617098331451
43 135 0.5292298197746277
43 136 0.45137104392051697
43 137 0.52895587682724
43 138 0.5284090638160706
43 139 0.5292298197746277
43 140 0.5183746218681335
43 141 0.486992210149765
43 142 0.5057048201560974
43 143 0.14586499333381653
43 144 0.5064780116081238
43 145 0.5297560095787048
43 146 0.49699002504348755
43 147 0.5238106846809387
43 148 0.5096862316131592
43 149 0.5202848315238953
43 151 0.5253138542175293
43 152 0.5422271490097046
43 153 0.17738401889801025
43 154 0.5167295932769775
43 155 0.5041841268539429
43 156 0.5227267742156982
43 157 0.5229974985122681
43 158 0.0833333358168602
43 159 0.5145882964134216
43 160 0.5251918435096741
43 161 0.5063079595565796
43 162 0.1473139077425003
43 163 0.533854067325592
43 164 0.508806049823761
43 165 0.5151515007019043
43 166 0.4927254319190979
43 167 0.5386609435081482
43 168 0.4979320168495178
43 169 0.5219354629516602
43 170 0.09261039644479752
43 171 0.4929877519607544
43 172 0.5186553597450256
43 173 0.5365394353866577
43 174 0.1786443442106247
43 175 0.5447790622711182
43 176 0.5181370973587036
43 177 0.5357539057731628
43 178 0.5072051882743835
43 179 0.42208734154701233
43 180 0.5150875449180603
43 181 0.1644333302974701
43 182 0.5172810554504395
43 183 0.5319222807884216
43 184 0.5164573192596436
43 185 0.5211230516433716
43 186 0.5281363725662231
43 187 0.5148856043815613
43 188 0.5200149416923523
43 189 0.5240919589996338
43 190 0.5295042395591736
43 191 0.5401152968406677
43 192 0.5219132900238037
43 193 0.5286822319030762
43 194 0.5329908132553101
43 195 0.5270771980285645
43 196 0.53329998254776
43 197 0.5488951802253723
43 198 0.1473139077425003
43 199 0.5293304324150085
43 200 0.0729166641831398
43 201 0.19437038898468018
43 202 0.5116279721260071
43 203 0.27230897545814514
43 204 0.2901294529438019
43 205 0.4938648045063019
43 206 0.29647454619407654
43 207 0.5259813666343689
43 208 0.5170099139213562
43 210 0.12330500781536102
43 211 0.12909944355487823
43 212 0.5123893618583679
43 213 0.16101528704166412
43 214 0.19208745658397675
43 216 0.5186715722084045
43 217 0.5300543904304504
43 218 0.5137154459953308
43 219 0.5340908765792847
43 220 0.5181370973587036
43 221 0.5232715606689453
43 222 0.5232715606689453
43 223 0.5213688015937805
43 224 0.4473962187767029
43 225 0.5145882964134216
43 226 0.5387166142463684
43 227 0.5271334052085876
43 228 0.272530734539032
43 229 0.4841682016849518
43 230 0.2875839173793793
43 231 0.5112864971160889
43 232 0.5219132900238037
43 233 0.4232485294342041
43 234 0.1767766922712326
43 235 0.5267873406410217
43 236 0.5348008275032043
43 237 0.5248923897743225
43 238 0.5186553597450256
43 239 0.5213688015937805
43 240 0.2148861140012741
43 241 0.5123618245124817
43 242 0.18579012155532837
43 243 0.5330635905265808
43 244 0.520825982093811
43 245 0.5238543152809143
43 246 0.0922330990433693
43 247 0.508627712726593
43 248 0.5073921084403992
43 249 0.11058146506547928
43 250 0.5366505980491638
43 251 0.1510171741247177
43 252 0.5339539051055908
43 253 0.5240919589996338
43 254 0.12163340300321579
43 255 0.30769985914230347
44 45 0.9657676219940186
44 46 0.9452421069145203
44 47 0.9631934762001038
44 48 0.9561004042625427
44 49 0.2757509648799896
44 50 0.9631180763244629
44 51 0.9679834842681885
44 52 0.9603182673454285
44 53 0.45468708872795105
44 54 0.9223053455352783
44 55 0.9521910548210144
44 56 0.17650140821933746
44 57 0.9505929350852966
44 58 0.6641928553581238
44 59 0.9490311145782471
44 60 0.9610016942024231
44 61 0.9620791673660278
44 62 0.9652311205863953
44 63 0.13683591783046722
44 64 0.9615030884742737
44 65 0.16103914380073547
44 66 0.9647303223609924
44 67 0.9489933848381042
44 68 0.9647673964500427
44 69 0.9604625105857849
44 70 0.9528067708015442
44 71 0.9593833684921265
44 72 0.07201889902353287
44 73 0.9588432908058167
44 74 0.9577622413635254
44 75 0.9615030884742737
44 76 0.9636557698249817
44 77 0.5749314427375793
44 78 0.9642303586006165
44 79 0.06441566348075867
44 80 0.20376081764698029
44 81 0.07201889902353287
44 82 0.05578560009598732
44 83 0.958341658115387
44 84 0.956718921661377
44 85 0.9626173377037048
44 86 0.9668399095535278
44 87 0.9674481749534607
44 88 0.2350560426712036
44 89 0.14403779804706573
44 90 0.4662063717842102
44 91 0.9516823291778564
44 93 0.39711833000183105
44 94 0.20419777929782867
44 95 0.4692634642124176
44 96 0.18532273173332214
44 97 0.09297600388526917
44 98 0.958805501461029
44 99 0.9610016942024231
44 100 0.9657326340675354
44 101 0.9674481749534607
44 102 0.9572213292121887
44 103 0.14774754643440247
44 104 0.9668757319450378
44 105 0.1327963024377823
44 106 0.9668757319450378
44 107 0.9651960134506226
44 108 0.9693825840950012
44 109 0.11157120019197464
44 110 0.9637311697006226
44 111 0.922462522983551
44 112 0.9653420448303223
44 113 0.879216194152832
44 114 0.31611838936805725
44 115 0.9478640556335449
44 116 0.43140605092048645
44 117 0.19879105687141418
44 118 0.2460637241601944
44 120 0.9625437259674072
44 121 0.9641218781471252
44 122 0.9539307951927185
44 123 0.9652311205863953
44 124 0.9636195302009583
44 125 0.2370067536830902
44 126 0.15446335077285767
44 127 0.9603884816169739
44 128 0.15288828313350677
44 129 0.5673545002937317
44 130 0.9533876776695251
44 131 0.9075086712837219
44 132 0.9664146304130554
44 133 0.9674859046936035
44 134 0.20376081764698029
44 135 0.9642303586006165
44 136 0.7481828927993774
44 137 0.9647673964500427
44 138 0.9679110050201416
44 139 0.9642303586006165
44 140 0.9593833684921265
44 141 0.9251469373703003
44 142 0.953722357749939
44 143 0.2989785671234131
44 144 0.9395230412483215
44 145 0.9689809083938599
44 146 0.9523388147354126
44 147 0.9636929035186768
44 148 0.9615405201911926
44 149 0.9662689566612244
44 151 0.9312861561775208
44 152 0.9647673964500427
44 153 0.3302544951438904
44 154 0.9561004042625427
44 155 0.9613967537879944
44 156 0.9620791673660278
44 157 0.9653041362762451
44 158 0.2095242738723755
44 159 0.9641931653022766
44 160 0.9582651853561401
44 161 0.9166340231895447
44 162 0.193246990442276
44 163 0.9626173377037048
44 164 0.9555965065956116
44 165 0.9679110050201416
44 166 0.9561774730682373
44 167 0.9669504165649414
44 168 0.96247398853302
44 169 0.9565341472625732
44 170 0.3215824067592621
44 171 0.9468073844909668
44 172 0.9626173377037048
44 173 0.9647673964500427
44 174 0.2421579509973526
44 175 0.9543309211730957
44 176 0.9664146304130554
44 177 0.9636557698249817
44 178 0.9588432908058167
44 179 0.8261953592300415
44 180 0.9576517343521118
44 181 0.3285152018070221
44 182 0.9608922004699707
44 183 0.9674113988876343
44 184 0.9597785472869873
44 185 0.9512118101119995
44 186 0.9684460759162903
44 187 0.9674113988876343
44 188 0.9647303223609924
44 189 0.9614666700363159
44 190 0.9636929035186768
44 191 0.9605010151863098
44 192 0.9620053768157959
44 193 0.9642683863639832
44 194 0.9669504165649414
44 195 0.9610016942024231
44 196 0.9636929035186768
44 197 0.9352869987487793
44 198 0.12883132696151733
44 199 0.9528825283050537
44 200 0.1821950078010559
44 201 0.26363247632980347
44 202 0.9663398265838623
44 203 0.39858850836753845
44 204 0.5094395279884338
44 205 0.8874247670173645
44 206 0.5345739126205444
44 207 0.9641931653022766
44 208 0.958302915096283
44 209 0.05578560009598732
44 210 0.2537286579608917
44 211 0.16464892029762268
44 212 0.9588820338249207
44 213 0.3174594044685364
44 214 0.3949703872203827
44 215 0.11642436683177948
44 216 0.9653420448303223
44 217 0.9646941423416138
44 218 0.9576168656349182
44 219 0.9648053646087646
44 220 0.9695153832435608
44 221 0.9620417952537537
44 222 0.9610016942024231
44 223 0.9610016942024231
44 224 0.8698640465736389
44 225 0.9631552696228027
44 226 0.9527704119682312
44 227 0.9555214047431946
44 228 0.2536366581916809
44 229 0.9422431588172913
44 230 0.3458159267902374
44 231 0.9603884816169739
44 232 0.9620053768157959
44 233 0.7847710847854614
44 234 0.2536366581916809
44 235 0.9642683863639832
44 236 0.953425943851471
44 237 0.9663398265838623
44 238 0.9626173377037048
44 239 0.9610016942024231
44 240 0.5468930006027222
44 241 0.958228349685669
44 242 0.38536959886550903
44 243 0.9615030884742737
44 244 0.9620791673660278
44 245 0.9533876776695251
44 246 0.13683591783046722
44 247 0.9668049812316895
44 248 0.9507057666778564
44 249 0.14774754643440247
44 250 0.9582651853561401
44 251 0.20878705382347107
44 252 0.9561004042625427
44 253 0.958341658115387
44 254 0.20419777929782867
44 255 0.5217530131340027
45 46 0.950522780418396
45 47 0.9631934762001038
45 48 0.9561004042625427
45 49 0.28282150626182556
45 50 0.9620791673660278
45 51 0.9679834842681885
45 52 0.9561384320259094
45 53 0.45249050855636597
45 54 0.9233916997909546
45 55 0.9500844478607178
45 56 0.1821950078010559
45 57 0.9495390057563782
45 58 0.658099353313446
45 59 0.9469245076179504
45 60 0.9599616527557373
45 61 0.9631180763244629
45 62 0.9641931653022766
45 63 0.13683591783046722
45 64 0.9604625105857849
45 65 0.1481560319662094
45 66 0.9636929035186768
45 67 0.9511022567749023
45 68 0.9658036828041077
45 69 0.9615030884742737
45 70 0.9517562389373779
45 71 0.9593833684921265
45 72 0.057615119963884354
45 73 0.9619699716567993
45 74 0.9577622413635254
45 75 0.9625437259674072
45 76 0.9615789651870728
45 77 0.580111026763916
45 78 0.9642303586006165
45 79 0.06441566348075867
45 80 0.1938212662935257
45 81 0.057615119963884354
45 82 0.05578560009598732
45 83 0.9604250192642212
45 84 0.9619354605674744
45 85 0.9667710661888123
45 86 0.9668399095535278
45 87 0.9684817790985107
45 88 0.24330362677574158
45 89 0.13683591783046722
45 90 0.4789210855960846
45 91 0.9537877440452576
45 92 0.06441566348075867
45 93 0.38164615631103516
45 94 0.1947002112865448
45 95 0.4585983455181122
45 96 0.19591259956359863
45 97 0.11157120019197464
45 98 0.9577622413635254
45 99 0.9620417952537537
45 100 0.9615789651870728
45 101 0.9674481749534607
45 102 0.9582651853561401
45 103 0.14774754643440247
45 104 0.9658405184745789
45 105 0.1249847486615181
45 106 0.9668757319450378
45 107 0.9620791673660278
45 108 0.9641931653022766
45 109 0.1022736057639122
45 110 0.9668399095535278
45 111 0.9278696775436401
45 112 0.9684460759162903
45 113 0.881485104560852
45 114 0.2789279818534851
45 115 0.9457507133483887
45 116 0.4428795874118805
45 117 0.1838817149400711
45 118 0.2655926048755646
45 120 0.9594219326972961
45 121 0.9641218781471252
45 122 0.9581238627433777
45 123 0.9641931653022766
45 124 0.9615405201911926
45 125 0.22453269362449646
45 126 0.14774754643440247
45 127 0.9593456387519836
45 128 0.17052924633026123
45 129 0.5673545002937317
45 130 0.9533876776695251
45 131 0.9041925668716431
45 132 0.9674481749534607
45 133 0.9685184359550476
45 134 0.19879105687141418
45 135 0.9663039445877075
45 136 0.7414787411689758
45 137 0.9658036828041077
45 138 0.9689461588859558
45 139 0.9642303586006165
45 140 0.9614666700363159
45 141 0.9251469373703003
45 142 0.9463372826576233
45 143 0.28236863017082214
45 144 0.9352476596832275
45 145 0.9679467678070068
45 146 0.9523388147354126
45 147 0.9626556038856506
45 148 0.9636195302009583
45 149 0.9652311205863953
45 151 0.9269846081733704
45 152 0.9647673964500427
45 153 0.3241947889328003
45 154 0.9550543427467346
45 155 0.9572213292121887
45 156 0.9651960134506226
45 157 0.9684113264083862
45 158 0.2095242738723755
45 159 0.9621174335479736
45 160 0.9593090415000916
45 161 0.9188216924667358
45 162 0.18787901103496552
45 163 0.9615789651870728
45 164 0.9566420316696167
45 165 0.9658405184745789
45 166 0.9572213292121887
45 167 0.9679834842681885
45 168 0.9593456387519836
45 169 0.9565341472625732
45 170 0.33944812417030334
45 171 0.9446939826011658
45 172 0.9615789651870728
45 173 0.9678761959075928
45 174 0.2538752853870392
45 175 0.9511743187904358
45 176 0.9664146304130554
45 177 0.9626173377037048
45 178 0.9609277248382568
45 179 0.8225717544555664
45 180 0.9545118808746338
45 181 0.3285152018070221
45 182 0.9598488211631775
45 183 0.9663767218589783
45 184 0.9576875567436218
45 185 0.9533140063285828
45 186 0.9663767218589783
45 187 0.9663767218589783
45 188 0.9636929035186768
45 189 0.9604250192642212
45 190 0.9636929035186768
45 191 0.9615405201911926
45 192 0.9609642624855042
45 193 0.9653041362762451
45 194 0.9700496196746826
45 195 0.9610016942024231
45 196 0.9668049812316895
45 197 0.9416930675506592
45 198 0.096623495221138
45 199 0.9528825283050537
45 200 0.17650140821933746
45 201 0.25969764590263367
45 202 0.9673755764961243
45 203 0.3884976804256439
45 204 0.4975460469722748
45 205 0.8863000869750977
45 206 0.5327112674713135
45 207 0.9631552696228027
45 208 0.9603884816169739
45 209 0.05578560009598732
45 210 0.24579963088035583
45 211 0.1764095574617386
45 212 0.9599231481552124
45 213 0.3143162131309509
45 214 0.3974702060222626
45 215 0.11642436683177948
45 216 0.9684460759162903
45 217 0.9657326340675354
45 218 0.9565691351890564
45 219 0.9658405184745789
45 220 0.9684817790985107
45 221 0.9599616527557373
45 222 0.9630818367004395
45 223 0.9651618599891663
45 224 0.8582192659378052
45 225 0.9683446884155273
45 226 0.9496155977249146
45 227 0.9555214047431946
45 228 0.2536366581916809
45 229 0.9369076490402222
45 230 0.34867390990257263
45 231 0.9603884816169739
45 232 0.9588820338249207
45 233 0.7873273491859436
45 234 0.24961069226264954
45 235 0.9642683863639832
45 236 0.9565691351890564
45 237 0.9642683863639832
45 238 0.9646941423416138
45 239 0.966201901435852
45 240 0.5285409092903137
45 241 0.9571834206581116
45 242 0.3775580823421478
45 243 0.9656654596328735
45 244 0.9620791673660278
45 245 0.9512900114059448
45 246 0.14403779804706573
45 247 0.9647303223609924
45 248 0.9496552348136902
45 249 0.15446335077285767
45 250 0.9593090415000916
45 251 0.20878705382347107
45 252 0.9561004042625427
45 253 0.9614666700363159
45 254 0.20419777929782867
45 255 0.52939772605896
46 47 0.9489745497703552
46 48 0.9361452460289001
46 49 0.26994839310646057
46 50 0.9435429573059082
46 51 0.9497584104537964
46 52 0.9426065683364868
46 53 0.44950583577156067
46 54 0.8991965055465698
46 55 0.9297620058059692
46 56 0.17390207946300507
46 57 0.930259644985199
46 58 0.6296957731246948
46 59 0.9308344125747681
46 60 0.9434674382209778
46 61 0.9446007609367371
46 62 0.9478460550308228
46 63 0.1466471254825592
46 64 0.9439597129821777
46 65 0.13116517663002014
46 66 0.9473543167114258
46 67 0.9339786767959595
46 68 0.9474282264709473
46 69 0.9429003000259399
46 70 0.932633638381958
46 71 0.9428255558013916
46 72 0.058658845722675323
46 73 0.9422580003738403
46 74 0.9464327096939087
46 75 0.9471380710601807
46 76 0.9462241530418396
46 77 0.5660108327865601
46 78 0.9479190111160278
46 80 0.1973324418067932
46 81 0.0733235627412796
46 82 0.056796181946992874
46 83 0.9449466466903687
46 84 0.944308340549469
46 85 0.9430524110794067
46 86 0.9505932927131653
46 87 0.9502472877502441
46 88 0.25190967321395874
46 89 0.13931477069854736
46 90 0.4573918282985687
46 91 0.9356961250305176
46 92 0.06558258086442947
46 93 0.3754328489303589
46 94 0.1837228536605835
46 95 0.44518956542015076
46 96 0.1832890659570694
46 97 0.11359236389398575
46 98 0.9411216974258423
46 99 0.9455852508544922
46 100 0.9430524110794067
46 101 0.9512996077537537
46 102 0.9394903779029846
46 103 0.14358660578727722
46 104 0.947502851486206
46 105 0.13520196080207825
46 106 0.9517186880111694
46 107 0.9446007609367371
46 108 0.9446760416030884
46 109 0.10412634164094925
46 110 0.9463731050491333
46 111 0.9072436094284058
46 112 0.948067307472229
46 113 0.8628029227256775
46 114 0.3155343234539032
46 115 0.933835506439209
46 116 0.41585832834243774
46 117 0.1973324418067932
46 118 0.2664273679256439
46 120 0.9429003000259399
46 121 0.946644127368927
46 122 0.9423955082893372
46 123 0.9457327127456665
46 124 0.9450926184654236
46 125 0.23706689476966858
46 126 0.12991169095039368
46 127 0.9385050535202026
46 128 0.1676316112279892
46 129 0.5794374942779541
46 130 0.9396916627883911
46 131 0.8856852650642395
46 132 0.9512996077537537
46 133 0.9555776715278625
46 134 0.1720334142446518
46 135 0.9542524814605713
46 136 0.7207829356193542
46 137 0.9463731050491333
46 138 0.949610710144043
46 139 0.9510856866836548
46 140 0.9438861012458801
46 141 0.9066537618637085
46 142 0.9301831126213074
46 143 0.2976303994655609
46 144 0.921720027923584
46 145 0.9496841430664062
46 146 0.934352457523346
46 147 0.9452421069145203
46 148 0.9429758787155151
46 149 0.9478460550308228
46 151 0.9120262265205383
46 152 0.9495382905006409
46 153 0.31155925989151
46 154 0.9404052495956421
46 155 0.943741500377655
46 156 0.9435429573059082
46 157 0.9501016139984131
46 158 0.19940772652626038
46 159 0.9478460550308228
46 160 0.9405531287193298
46 161 0.8964887857437134
46 162 0.17488689720630646
46 163 0.9462241530418396
46 164 0.94416743516922
46 165 0.947502851486206
46 166 0.9426786303520203
46 167 0.9487066268920898
46 168 0.9459366202354431
46 169 0.9364880919456482
46 170 0.3395342528820038
46 171 0.9284562468528748
46 172 0.9472813606262207
46 173 0.9463731050491333
46 174 0.2505212724208832
46 175 0.9330542087554932
46 176 0.9481426477432251
46 177 0.9472813606262207
46 178 0.9422580003738403
46 179 0.8177967071533203
46 180 0.9377049803733826
46 181 0.3281557261943817
46 182 0.9506816267967224
46 183 0.9512275457382202
46 184 0.9356518387794495
46 185 0.9374105334281921
46 186 0.9501741528511047
46 187 0.9491207003593445
46 188 0.9462981820106506
46 189 0.9438861012458801
46 190 0.9494666457176208
46 191 0.9450926184654236
46 192 0.9423328638076782
46 193 0.9479926824569702
46 194 0.9571208357810974
46 195 0.942408561706543
46 196 0.9452421069145203
46 197 0.9207066297531128
46 198 0.09837387502193451
46 199 0.9402610063552856
46 200 0.1854955554008484
46 201 0.2563900053501129
46 202 0.9469382166862488
46 203 0.3415988087654114
46 204 0.5005047917366028
46 205 0.8657118678092957
46 206 0.5196051597595215
46 207 0.9457327127456665
46 208 0.9406283497810364
46 209 0.056796181946992874
46 210 0.2462160736322403
46 211 0.16164477169513702
46 212 0.9444528222084045
46 213 0.32961055636405945
46 214 0.3690391778945923
46 215 0.11853344738483429
46 216 0.9512275457382202
46 217 0.9462241530418396
46 218 0.9376299977302551
46 219 0.9464489221572876
46 220 0.9481426477432251
46 221 0.9455852508544922
46 222 0.9477030038833618
46 223 0.9455852508544922
46 224 0.8512403964996338
46 225 0.9436193704605103
46 226 0.9314860701560974
46 227 0.93656325340271
46 228 0.24593469500541687
46 229 0.9169418215751648
46 230 0.3200732171535492
46 231 0.9395666718482971
46 232 0.9455128312110901
46 233 0.7599491477012634
46 234 0.2418357878923416
46 235 0.9479926824569702
46 236 0.9418967366218567
46 237 0.9458836317062378
46 238 0.9430524110794067
46 239 0.942408561706543
46 240 0.5343787670135498
46 241 0.9426065683364868
46 242 0.3605385422706604
46 243 0.9450191259384155
46 244 0.9435429573059082
46 245 0.9375559091567993
46 246 0.11731769144535065
46 247 0.9462981820106506
46 248 0.9358422160148621
46 249 0.12991169095039368
46 250 0.943741500377655
46 251 0.20268239080905914
46 252 0.9404052495956421
46 253 0.9449466466903687
46 254 0.19339248538017273
46 255 0.5136925578117371
47 48 0.9576959609985352
47 49 0.2897418141365051
47 50 0.9615805149078369
47 51 0.9685142636299133
47 52 0.9556428790092468
47 53 0.46103766560554504
47 54 0.9196557998657227
47 55 0.9527503252029419
47 56 0.17640994489192963
47 57 0.9501003623008728
47 58 0.6608034372329712
47 59 0.950644850730896
47 60 0.9625826478004456
47 61 0.9636573195457458
47 62 0.9647308588027954
47 63 0.14396314322948456
47 64 0.9599647521972656
47 65 0.14807924628257751
47 66 0.9642303586006165
47 67 0.9495553970336914
47 68 0.9653031229972839
47 69 0.962044894695282
47 70 0.9554628133773804
47 71 0.9609683752059937
47 72 0.07198157161474228
47 73 0.9604296684265137
47 74 0.9624797105789185
47 75 0.9630849361419678
47 76 0.9631562829017639
47 77 0.581536054611206
47 78 0.9658031463623047
47 79 0.06438227742910385
47 80 0.1788192242383957
47 81 0.05758525803685188
47 82 0.05575668811798096
47 83 0.9588861465454102
47 84 0.9572658538818359
47 85 0.9641941785812378
47 86 0.9653031229972839
47 87 0.9669467806816101
47 88 0.23905585706233978
47 89 0.14396314322948456
47 90 0.470200777053833
47 91 0.9490846991539001
47 92 0.06438227742910385
47 93 0.3917577862739563
47 94 0.21358460187911987
47 95 0.46262452006340027
47 96 0.1852266788482666
47 97 0.11151337623596191
47 98 0.9572658538818359
47 99 0.9615431427955627
47 100 0.9652321338653564
47 101 0.9669467806816101
47 102 0.9577685594558716
47 103 0.15438328683376312
47 104 0.9684440493583679
47 105 0.1327274739742279
47 106 0.9653400182723999
47 107 0.962618887424469
47 108 0.9647308588027954
47 109 0.11151337623596191
47 110 0.9673745632171631
47 111 0.9252270460128784
47 112 0.9658758640289307
47 113 0.883296012878418
47 114 0.3283449411392212
47 115 0.949485182762146
47 116 0.41512781381607056
47 117 0.20365522801876068
47 118 0.23812870681285858
47 120 0.962044894695282
47 121 0.9625826478004456
47 122 0.9565796256065369
47 123 0.9657681584358215
47 124 0.9610422849655151
47 125 0.24103978276252747
47 126 0.14095865190029144
47 127 0.9588484764099121
47 128 0.1586863100528717
47 129 0.5652883648872375
47 130 0.9549901485443115
47 131 0.9004095792770386
47 132 0.9669467806816101
47 133 0.9690485596656799
47 134 0.19372081756591797
47 135 0.9647668600082397
47 136 0.7477951645851135
47 137 0.9673745632171631
47 138 0.9653400182723999
47 139 0.9709844589233398
47 140 0.9620094895362854
47 141 0.9257490038871765
47 142 0.9469013810157776
47 143 0.3021439015865326
47 144 0.9358312487602234
47 145 0.9684786796569824
47 146 0.9528934955596924
47 147 0.9642303586006165
47 148 0.962081253528595
47 149 0.9647308588027954
47 151 0.931878387928009
47 152 0.9653031229972839
47 153 0.3391682207584381
47 154 0.9608324766159058
47 155 0.9588118195533752
47 156 0.9636573195457458
47 157 0.9689446091651917
47 158 0.22307322919368744
47 159 0.9657681584358215
47 160 0.9619418382644653
47 161 0.910692572593689
47 162 0.16632089018821716
47 163 0.9652321338653564
47 164 0.9551013112068176
47 165 0.9674093723297119
47 166 0.9577685594558716
47 167 0.9695468544960022
47 168 0.9619751572608948
47 169 0.9518452286720276
47 170 0.3452243208885193
47 171 0.9473727941513062
47 172 0.9621184468269348
47 173 0.9673745632171631
47 174 0.2537437081336975
47 175 0.9517329931259155
47 176 0.9700459837913513
47 177 0.9621184468269348
47 178 0.9583463072776794
47 179 0.828181803226471
47 180 0.9540172219276428
47 181 0.30975937843322754
47 182 0.9583086371421814
47 183 0.9658758640289307
47 184 0.9571912884712219
47 185 0.9496684074401855
47 186 0.9669100642204285
47 187 0.9658758640289307
47 188 0.9673407077789307
47 189 0.9620094895362854
47 190 0.9673407077789307
47 191 0.962081253528595
47 192 0.9625473618507385
47 193 0.9658389687538147
47 194 0.9685142636299133
47 195 0.9615431427955627
47 196 0.9652671217918396
47 197 0.9380037188529968
47 198 0.1287645548582077
47 199 0.9523887038230896
47 200 0.17640994489192963
47 201 0.2477647364139557
47 202 0.9668741822242737
47 203 0.40594619512557983
47 204 0.5091754794120789
47 205 0.890337347984314
47 206 0.5398818850517273
47 207 0.9626561403274536
47 208 0.9598907232284546
47 210 0.24567224085330963
47 211 0.17044085264205933
47 212 0.9625473618507385
47 213 0.29216259717941284
47 214 0.3947656750679016
47 215 0.12467575073242188
47 216 0.9658758640289307
47 217 0.9631562829017639
47 218 0.9529317617416382
47 219 0.9663746953010559
47 220 0.9700459837913513
47 221 0.9615431427955627
47 222 0.9615431427955627
47 223 0.9667406678199768
47 224 0.8624299764633179
47 225 0.9626561403274536
47 226 0.9522765874862671
47 227 0.9550261497497559
47 228 0.23740965127944946
47 229 0.9364221096038818
47 230 0.34849321842193604
47 231 0.9588484764099121
47 232 0.961506724357605
47 233 0.7728670835494995
47 234 0.2535052001476288
47 235 0.9658389687538147
47 236 0.9560733437538147
47 237 0.9658389687538147
47 238 0.9641941785812378
47 239 0.9605036377906799
47 240 0.5521124005317688
47 241 0.956687331199646
47 242 0.39037489891052246
47 243 0.9599647521972656
47 244 0.9615805149078369
47 245 0.9518452286720276
47 246 0.12956683337688446
47 247 0.9642303586006165
47 248 0.9512630105018616
47 249 0.15438328683376312
47 250 0.9608985185623169
47 251 0.19897285103797913
47 252 0.9545593857765198
47 253 0.9620094895362854
47 254 0.20409195125102997
47 255 0.5176622271537781
48 49 0.2816332280635834
48 50 0.9544485807418823
48 51 0.9594499468803406
48 52 0.9494209289550781
48 53 0.42971283197402954
48 54 0.9092419743537903
48 55 0.9410738945007324
48 56 0.18372607231140137
48 57 0.9383894205093384
48 58 0.6498039960861206
48 59 0.9453225135803223
48 60 0.9522969126701355
48 61 0.9596870541572571
48 62 0.9565966725349426
48 63 0.13798581063747406
48 64 0.9538431167602539
48 65 0.14940105378627777
48 66 0.9550543427467346
48 67 0.9378288388252258
48 68 0.9561551213264465
48 69 0.9548923969268799
48 70 0.9449236989021301
48 71 0.954840362071991
48 72 0.05809928849339485
48 73 0.9532381892204285
48 74 0.9479253888130188
48 75 0.9506950974464417
48 76 0.9581408500671387
48 77 0.588468074798584
48 78 0.9556049108505249
48 79 0.06495697796344757
48 80 0.2054731249809265
48 81 0.05809928849339485
48 82 0.05625439062714577
48 83 0.9537899494171143
48 84 0.9573941230773926
48 85 0.9570937156677246
48 86 0.959290087223053
48 87 0.9599438905715942
48 88 0.24118977785110474
48 89 0.13072340190410614
48 90 0.46798717975616455
48 91 0.9437558650970459
48 93 0.37185153365135193
48 94 0.22027984261512756
48 95 0.4559994041919708
48 96 0.19221951067447662
48 97 0.11250878125429153
48 98 0.9489774703979492
48 99 0.9543944597244263
48 100 0.9529051184654236
48 101 0.9578592777252197
48 102 0.9505284428596497
48 103 0.13544465601444244
48 104 0.9562107920646667
48 105 0.10240347683429718
48 106 0.9582985639572144
48 107 0.9544485807418823
48 108 0.9545035362243652
48 109 0.11250878125429153
48 110 0.9561551213264465
48 111 0.9323953986167908
48 112 0.9578039050102234
48 113 0.8797406554222107
48 114 0.3125244081020355
48 115 0.9409112930297852
48 116 0.4512293338775635
48 117 0.20046159625053406
48 118 0.23631571233272552
48 120 0.9517444968223572
48 121 0.9512481689453125
48 122 0.9460908770561218
48 123 0.9534569382667542
48 124 0.95389723777771
48 125 0.23061251640319824
48 126 0.15576136112213135
48 127 0.9516345858573914
48 128 0.17789201438426971
48 129 0.5578191876411438
48 130 0.9497653841972351
48 131 0.8995296955108643
48 132 0.9589015245437622
48 133 0.9599980115890503
48 134 0.2054731249809265
48 135 0.95665043592453
48 136 0.7274283170700073
48 137 0.9572001695632935
48 138 0.9572546482086182
48 139 0.95665043592453
48 140 0.9495882391929626
48 141 0.9187367558479309
48 142 0.9415234327316284
48 143 0.30149102210998535
48 144 0.9237059354782104
48 145 0.96043860912323
48 146 0.9434194564819336
48 147 0.9561004042625427
48 148 0.95389723777771
48 149 0.9576432704925537
48 151 0.9217613935470581
48 152 0.9561551213264465
48 153 0.32691916823387146
48 154 0.9483122229576111
48 155 0.9484230875968933
48 156 0.9554962515830994
48 157 0.9587938785552979
48 158 0.21587814390659332
48 159 0.9545035362243652
48 160 0.9494757652282715
48 161 0.9099975824356079
48 162 0.17863167822360992
48 163 0.9560465812683105
48 164 0.9478124976158142
48 165 0.960386335849762
48 166 0.9484230875968933
48 167 0.9604917168617249
48 168 0.9558407068252563
48 169 0.9434194564819336
48 170 0.3272874653339386
48 171 0.936648964881897
48 172 0.9529051184654236
48 173 0.9603350758552551
48 174 0.2520700991153717
48 175 0.9485572576522827
48 176 0.9599438905715942
48 177 0.9549994468688965
48 178 0.9511362314224243
48 179 0.8160857558250427
48 180 0.947757363319397
48 181 0.3156496584415436
48 182 0.9489774703979492
48 183 0.9578039050102234
48 184 0.9488667249679565
48 185 0.9464866518974304
48 186 0.9578039050102234
48 187 0.956760585308075
48 188 0.9571464657783508
48 189 0.9537899494171143
48 190 0.9571464657783508
48 191 0.9549455046653748
48 192 0.9543413519859314
48 193 0.9556605815887451
48 194 0.9604917168617249
48 195 0.9522969126701355
48 196 0.9550543427467346
48 197 0.9259202480316162
48 198 0.12179433554410934
48 199 0.9482050538063049
48 200 0.16650176048278809
48 201 0.2618800103664398
48 202 0.9577494859695435
48 203 0.3943063020706177
48 204 0.4997282326221466
48 205 0.8767351508140564
48 206 0.5315530896186829
48 207 0.9534569382667542
48 208 0.9537376761436462
48 209 0.05625439062714577
48 210 0.2438673973083496
48 211 0.17196227610111237
48 212 0.9522415995597839
48 213 0.32329675555229187
48 214 0.3982895016670227
48 215 0.1257886439561844
48 216 0.9578039050102234
48 217 0.9560465812683105
48 218 0.9498162865638733
48 219 0.9593424201011658
48 220 0.9589015245437622
48 221 0.9533457159996033
48 222 0.9533457159996033
48 223 0.9543944597244263
48 224 0.8466430902481079
48 225 0.9555500745773315
48 226 0.9406282901763916
48 227 0.9466466903686523
48 228 0.2557680904865265
48 229 0.9307922124862671
48 230 0.36024996638298035
48 231 0.952686071395874
48 232 0.9522415995597839
48 233 0.7784771919250488
48 234 0.2435886710882187
48 235 0.9587938785552979
48 236 0.9477031826972961
48 237 0.9577494859695435
48 238 0.9549994468688965
48 239 0.9522969126701355
48 240 0.5348330736160278
48 241 0.9483672380447388
48 242 0.37547940015792847
48 243 0.9590897560119629
48 244 0.9523531198501587
48 245 0.9455347657203674
48 246 0.14524821937084198
48 247 0.9550543427467346
48 248 0.9449236989021301
48 249 0.15576136112213135
48 250 0.9484230875968933
48 251 0.20564530789852142
48 252 0.9462024569511414
48 253 0.954840362071991
48 254 0.2059137523174286
48 255 0.522283136844635
49 50 0.27972182631492615
49 51 0.2886965870857239
49 52 0.2635304927825928
49 53 0.20211823284626007
49 54 0.28137150406837463
49 55 0.2728153169155121
49 56 0.07761505246162415
49 57 0.28732773661613464
49 58 0.16613347828388214
49 59 0.2728153169155121
49 60 0.27292439341545105
49 61 0.2903441786766052
49 62 0.28650540113449097
49 64 0.28370577096939087
49 65 0.06585855036973953
49 66 0.2792862355709076
49 67 0.25513994693756104
49 68 0.2789969742298126
49 69 0.28370577096939087
49 70 0.2864092290401459
49 71 0.27690234780311584
49 73 0.2805991470813751
49 74 0.28800463676452637
49 75 0.28015944361686707
49 76 0.2866542637348175
49 77 0.19417139887809753
49 78 0.2826749384403229
49 79 0.05488213151693344
49 83 0.284002423286438
49 84 0.2808934152126312
49 85 0.2795763909816742
49 86 0.2789969742298126
49 87 0.2782776951789856
49 88 0.05621549114584923
49 90 0.1011074110865593
49 91 0.2654940187931061
49 93 0.21970434486865997
49 94 0.11328699439764023
49 95 0.10903973132371902
49 98 0.28444904088974
49 99 0.28710225224494934
49 100 0.2795763909816742
49 101 0.29236772656440735
49 102 0.27748343348503113
49 104 0.28929245471954346
49 105 0.0798652246594429
49 106 0.29282042384147644
49 107 0.28680339455604553
49 108 0.27589407563209534
49 110 0.2789969742298126
49 111 0.2800997793674469
49 112 0.28561702370643616
49 113 0.22424431145191193
49 114 0.11618278920650482
49 115 0.2736949026584625
49 116 0.1485872119665146
49 117 0.08468496799468994
49 118 0.1331087201833725
49 119 0.07761505246162415
49 120 0.26242780685424805
49 121 0.28355780243873596
49 122 0.25722160935401917
49 123 0.27589407563209534
49 124 0.26215434074401855
49 125 0.05668202042579651
49 126 0.06866228580474854
49 127 0.270084947347641
49 128 0.1002006009221077
49 129 0.16314272582530975
49 130 0.2752300500869751
49 131 0.2523956596851349
49 132 0.2712327241897583
49 133 0.28151044249534607
49 135 0.27914148569107056
49 136 0.2376163750886917
49 137 0.29312342405319214
49 138 0.2681247293949127
49 139 0.27914148569107056
49 140 0.27335232496261597
49 141 0.28025779128074646
49 142 0.2768494784832001
49 143 0.05660659447312355
49 144 0.2731991410255432
49 145 0.28899407386779785
49 146 0.29310211539268494
49 147 0.27221569418907166
49 148 0.27278223633766174
49 149 0.2723569869995117
49 151 0.2748691439628601
49 152 0.2789969742298126
49 154 0.26380831003189087
49 155 0.2739259898662567
49 156 0.2832626402378082
49 157 0.29297178983688354
49 159 0.2900424897670746
49 160 0.2703684866428375
49 161 0.26094526052474976
49 163 0.2795763909816742
49 164 0.28504788875579834
49 165 0.2857644855976105
49 166 0.2810409367084503
49 167 0.29221728444099426
49 168 0.27719244360923767
49 169 0.29667651653289795
49 170 0.07103396207094193
49 171 0.2736949026584625
49 172 0.2795763909816742
49 173 0.2789969742298126
49 174 0.1863521933555603
49 175 0.27252399921417236
49 176 0.2853226959705353
49 177 0.2866542637348175
49 178 0.29480668902397156
49 179 0.22640648484230042
49 180 0.2782150208950043
49 181 0.07393449544906616
49 182 0.2808934152126312
49 183 0.29266929626464844
49 184 0.2707954943180084
49 185 0.2865616977214813
49 186 0.2785647511482239
49 187 0.28561702370643616
49 188 0.28282150626182556
49 189 0.27690234780311584
49 190 0.2757509648799896
49 191 0.2798674702644348
49 192 0.28030577301979065
49 193 0.28238245844841003
49 194 0.29221728444099426
49 195 0.2941912114620209
49 196 0.28635674715042114
49 197 0.27289873361587524
49 198 0.08232319355010986
49 199 0.25722160935401917
49 201 0.06704919785261154
49 202 0.2788526713848114
49 203 0.1031688004732132
49 204 0.22293224930763245
49 205 0.26831939816474915
49 206 0.10156529396772385
49 207 0.2723569869995117
49 208 0.2629774510860443
49 210 0.10808837413787842
49 212 0.28030577301979065
49 213 0.09640704840421677
49 214 0.2044645994901657
49 215 0.05668202042579651
49 216 0.28561702370643616
49 217 0.2724985182285309
49 218 0.2570854723453522
49 219 0.2857644855976105
49 220 0.2853226959705353
49 221 0.2800133228302002
49 222 0.2800133228302002
49 223 0.27292439341545105
49 224 0.23017503321170807
49 225 0.2723569869995117
49 226 0.27596262097358704
49 227 0.2892211377620697
49 228 0.10976426303386688
49 229 0.2691122591495514
49 231 0.2878536880016327
49 232 0.27320945262908936
49 233 0.24828413128852844
49 234 0.12348479777574539
49 235 0.2788526713848114
49 236 0.2927917540073395
49 237 0.28238245844841003
49 238 0.2583427429199219
49 239 0.27646884322166443
49 240 0.1813775599002838
49 241 0.2742141783237457
49 242 0.11536088585853577
49 243 0.28015944361686707
49 244 0.2832626402378082
49 245 0.28952768445014954
49 247 0.2757509648799896
49 248 0.28998932242393494
49 249 0.06866228580474854
49 250 0.27748343348503113
49 251 0.06619033217430115
49 252 0.27450326085090637
49 253 0.27690234780311584
49 255 0.11723959445953369
50 51 0.9653544425964355
50 52 0.9597228765487671
50 53 0.43559637665748596
50 54 0.9215677380561829
50 55 0.9505112767219543
50 56 0.1824791580438614
50 57 0.9489089846611023
50 58 0.6591257452964783
50 59 0.9473465085029602
50 60 0.9635422229766846
50 61 0.9614984393119812
50 62 0.9615389704704285
50 63 0.14426246285438538
50 64 0.9577916860580444
50 65 0.13548387587070465
50 66 0.9641570448875427
50 67 0.9473052024841309
50 68 0.963158369064331
50 69 0.9588338732719421
50 70 0.9511364102363586
50 71 0.9577497839927673
50 72 0.07213123142719269
50 73 0.959294855594635
50 74 0.9571661949157715
50 75 0.9630026817321777
50 76 0.9620386362075806
50 77 0.5671820640563965
50 78 0.9636573195457458
50 79 0.06451612710952759
50 80 0.20407862961292267
50 81 0.07213123142719269
50 83 0.9619230031967163
50 84 0.955076277256012
50 85 0.9620386362075806
50 86 0.963158369064331
50 87 0.9679219126701355
50 88 0.23955287039279938
50 89 0.1370493322610855
50 90 0.4775455892086029
50 91 0.950003445148468
50 92 0.06451612710952759
50 93 0.3822413980960846
50 94 0.19500386714935303
50 95 0.4614499807357788
50 96 0.19091495871543884
50 97 0.10243312269449234
50 98 0.9603009819984436
50 99 0.9614588618278503
50 100 0.9620386362075806
50 101 0.9679219126701355
50 102 0.9566232562065125
50 103 0.1547042578458786
50 104 0.9652733206748962
50 105 0.10953222215175629
50 106 0.9673469662666321
50 107 0.9635796546936035
50 108 0.9656969308853149
50 109 0.11174521595239639
50 110 0.9652342200279236
50 111 0.9239012598991394
50 112 0.9637388586997986
50 113 0.8828598856925964
50 114 0.3166114389896393
50 115 0.944050669670105
50 116 0.43437719345092773
50 117 0.1692359298467636
50 118 0.24644748866558075
50 120 0.9609183073043823
50 121 0.9614588618278503
50 122 0.9564685821533203
50 123 0.9615389704704285
50 124 0.9619991183280945
50 125 0.237376406788826
50 126 0.14797797799110413
50 127 0.9608418941497803
50 128 0.17668470740318298
50 129 0.5664635896682739
50 130 0.9527737498283386
50 131 0.9022815823554993
50 132 0.9648162722587585
50 133 0.9700289964675903
50 134 0.19910110533237457
50 135 0.9646956920623779
50 136 0.7520356178283691
50 137 0.9641962647438049
50 138 0.9642365574836731
50 139 0.9615805149078369
50 140 0.9598363637924194
50 141 0.9222549796104431
50 142 0.9446433782577515
50 143 0.2828090488910675
50 144 0.9334947466850281
50 145 0.9684207439422607
50 146 0.9548746347427368
50 147 0.9631180763244629
50 148 0.959916889667511
50 149 0.9615389704704285
50 151 0.9295074939727783
50 152 0.9652342200279236
50 153 0.31559666991233826
50 154 0.9596870541572571
50 155 0.9555777311325073
50 156 0.9604578614234924
50 157 0.9626602530479431
50 158 0.20985107123851776
50 159 0.9625784754753113
50 160 0.9566232562065125
50 161 0.9114903807640076
50 162 0.17741934955120087
50 163 0.96099853515625
50 164 0.9549926519393921
50 165 0.9652733206748962
50 166 0.9597597122192383
50 167 0.9684584736824036
50 168 0.9587531089782715
50 169 0.9559251070022583
50 170 0.33699530363082886
50 171 0.9419339895248413
50 172 0.96099853515625
50 173 0.962120532989502
50 174 0.2542712390422821
50 175 0.949496328830719
50 176 0.9648162722587585
50 177 0.9641186594963074
50 178 0.9603387117385864
50 179 0.8262742757797241
50 180 0.9612419009208679
50 181 0.3166114389896393
50 182 0.9582111239433289
50 183 0.9668476581573486
50 184 0.9570869207382202
50 185 0.9516426920890808
50 186 0.9637388586997986
50 187 0.9658114314079285
50 188 0.961040198802948
50 189 0.9598363637924194
50 190 0.961040198802948
50 191 0.959916889667511
50 192 0.9593347311019897
50 193 0.9647349715232849
50 194 0.9684584736824036
50 195 0.9593755602836609
50 196 0.9620791673660278
50 197 0.9324683547019958
50 198 0.12096773833036423
50 199 0.9522689580917358
50 200 0.17107421159744263
50 201 0.24039794504642487
50 202 0.9657723307609558
50 203 0.3966835141181946
50 204 0.5102340579032898
50 205 0.8865559101104736
50 206 0.5298110842704773
50 207 0.9615389704704285
50 208 0.9566643834114075
50 209 0.055872607976198196
50 210 0.25015366077423096
50 211 0.1413477510213852
50 212 0.96037757396698
50 213 0.30221420526504517
50 214 0.4005938470363617
50 215 0.0999479591846466
50 216 0.9647751450538635
50 217 0.966198742389679
50 218 0.9559623599052429
50 219 0.9663101434707642
50 220 0.9648162722587585
50 221 0.9583338499069214
50 222 0.9604172110557556
50 223 0.9593755602836609
50 224 0.8618903756141663
50 225 0.9625784754753113
50 226 0.9489901065826416
50 227 0.9528142809867859
50 228 0.25
50 229 0.939437747001648
50 230 0.32918062806129456
50 231 0.9618863463401794
50 232 0.9582920074462891
50 233 0.7821546792984009
50 234 0.2540322542190552
50 235 0.9636975526809692
50 236 0.9538636207580566
50 237 0.9636975526809692
50 238 0.9620386362075806
50 239 0.9604172110557556
50 240 0.5348794460296631
50 241 0.9534433484077454
50 242 0.3859706521034241
50 243 0.9609183073043823
50 244 0.9604578614234924
50 245 0.9548746347427368
50 246 0.14426246285438538
50 247 0.9631180763244629
50 248 0.9521884918212891
50 249 0.1547042578458786
50 250 0.9576687812805176
50 251 0.19938652217388153
50 252 0.9544485807418823
50 253 0.958793044090271
50 254 0.20451626181602478
50 255 0.5225667357444763
51 52 0.9594801664352417
51 53 0.46156203746795654
51 54 0.9249931573867798
51 55 0.9524603486061096
51 56 0.17577356100082397
51 57 0.9529701471328735
51 58 0.6538684368133545
51 59 0.9514114260673523
51 60 0.9673963189125061
51 61 0.9663891196250916
51 62 0.9674522876739502
51 63 0.14344382286071777
51 64 0.9647921919822693
51 65 0.15396006405353546
51 66 0.9690165519714355
51 67 0.9545307755470276
51 68 0.9711089134216309
51 69 0.9637559056282043
51 70 0.9541085362434387
51 71 0.9626887440681458
51 72 0.07172191143035889
51 73 0.9631926417350769
51 74 0.9631637930870056
51 75 0.9647921919822693
51 76 0.9669209122657776
51 77 0.5845964550971985
51 78 0.9695468544960022
51 79 0.06415002793073654
51 80 0.2029205560684204
51 81 0.07172191143035889
51 82 0.0555555559694767
51 83 0.9637261033058167
51 84 0.9652417898178101
51 85 0.9669209122657776
51 86 0.9690449237823486
51 87 0.9706640243530273
51 88 0.25051388144493103
51 89 0.12909944355487823
51 90 0.4790565073490143
51 91 0.9529998302459717
51 92 0.06415002793073654
51 93 0.38007235527038574
51 94 0.20808492600917816
51 95 0.4715767800807953
51 96 0.1951046884059906
51 97 0.1111111119389534
51 98 0.9610857963562012
51 99 0.9663605690002441
51 100 0.9669209122657776
51 101 0.9727227091789246
51 102 0.96366947889328
51 103 0.15382637083530426
51 104 0.9690742492675781
51 105 0.1322486698627472
51 106 0.9690742492675781
51 107 0.9663891196250916
51 108 0.9674522876739502
51 109 0.1111111119389534
51 110 0.9690449237823486
51 111 0.9283512830734253
51 112 0.9726956486701965
51 113 0.8846288919448853
51 114 0.32098767161369324
51 115 0.9523741602897644
51 116 0.4341975450515747
51 117 0.20786984264850616
51 118 0.26060768961906433
51 120 0.9647921919822693
51 121 0.9673963189125061
51 122 0.9562607407569885
51 123 0.9674522876739502
51 124 0.9648219347000122
51 125 0.24017025530338287
51 126 0.14045016467571259
51 127 0.9626588821411133
51 128 0.15225781500339508
51 129 0.5720775127410889
51 130 0.9609456658363342
51 131 0.9081696271896362
51 132 0.9727227091789246
51 133 0.972750723361969
51 134 0.19797128438949585
51 135 0.9685142636299133
51 136 0.746432900428772
51 137 0.9690449237823486
51 138 0.9731979370117188
51 139 0.9685142636299133
51 140 0.9637261033058167
51 141 0.9277973771095276
51 142 0.9539920091629028
51 143 0.29774564504623413
51 144 0.937777578830719
51 145 0.9701343774795532
51 146 0.9567676782608032
51 147 0.9690165519714355
51 148 0.9658570885658264
51 149 0.9684858918190002
51 151 0.9360134601593018
51 152 0.9690449237823486
51 153 0.33492735028266907
51 154 0.9584081768989563
51 155 0.9605507850646973
51 156 0.9663891196250916
51 157 0.9685437083244324
51 158 0.21319633722305298
51 159 0.9684858918190002
51 160 0.9605507850646973
51 161 0.9161219596862793
51 162 0.19245009124279022
51 163 0.9689891338348389
51 164 0.9589443206787109
51 165 0.9690742492675781
51 166 0.9615904092788696
51 167 0.9732509851455688
51 168 0.9626588821411133
51 169 0.9557231664657593
51 170 0.3380483388900757
51 171 0.9513218402862549
51 172 0.9679549932479858
51 173 0.9700769186019897
51 174 0.2567180097103119
51 175 0.9545868635177612
51 176 0.9716933965682983
51 177 0.9658867120742798
51 178 0.9642305374145508
51 179 0.8276000618934631
51 180 0.9609987139701843
51 181 0.31790125370025635
51 182 0.9610857963562012
51 183 0.9696044325828552
51 184 0.961026668548584
51 185 0.9556632041931152
51 186 0.9706348180770874
51 187 0.9696044325828552
51 188 0.9690165519714355
51 189 0.9647635221481323
51 190 0.9669504165649414
51 191 0.9668923020362854
51 192 0.96529620885849
51 193 0.9716380834579468
51 194 0.9732509851455688
51 195 0.9673963189125061
51 196 0.9669504165649414
51 197 0.9441894292831421
51 198 0.12830005586147308
51 199 0.9573047161102295
51 200 0.17577356100082397
51 201 0.2468709498643875
51 202 0.9695751667022705
51 203 0.39192020893096924
51 204 0.5093128681182861
51 205 0.8893658518791199
51 206 0.5360794067382812
51 207 0.9684858918190002
51 208 0.9616204500198364
51 209 0.0555555559694767
51 210 0.25268232822418213
51 211 0.17568209767341614
51 212 0.9642593860626221
51 213 0.30675968527793884
51 214 0.4057891368865967
51 215 0.1159442588686943
51 216 0.9696044325828552
51 217 0.9669209122657776
51 218 0.9567981362342834
51 219 0.9731979370117188
51 220 0.9716933965682983
51 221 0.9673963189125061
51 222 0.9642890691757202
51 223 0.9642890691757202
51 224 0.8651173114776611
51 225 0.9684858918190002
51 226 0.9551252126693726
51 227 0.9578415155410767
51 228 0.2445719838142395
51 229 0.9394202828407288
51 230 0.35008224844932556
51 231 0.9636973142623901
51 232 0.96529620885849
51 233 0.7917177677154541
51 234 0.23254384100437164
51 235 0.9685437083244324
51 236 0.9599282741546631
51 237 0.9706066250801086
51 238 0.9669209122657776
51 239 0.9653248190879822
51 240 0.5446377992630005
51 241 0.9615614414215088
51 242 0.37081488966941833
51 243 0.9658284783363342
51 244 0.9663891196250916
51 245 0.9588567018508911
51 246 0.14344382286071777
51 247 0.9669504165649414
51 248 0.9551547169685364
51 249 0.14713826775550842
51 250 0.9615904092788696
51 251 0.20792609453201294
51 252 0.9594499468803406
51 253 0.9658008813858032
51 254 0.20808492600917816
51 255 0.5272146463394165
52 53 0.4381110370159149
52 54 0.9104729890823364
52 55 0.940082848072052
52 56 0.17779718339443207
52 57 0.9458940029144287
52 58 0.6644653081893921
52 59 0.940082848072052
52 60 0.9544370770454407
52 61 0.9555364847183228
52 62 0.9555891752243042
52 63 0.13784049451351166
52 64 0.9549350738525391
52 65 0.16222141683101654
52 66 0.9550934433937073
52 67 0.9410898685455322
52 68 0.9593236446380615
52 69 0.9580796957015991
52 70 0.9449868202209473
52 71 0.9506867527961731
52 72 0.058038100600242615
52 73 0.9522342681884766
52 74 0.9511309862136841
52 75 0.9570314884185791
52 76 0.9571317434310913
52 77 0.5808915495872498
52 78 0.9577317833900452
52 80 0.18523167073726654
52 81 0.07254762947559357
52 82 0.05619514361023903
52 83 0.9527854323387146
52 84 0.9542838931083679
52 85 0.9550396800041199
52 86 0.9582797884941101
52 87 0.9620563983917236
52 88 0.2450898289680481
52 89 0.14509525895118713
52 90 0.4717636704444885
52 91 0.9470038414001465
52 92 0.06488857418298721
52 93 0.3636670410633087
52 94 0.19612959027290344
52 95 0.4469244182109833
52 96 0.18668325245380402
52 97 0.1030244380235672
52 98 0.9532329440116882
52 99 0.9586277604103088
52 100 0.956085741519928
52 101 0.9620563983917236
52 102 0.9526818990707397
52 103 0.14883221685886383
52 104 0.9593749046325684
52 105 0.12590231001377106
52 106 0.961460530757904
52 107 0.9555364847183228
52 108 0.9566347002983093
52 109 0.11239028722047806
52 110 0.9572359323501587
52 111 0.9183409810066223
52 112 0.9588796496391296
52 113 0.8708144426345825
52 114 0.3246830701828003
52 115 0.9409847855567932
52 116 0.4322616159915924
52 117 0.18523167073726654
52 118 0.25573909282684326
52 120 0.9528385400772095
52 121 0.9565324187278748
52 122 0.9482623934745789
52 123 0.9597712159156799
52 124 0.9560340642929077
52 125 0.2471238225698471
52 126 0.13530202209949493
52 127 0.9506322741508484
52 128 0.16585767269134521
52 129 0.5697336792945862
52 130 0.9466519951820374
52 131 0.9019228219985962
52 132 0.9610152244567871
52 133 0.9662677645683289
52 134 0.19023793935775757
52 135 0.9619094133377075
52 136 0.7388182878494263
52 137 0.9603675007820129
52 138 0.9604177474975586
52 139 0.956687331199646
52 140 0.9538347721099854
52 141 0.9155890941619873
52 142 0.9415946006774902
52 143 0.28444164991378784
52 144 0.9302699565887451
52 145 0.9625522494316101
52 146 0.9487650990486145
52 147 0.9603182673454285
52 148 0.9560340642929077
52 149 0.9587256908416748
52 151 0.922957181930542
52 152 0.9572359323501587
52 153 0.31131434440612793
52 154 0.950474739074707
52 155 0.9526818990707397
52 156 0.9597228765487671
52 157 0.957784116268158
52 158 0.211062490940094
52 159 0.9576802253723145
52 160 0.9505788683891296
52 161 0.9068353772163391
52 162 0.18925830721855164
52 163 0.9581778645515442
52 164 0.9478674530982971
52 165 0.9583321213722229
52 166 0.9526818990707397
52 167 0.9615614414215088
52 168 0.954833984375
52 169 0.9455955028533936
52 170 0.3299422860145569
52 171 0.9388558268547058
52 172 0.9550396800041199
52 173 0.9582797884941101
52 174 0.24787016212940216
52 175 0.9422587752342224
52 176 0.9599740505218506
52 177 0.9581778645515442
52 178 0.9543339610099792
52 179 0.8237436413764954
52 180 0.9457049369812012
52 181 0.3246830701828003
52 182 0.9542838931083679
52 183 0.9609642028808594
52 184 0.9489206075668335
52 185 0.946548581123352
52 186 0.9630486965179443
52 187 0.9609642028808594
52 188 0.9561384320259094
52 189 0.9527854323387146
52 190 0.9571834206581116
52 191 0.9549869298934937
52 192 0.9543850421905518
52 193 0.9567407965660095
52 194 0.9615614414215088
52 195 0.9565324187278748
52 196 0.9571834206581116
52 197 0.9281716346740723
52 198 0.1216660663485527
52 199 0.9482623934745789
52 200 0.17779718339443207
52 201 0.25367680191993713
52 202 0.9588274359703064
52 203 0.39389100670814514
52 204 0.4992019236087799
52 205 0.8837427496910095
52 206 0.5347459316253662
52 207 0.9555891752243042
52 208 0.9527331590652466
52 210 0.25559139251708984
52 211 0.17178116738796234
52 212 0.9533362984657288
52 213 0.32295626401901245
52 214 0.4029063880443573
52 215 0.11727909743785858
52 216 0.9599219560623169
52 217 0.9550396800041199
52 218 0.9477605223655701
52 219 0.9593749046325684
52 220 0.9599740505218506
52 221 0.9544370770454407
52 222 0.9544370770454407
52 223 0.9554847478866577
52 224 0.852789580821991
52 225 0.9566347002983093
52 226 0.9428157210350037
52 227 0.9477605223655701
52 228 0.24738767743110657
52 229 0.9319617748260498
52 230 0.339717835187912
52 231 0.9527331590652466
52 232 0.952287495136261
52 233 0.7789448499679565
52 234 0.2433321326971054
52 235 0.9588274359703064
52 236 0.9477605223655701
52 237 0.9609141945838928
52 238 0.9602699279785156
52 239 0.9554847478866577
52 240 0.5416646003723145
52 241 0.9505263566970825
52 242 0.3803299069404602
52 243 0.9549350738525391
52 244 0.9544899463653564
52 245 0.9477085471153259
52 246 0.1233309656381607
52 247 0.958228349685669
52 248 0.9460449814796448
52 249 0.14206711947917938
52 250 0.9547849893569946
52 251 0.1907552182674408
52 252 0.9525821805000305
52 253 0.9538347721099854
52 254 0.22004783153533936
52 255 0.5255834460258484
53 54 0.43015792965888977
53 55 0.46168452501296997
53 57 0.4485422968864441
53 58 0.31934654712677
53 59 0.4126165807247162
53 60 0.433848112821579
53 61 0.4509962499141693
53 62 0.4549230933189392
53 63 0.09149914234876633
53 64 0.44949841499328613
53 65 0.08183932304382324
53 66 0.4437042772769928
53 67 0.46217912435531616
53 68 0.44543904066085815
53 69 0.44949841499328613
53 70 0.4426596760749817
53 71 0.4587912857532501
53 72 0.06099943071603775
53 73 0.432548850774765
53 74 0.46614041924476624
53 75 0.45831209421157837
53 76 0.43097221851348877
53 77 0.3034375011920929
53 78 0.4588422477245331
53 80 0.09471060335636139
53 83 0.43232256174087524
53 84 0.4330024719238281
53 85 0.4375687539577484
53 86 0.4498276114463806
53 87 0.4574224054813385
53 88 0.11351655423641205
53 89 0.10674900561571121
53 90 0.15256457030773163
53 91 0.43914613127708435
53 92 0.06819943338632584
53 93 0.31123852729797363
53 94 0.10055457800626755
53 95 0.17614810168743134
53 96 0.056059595197439194
53 98 0.452885240316391
53 99 0.45807310938835144
53 100 0.4617559611797333
53 101 0.45961102843284607
53 102 0.4597541093826294
53 104 0.4493626356124878
53 105 0.13232633471488953
53 106 0.46032267808914185
53 107 0.4421963095664978
53 108 0.45052769780158997
53 109 0.11812488734722137
53 110 0.4476333260536194
53 111 0.39386501908302307
53 112 0.4600851237773895
53 113 0.3723444938659668
53 114 0.15093736350536346
53 115 0.4430350959300995
53 116 0.10203918069601059
53 117 0.17889781296253204
53 118 0.13232633471488953
53 120 0.4340744614601135
53 121 0.4558708667755127
53 122 0.4461601972579956
53 123 0.43734151124954224
53 124 0.45563337206840515
53 125 0.1144586130976677
53 126 0.08532338589429855
53 127 0.4482317566871643
53 129 0.22900958359241486
53 130 0.4619428515434265
53 131 0.4213077425956726
53 132 0.46617692708969116
53 133 0.4525793194770813
53 134 0.17889781296253204
53 135 0.4390834867954254
53 136 0.38328924775123596
53 137 0.4564104378223419
53 138 0.46032267808914185
53 139 0.46542850136756897
53 140 0.4455569386482239
53 141 0.4215817153453827
53 142 0.45572513341903687
53 143 0.21806126832962036
53 144 0.45491883158683777
53 145 0.45546838641166687
53 146 0.45972201228141785
53 147 0.439311146736145
53 148 0.44462770223617554
53 149 0.45052769780158997
53 151 0.455422580242157
53 152 0.4498276114463806
53 153 0.16680723428726196
53 154 0.42749783396720886
53 155 0.455333411693573
53 156 0.453196257352829
53 157 0.4583674967288971
53 158 0.14467285573482513
53 159 0.45052769780158997
53 160 0.4597541093826294
53 161 0.4400731027126312
53 162 0.12503229081630707
53 163 0.4705513119697571
53 164 0.4471971392631531
53 165 0.4427865743637085
53 166 0.448702335357666
53 167 0.46156203746795654
53 168 0.4570639431476593
53 169 0.4486176073551178
53 170 0.16393104195594788
53 171 0.4363224506378174
53 172 0.4463641047477722
53 173 0.4564104378223419
53 174 0.12405593693256378
53 175 0.45450758934020996
53 176 0.4508565664291382
53 177 0.45955711603164673
53 178 0.461238294839859
53 179 0.35807499289512634
53 180 0.443236768245697
53 181 0.23624977469444275
53 182 0.44625765085220337
53 183 0.4513216018676758
53 184 0.43391406536102295
53 185 0.4406696856021881
53 186 0.46227601170539856
53 187 0.4535124897956848
53 188 0.45249050855636597
53 189 0.46320274472236633
53 190 0.45249050855636597
53 191 0.45563337206840515
53 192 0.45193782448768616
53 193 0.4649469554424286
53 194 0.45499953627586365
53 195 0.43825265765190125
53 196 0.45908015966415405
53 197 0.4295499622821808
53 198 0.10229914635419846
53 199 0.4417208135128021
53 201 0.14164207875728607
53 202 0.4452086389064789
53 203 0.10149404406547546
53 204 0.2644352614879608
53 205 0.42631131410598755
53 206 0.20114782452583313
53 207 0.4417368769645691
53 208 0.43277549743652344
53 210 0.2686326503753662
53 211 0.06225728243589401
53 212 0.4453240931034088
53 213 0.17970074713230133
53 214 0.13762587308883667
53 216 0.4513216018676758
53 217 0.4573582708835602
53 218 0.46145376563072205
53 219 0.447170615196228
53 220 0.45961102843284607
53 221 0.4624776840209961
53 222 0.45366859436035156
53 223 0.4558708667755127
53 224 0.41424697637557983
53 225 0.4549230933189392
53 226 0.46762600541114807
53 227 0.4481425881385803
53 228 0.11934901028871536
53 229 0.4496500790119171
53 230 0.22996540367603302
53 231 0.45043981075286865
53 232 0.4497332274913788
53 233 0.3680720329284668
53 234 0.08524929732084274
53 235 0.4474017918109894
53 236 0.4570167362689972
53 237 0.4561743438243866
53 238 0.45955711603164673
53 239 0.45146632194519043
53 240 0.283679723739624
53 241 0.4535997807979584
53 242 0.20400309562683105
53 243 0.42746418714523315
53 244 0.4619961678981781
53 245 0.42862966656684875
53 247 0.45688360929489136
53 248 0.45378175377845764
53 250 0.4641748368740082
53 251 0.10281451791524887
53 252 0.4629380702972412
53 253 0.4411454498767853
53 254 0.13072094321250916
53 255 0.19020392000675201
54 55 0.9000982642173767
54 56 0.1729133576154709
54 57 0.9138238430023193
54 58 0.6173945069313049
54 59 0.9089227318763733
54 60 0.9181715250015259
54 61 0.9183036088943481
54 62 0.916262686252594
54 63 0.13575725257396698
54 64 0.9186506271362305
54 65 0.15515415370464325
54 66 0.9277370572090149
54 67 0.8999582529067993
54 68 0.9289466738700867
54 69 0.9208300709724426
54 70 0.9076023101806641
54 71 0.9163383841514587
54 72 0.07542070001363754
54 73 0.9157266020774841
54 74 0.9166869521141052
54 75 0.917560875415802
54 76 0.9167388081550598
54 77 0.5315734148025513
54 78 0.9218273758888245
54 79 0.05059374123811722
54 80 0.1977718621492386
54 81 0.07542070001363754
54 82 0.05842062085866928
54 83 0.9239745736122131
54 84 0.9177795648574829
54 85 0.918913722038269
54 86 0.9180944561958313
54 87 0.921139657497406
54 88 0.23320312798023224
54 89 0.12067311257123947
54 90 0.42165106534957886
54 91 0.909539520740509
54 92 0.06745832413434982
54 93 0.34566327929496765
54 94 0.22378920018672943
54 95 0.4244159758090973
54 96 0.18853136897087097
54 97 0.05842062085866928
54 98 0.9177795648574829
54 99 0.921438992023468
54 100 0.9200011491775513
54 101 0.9297990202903748
54 102 0.9182614684104919
54 103 0.13362731039524078
54 104 0.9258182644844055
54 105 0.11452732980251312
54 106 0.9203977584838867
54 107 0.9215677380561829
54 108 0.9173495769500732
54 109 0.09736771136522293
54 110 0.9213501214981079
54 111 0.8765661716461182
54 112 0.925340473651886
54 113 0.8458980321884155
54 114 0.31806784868240356
54 115 0.9074267148971558
54 116 0.41093066334724426
54 117 0.14572662115097046
54 118 0.2658670246601105
54 120 0.9186506271362305
54 121 0.9138148427009583
54 122 0.9067751169204712
54 123 0.9206103086471558
54 124 0.9166046380996704
54 125 0.2438472956418991
54 126 0.1617593914270401
54 127 0.9216665029525757
54 128 0.13547764718532562
54 129 0.5663024187088013
54 130 0.9105510115623474
54 131 0.8647136688232422
54 132 0.9233044981956482
54 133 0.9234364032745361
54 134 0.20297637581825256
54 135 0.920741617679596
54 136 0.7329732775688171
54 137 0.9180944561958313
54 138 0.9258182644844055
54 139 0.9174842238426208
54 140 0.9152474999427795
54 141 0.8759275674819946
54 142 0.9037553668022156
54 143 0.2713540196418762
54 144 0.8943538665771484
54 145 0.9291952252388
54 146 0.9083542227745056
54 147 0.9201326966285706
54 148 0.9231362342834473
54 149 0.9195233583450317
54 151 0.8986948132514954
54 152 0.9202648997306824
54 153 0.298259437084198
54 154 0.9103374481201172
54 155 0.9248204827308655
54 156 0.9259198307991028
54 157 0.9230428338050842
54 158 0.1908009648323059
54 159 0.9184364676475525
54 160 0.9171683192253113
54 161 0.8820368647575378
54 162 0.16864581406116486
54 163 0.9200011491775513
54 164 0.9109525680541992
54 165 0.9214818477630615
54 166 0.9160751700401306
54 167 0.9293206334114075
54 168 0.9129303097724915
54 169 0.9072558283805847
54 170 0.33053579926490784
54 171 0.9030002355575562
54 172 0.9221761226654053
54 173 0.9300318360328674
54 174 0.2576864957809448
54 175 0.9134615659713745
54 176 0.9233044981956482
54 177 0.9200011491775513
54 178 0.9179094433784485
54 179 0.7931188941001892
54 180 0.9141061305999756
54 181 0.292103111743927
54 182 0.9166869521141052
54 183 0.925340473651886
54 184 0.9076679348945618
54 185 0.9135890007019043
54 186 0.9296746253967285
54 187 0.9242569208145142
54 188 0.9168736338615417
54 189 0.9152474999427795
54 190 0.9223053455352783
54 191 0.9176931977272034
54 192 0.9136789441108704
54 193 0.9219582080841064
54 194 0.921747624874115
54 195 0.921438992023468
54 196 0.9168736338615417
54 197 0.8989611268043518
54 198 0.11805207282304764
54 199 0.9122640490531921
54 200 0.1729133576154709
54 201 0.24724039435386658
54 202 0.9252122044563293
54 203 0.39628079533576965
54 204 0.4774538576602936
54 205 0.8574918508529663
54 206 0.5188616514205933
54 207 0.9260448217391968
54 208 0.9194825291633606
54 209 0.05842062085866928
54 210 0.257409930229187
54 211 0.1662680059671402
54 212 0.9169498682022095
54 213 0.299538254737854
54 214 0.39268359541893005
54 215 0.06096182391047478
54 216 0.9275075793266296
54 217 0.9232636094093323
54 218 0.9062952399253845
54 219 0.9279865026473999
54 220 0.9276341795921326
54 221 0.9192606806755066
54 222 0.9192606806755066
54 223 0.9159931540489197
54 224 0.8121739625930786
54 225 0.9184364676475525
54 226 0.9074680805206299
54 227 0.9106841087341309
54 228 0.24032029509544373
54 229 0.8872925639152527
54 230 0.3142628073692322
54 231 0.9183904528617859
54 232 0.9136789441108704
54 233 0.764284074306488
54 234 0.2529687285423279
54 235 0.9208735823631287
54 236 0.9183645248413086
54 237 0.9208735823631287
54 238 0.917826235294342
54 239 0.9203498363494873
54 240 0.4785524606704712
54 241 0.9115673303604126
54 242 0.36812353134155273
54 243 0.9208300709724426
54 244 0.9226557612419128
54 245 0.9149444699287415
54 246 0.07542070001363754
54 247 0.9212190508842468
54 248 0.9142030477523804
54 249 0.14769335091114044
54 250 0.9095160961151123
54 251 0.15254586935043335
54 252 0.9136238694190979
54 253 0.9174292683601379
54 254 0.18400445580482483
54 255 0.4983629286289215
55 56 0.1560928225517273
55 57 0.9384698867797852
55 58 0.6543058156967163
55 59 0.9315508008003235
55 60 0.946221649646759
55 61 0.9473465085029602
55 62 0.9537391662597656
55 63 0.13894174993038177
55 64 0.9467153549194336
55 65 0.15043608844280243
55 66 0.9521910548210144
55 67 0.9389726519584656
55 68 0.9491004347801208
55 69 0.9435456395149231
55 70 0.9418699741363525
55 71 0.9445320963859558
55 72 0.07312723994255066
55 73 0.9450265169143677
55 74 0.9428394436836243
55 75 0.9488286375999451
55 76 0.9489626884460449
55 77 0.5592361688613892
55 78 0.950644850730896
55 79 0.06540699303150177
55 80 0.17157280445098877
55 81 0.05850179120898247
55 82 0.05664411932229996
55 83 0.9445320963859558
55 84 0.9449581503868103
55 85 0.9489626884460449
55 86 0.9491004347801208
55 87 0.9540001749992371
55 88 0.2512352168560028
55 89 0.13162903487682343
55 90 0.47983625531196594
55 91 0.9353288412094116
55 92 0.06540699303150177
55 93 0.387519508600235
55 94 0.1928746998310089
55 95 0.46565598249435425
55 96 0.1881747543811798
55 97 0.10384755581617355
55 98 0.9470769166946411
55 99 0.946221649646759
55 100 0.951071560382843
55 101 0.9508516192436218
55 102 0.9443944096565247
55 103 0.1568404585123062
55 104 0.9502216577529907
55 105 0.12690819799900055
55 106 0.9512727856636047
55 107 0.9494563341140747
55 108 0.9579546451568604
55 109 0.10384755581617355
55 110 0.9501526951789856
55 111 0.9179914593696594
55 112 0.9528830051422119
55 113 0.8674044013023376
55 114 0.30524885654449463
55 115 0.9334812760353088
55 116 0.43105509877204895
55 117 0.2119428813457489
55 118 0.23795287311077118
55 120 0.9477719664573669
55 121 0.9483337998390198
55 122 0.942001223564148
55 123 0.9484699368476868
55 124 0.9499506950378418
55 125 0.24909819662570953
55 126 0.13638301193714142
55 127 0.944462776184082
55 128 0.1731536090373993
55 129 0.5130764842033386
55 130 0.9414355754852295
55 131 0.8956601023674011
55 132 0.9592476487159729
55 133 0.9540676474571228
55 134 0.19175784289836884
55 135 0.9485392570495605
55 136 0.7215761542320251
55 137 0.9512048959732056
55 138 0.9512727856636047
55 139 0.949592113494873
55 140 0.9466475248336792
55 141 0.9130159020423889
55 142 0.9362625479698181
55 143 0.3069528639316559
55 144 0.9235933423042297
55 145 0.9502915740013123
55 146 0.938240647315979
55 147 0.9500844478607178
55 148 0.9478397369384766
55 149 0.9474160671234131
55 151 0.9172279238700867
55 152 0.9491004347801208
55 153 0.3414899706840515
55 154 0.9410738945007324
55 155 0.9433345198631287
55 156 0.9452365636825562
55 157 0.9507129192352295
55 158 0.22662368416786194
55 159 0.9495237469673157
55 160 0.9443944096565247
55 161 0.9029738306999207
55 162 0.18531981110572815
55 163 0.951071560382843
55 164 0.9427012205123901
55 165 0.9502216577529907
55 166 0.9433345198631287
55 167 0.9524603486061096
55 168 0.944462776184082
55 169 0.9393056035041809
55 170 0.341648668050766
55 171 0.9313352704048157
55 172 0.947908341884613
55 173 0.9491004347801208
55 174 0.2339870035648346
55 175 0.935897946357727
55 176 0.9550496339797974
55 177 0.9457994699478149
55 178 0.9418516755104065
55 179 0.8131542205810547
55 180 0.9394452571868896
55 181 0.2989550828933716
55 182 0.9449581503868103
55 183 0.9497312307357788
55 184 0.9427012205123901
55 185 0.9370351433753967
55 186 0.9507818222045898
55 187 0.9518324136734009
55 188 0.9500844478607178
55 189 0.9477052092552185
55 190 0.9479778409004211
55 191 0.9446731805801392
55 192 0.9450955986976624
55 193 0.9496612548828125
55 194 0.9535093307495117
55 195 0.9441095590591431
55 196 0.9521910548210144
55 197 0.9204096794128418
55 198 0.12263811379671097
55 199 0.9377435445785522
55 200 0.18499889969825745
55 201 0.2437174767255783
55 202 0.9486095905303955
55 203 0.3816688060760498
55 204 0.48910096287727356
55 205 0.8850931525230408
55 206 0.5371269583702087
55 207 0.9474160671234131
55 208 0.9455216526985168
55 210 0.2536078989505768
55 211 0.15524117648601532
55 212 0.9440385103225708
55 213 0.300004243850708
55 214 0.40358710289001465
55 215 0.12666009366512299
55 216 0.9507818222045898
55 217 0.947908341884613
55 218 0.9415026903152466
55 219 0.9491705298423767
55 220 0.9540001749992371
55 221 0.946221649646759
55 222 0.9441095590591431
55 223 0.9493898153305054
55 224 0.856055736541748
55 225 0.9474160671234131
55 226 0.9343311786651611
55 227 0.9393749237060547
55 228 0.2289244681596756
55 229 0.9307395219802856
55 230 0.36564773321151733
55 231 0.943403959274292
55 232 0.9450955986976624
55 233 0.7579144239425659
55 234 0.23710034787654877
55 235 0.9486095905303955
55 236 0.9415026903152466
55 237 0.9486095905303955
55 238 0.9542347192764282
55 239 0.9451656341552734
55 240 0.5553094744682312
55 241 0.9411438703536987
55 242 0.3913002908229828
55 243 0.9435456395149231
55 244 0.9462915062904358
55 245 0.9393056035041809
55 246 0.13894174993038177
55 247 0.9469245076179504
55 248 0.9365366101264954
55 249 0.14320215582847595
55 250 0.948634147644043
55 251 0.207069993019104
55 252 0.9410738945007324
55 253 0.9466475248336792
55 254 0.21216218173503876
55 255 0.5084360241889954
56 57 0.16774499416351318
56 58 0.13378000259399414
56 59 0.18499889969825745
56 60 0.18266935646533966
56 61 0.1824791580438614
56 62 0.1708964854478836
56 63 0.07905694097280502
56 64 0.1770532727241516
56 66 0.15942062437534332
56 67 0.16204746067523956
56 68 0.18200629949569702
56 69 0.1770532727241516
56 70 0.16144295036792755
56 71 0.17152102291584015
56 73 0.18305151164531708
56 74 0.16033804416656494
56 75 0.15420769155025482
56 76 0.16528576612472534
56 77 0.11371470242738724
56 78 0.17071929574012756
56 79 0.1767766922712326
56 83 0.17723838984966278
56 84 0.17179076373577118
56 85 0.17668478190898895
56 86 0.17631860077381134
56 87 0.1758640557527542
56 90 0.06978631764650345
56 91 0.16756568849086761
56 93 0.1556881070137024
56 96 0.05812381953001022
56 98 0.17179076373577118
56 99 0.15983568131923676
56 100 0.16528576612472534
56 101 0.16451798379421234
56 102 0.16042223572731018
56 104 0.1818181723356247
56 106 0.16477271914482117
56 107 0.1824791580438614
56 108 0.17659303545951843
56 109 0.05103103443980217
56 110 0.16494320333003998
56 111 0.18993857502937317
56 112 0.15332990884780884
56 113 0.1307605654001236
56 114 0.18711380660533905
56 115 0.1333966702222824
56 120 0.15420769155025482
56 121 0.18266935646533966
56 122 0.17260774970054626
56 123 0.18228958547115326
56 124 0.18257418274879456
56 127 0.165977343916893
56 129 0.07784989476203918
56 130 0.16694259643554688
56 131 0.157740980386734
56 132 0.17019101977348328
56 133 0.17568323016166687
56 134 0.1363861858844757
56 135 0.17640994489192963
56 136 0.08831172436475754
56 137 0.17631860077381134
56 138 0.15909090638160706
56 139 0.17640994489192963
56 140 0.17723838984966278
56 141 0.13659538328647614
56 142 0.17950589954853058
56 143 0.07293249666690826
56 144 0.17599621415138245
56 145 0.18163064122200012
56 146 0.16118595004081726
56 147 0.17650140821933746
56 148 0.15975241363048553
56 149 0.17659303545951843
56 151 0.16526725888252258
56 152 0.18200629949569702
56 153 0.09977851063013077
56 154 0.17798464000225067
56 155 0.1776103377342224
56 156 0.17107421159744263
56 157 0.18191216886043549
56 158 0.05000000447034836
56 159 0.17659303545951843
56 160 0.1833397001028061
56 161 0.16209857165813446
56 163 0.17668478190898895
56 164 0.17215242981910706
56 165 0.15909090638160706
56 166 0.16615159809589386
56 167 0.17010344564914703
56 168 0.17170070111751556
56 169 0.1726992279291153
56 171 0.18559536337852478
56 172 0.17668478190898895
56 173 0.17631860077381134
56 175 0.17902632057666779
56 176 0.17019101977348328
56 177 0.16528576612472534
56 178 0.17733114957809448
56 179 0.13922251760959625
56 180 0.17807859182357788
56 181 0.05103103443980217
56 182 0.1775171309709549
56 183 0.18172433972358704
56 184 0.18362925946712494
56 185 0.17306667566299438
56 186 0.170366570353508
56 187 0.16468767821788788
56 188 0.17650140821933746
56 189 0.17152102291584015
56 190 0.1821950078010559
56 191 0.176868736743927
56 192 0.17714574933052063
56 193 0.1591731458902359
56 194 0.18144367635250092
56 195 0.17696093022823334
56 196 0.1821950078010559
56 197 0.16408254206180573
56 199 0.17260774970054626
56 202 0.1648579090833664
56 203 0.19384707510471344
56 204 0.1631978154182434
56 205 0.16667936742305756
56 206 0.18401868641376495
56 207 0.18228958547115326
56 208 0.165977343916893
56 209 0.10206206887960434
56 212 0.17714574933052063
56 214 0.05488213151693344
56 216 0.17604544758796692
56 217 0.17668478190898895
56 218 0.16101528704166412
56 219 0.17613635957241058
56 220 0.1758640557527542
56 221 0.15412726998329163
56 222 0.16554409265518188
56 223 0.1712525188922882
56 224 0.1278274953365326
56 225 0.18228958547115326
56 226 0.18470284342765808
56 227 0.18401747941970825
56 228 0.24306795001029968
56 229 0.1581355780363083
56 230 0.0627455785870552
56 231 0.16025398671627045
56 232 0.1657169908285141
56 233 0.15433372557163239
56 234 0.15467959642410278
56 235 0.18191216886043549
56 236 0.17826692759990692
56 237 0.1648579090833664
56 238 0.17668478190898895
56 239 0.18266935646533966
56 240 0.09065508097410202
56 241 0.17206180095672607
56 243 0.1827646642923355
56 244 0.1824791580438614
56 245 0.15542930364608765
56 247 0.14803344011306763
56 248 0.15567712485790253
56 250 0.17188096046447754
56 251 0.07995026558637619
56 252 0.16650176048278809
56 253 0.17723838984966278
56 255 0.09440790861845016
57 58 0.6360841989517212
57 59 0.93632972240448
57 60 0.9477846622467041
57 61 0.9478535056114197
57 62 0.948977530002594
57 63 0.10974956303834915
57 64 0.9472220540046692
57 65 0.13742820918560028
57 66 0.9495390057563782
57 67 0.9341191053390503
57 68 0.9506611824035645
57 69 0.9472220540046692
57 70 0.9370378255844116
57 71 0.9482124447822571
57 72 0.05853310227394104
57 73 0.942355751991272
57 74 0.9444039463996887
57 75 0.9440506100654602
57 76 0.9505255818367004
57 77 0.5823378562927246
57 78 0.9501003623008728
57 79 0.06544199585914612
57 80 0.17166464030742645
57 81 0.0731663778424263
57 83 0.946095883846283
57 84 0.9518235325813293
57 85 0.9494706392288208
57 86 0.948555588722229
57 87 0.9513605237007141
57 88 0.24718019366264343
57 89 0.1463327556848526
57 90 0.4434940814971924
57 91 0.9443855285644531
57 92 0.06544199585914612
57 93 0.382487416267395
57 94 0.20262683928012848
57 95 0.45073622465133667
57 96 0.18827547132968903
57 97 0.11334886401891708
57 98 0.9486437439918518
57 99 0.9477846622467041
57 100 0.9484156966209412
57 101 0.9513605237007141
57 102 0.943839430809021
57 103 0.11598759889602661
57 104 0.9528336524963379
57 105 0.1349121332168579
57 106 0.9538853764533997
57 107 0.9489089846611023
57 108 0.9500319361686707
57 109 0.10390312969684601
57 110 0.9496084451675415
57 111 0.9140881896018982
57 112 0.9533930420875549
57 113 0.8701738119125366
57 114 0.31485795974731445
57 115 0.9286131262779236
57 116 0.42662328481674194
57 117 0.20700734853744507
57 118 0.2460162490606308
57 120 0.9440506100654602
57 121 0.9498979449272156
57 122 0.9371805191040039
57 123 0.9479231238365173
57 124 0.9472909569740295
57 125 0.2365587204694748
57 126 0.15010160207748413
57 127 0.9439088702201843
57 128 0.17324627935886383
57 129 0.5385683178901672
57 130 0.9387428164482117
57 131 0.8916475176811218
57 132 0.950310468673706
57 133 0.9535292983055115
57 134 0.19186048209667206
57 135 0.9469403624534607
57 136 0.7383086681365967
57 137 0.9496084451675415
57 138 0.9538853764533997
57 139 0.9501003623008728
57 140 0.9450376629829407
57 141 0.9058095812797546
57 142 0.9346200823783875
57 143 0.30711713433265686
57 144 0.9240877032279968
57 145 0.9560532569885254
57 146 0.9398083090782166
57 147 0.9484851956367493
57 148 0.9483470320701599
57 149 0.9468687176704407
57 151 0.9209964275360107
57 152 0.9496084451675415
57 153 0.3262820839881897
57 154 0.9373266696929932
57 155 0.9448999166488647
57 156 0.9478535056114197
57 157 0.9522739052772522
57 158 0.20823517441749573
57 159 0.9521408081054688
57 160 0.9491419196128845
57 161 0.9001234173774719
57 162 0.15815149247646332
57 163 0.9473606944084167
57 164 0.9389570951461792
57 165 0.9496785998344421
57 166 0.9417184591293335
57 167 0.9540196657180786
57 168 0.9439088702201843
57 169 0.9366117715835571
57 170 0.3418315052986145
57 171 0.9296866655349731
57 172 0.9484156966209412
57 173 0.9496084451675415
57 174 0.2499842494726181
57 175 0.9331920146942139
57 176 0.9545107483863831
57 177 0.9473606944084167
57 178 0.948708713054657
57 179 0.8160436749458313
57 180 0.9378214478492737
57 181 0.26448071002960205
57 182 0.941224217414856
57 183 0.9502395987510681
57 184 0.9400192499160767
57 185 0.9407401084899902
57 186 0.954444169998169
57 187 0.9491884708404541
57 188 0.9505929350852966
57 189 0.9450376629829407
57 190 0.9505929350852966
57 191 0.9494031071662903
57 192 0.9466591477394104
57 193 0.9512217044830322
57 194 0.9540196657180786
57 195 0.9446148872375488
57 196 0.9505929350852966
57 197 0.9252410531044006
57 198 0.13088399171829224
57 199 0.9371805191040039
57 200 0.18509793281555176
57 201 0.2518428862094879
57 202 0.9491172432899475
57 203 0.38956180214881897
57 204 0.5095011591911316
57 205 0.887852132320404
57 206 0.5411990284919739
57 207 0.9468687176704407
57 208 0.9439088702201843
57 210 0.24971596896648407
57 211 0.16727226972579956
57 212 0.9424282312393188
57 213 0.29697155952453613
57 214 0.3809463381767273
57 215 0.1098308339715004
57 216 0.9512907266616821
57 217 0.9463056921958923
57 218 0.935620129108429
57 219 0.9496785998344421
57 220 0.953460693359375
57 221 0.9456714987754822
57 222 0.9520111680030823
57 223 0.9446148872375488
57 224 0.848232626914978
57 225 0.9458142518997192
57 226 0.9348312616348267
57 227 0.9409421682357788
57 228 0.2331371158361435
57 229 0.92364901304245
57 230 0.3368082344532013
57 231 0.9417901635169983
57 232 0.9434859752655029
57 233 0.7739019393920898
57 234 0.2617679834365845
57 235 0.9480649828910828
57 236 0.9451998472213745
57 237 0.9501694440841675
57 238 0.9473606944084167
57 239 0.9435582756996155
57 240 0.5500133037567139
57 241 0.9405859708786011
57 242 0.3782830536365509
57 243 0.9482792615890503
57 244 0.9489089846611023
57 245 0.937677264213562
57 246 0.1463327556848526
57 247 0.9505929350852966
57 248 0.9349033832550049
57 249 0.13645599782466888
57 250 0.943839430809021
57 251 0.20718081295490265
57 252 0.9373266696929932
57 253 0.9429210424423218
57 254 0.20262683928012848
57 255 0.5125914216041565
58 59 0.6543058156967163
58 60 0.6491212844848633
58 61 0.6514970064163208
58 62 0.6599650979042053
58 64 0.6448755264282227
58 65 0.1513548046350479
58 66 0.6565759778022766
58 67 0.6503613591194153
58 68 0.6604613065719604
58 69 0.6571006774902344
58 70 0.6525633335113525
58 71 0.6501390337944031
58 72 0.0634574294090271
58 73 0.6550709009170532
58 74 0.6588221788406372
58 75 0.6464036703109741
58 76 0.6618329882621765
58 77 0.38031888008117676
58 78 0.6486227512359619
58 80 0.10947445780038834
58 81 0.10576238483190536
58 83 0.6639066338539124
58 84 0.6450329422950745
58 85 0.657258152961731
58 86 0.6604613065719604
58 87 0.6633122563362122
58 88 0.11506279557943344
58 89 0.0634574294090271
58 90 0.45746466517448425
58 91 0.657048225402832
58 93 0.21964025497436523
58 94 0.10460647195577621
58 95 0.3101087510585785
58 96 0.17884352803230286
58 97 0.10923092812299728
58 98 0.6572900414466858
58 99 0.6506486535072327
58 100 0.64353346824646
58 101 0.6496514081954956
58 102 0.6607010960578918
58 103 0.05917435884475708
58 104 0.6673797965049744
58 105 0.05735770985484123
58 106 0.665859580039978
58 107 0.6514970064163208
58 108 0.6630134582519531
58 109 0.05461546406149864
58 110 0.6574177145957947
58 111 0.6082515716552734
58 112 0.6579186916351318
58 113 0.6247553825378418
58 114 0.26852601766586304
58 115 0.6176201701164246
58 116 0.3100280165672302
58 117 0.11677276343107224
58 120 0.649459958076477
58 121 0.6643947958946228
58 122 0.6450216174125671
58 123 0.6599650979042053
58 124 0.6518362164497375
58 125 0.2198229879140854
58 126 0.09862393885850906
58 127 0.6584768295288086
58 128 0.17270925641059875
58 129 0.38274240493774414
58 130 0.6499842405319214
58 131 0.623337984085083
58 132 0.6633122563362122
58 133 0.6611139178276062
58 134 0.10947445780038834
58 135 0.6623260974884033
58 136 0.5021096467971802
58 137 0.6528523564338684
58 138 0.665859580039978
58 139 0.6516679525375366
58 140 0.6547282338142395
58 141 0.6673884391784668
58 142 0.6615553498268127
58 143 0.27319347858428955
58 144 0.6529751420021057
58 145 0.6666914820671082
58 146 0.6715477108955383
58 147 0.6596227884292603
58 148 0.6533627510070801
58 149 0.6538684368133545
58 151 0.6222232580184937
58 152 0.6604613065719604
58 153 0.20912447571754456
58 154 0.6559487581253052
58 155 0.6652999520301819
58 156 0.6606515645980835
58 157 0.6601197123527527
58 158 0.15384700894355774
58 159 0.6584409475326538
58 160 0.6576352119445801
58 161 0.6505665183067322
58 162 0.17342738807201385
58 163 0.6496333479881287
58 164 0.6463909149169922
58 165 0.6719405055046082
58 166 0.6499704718589783
58 167 0.6553854942321777
58 168 0.6630708575248718
58 169 0.654604971408844
58 170 0.21426407992839813
58 171 0.6471045613288879
58 172 0.64353346824646
58 173 0.6543741226196289
58 174 0.08030078560113907
58 175 0.6335199475288391
58 176 0.6663480401039124
58 177 0.657258152961731
58 178 0.6535403728485107
58 179 0.526826798915863
58 180 0.6363142132759094
58 181 0.2548721432685852
58 182 0.6603543758392334
58 183 0.6639964580535889
58 184 0.6571385264396667
58 185 0.6451930999755859
58 186 0.6457631587982178
58 187 0.6655158996582031
58 188 0.658099353313446
58 189 0.6577876806259155
58 190 0.64743572473526
58 191 0.650309681892395
58 192 0.6497992277145386
58 193 0.6509936451911926
58 194 0.6447658538818359
58 195 0.6689767837524414
58 196 0.6626695394515991
58 197 0.6303061842918396
58 199 0.6481004953384399
58 200 0.11705750226974487
58 201 0.19068774580955505
58 202 0.6646827459335327
58 203 0.22228169441223145
58 204 0.3493216633796692
58 205 0.6293094754219055
58 206 0.38841766119003296
58 207 0.6584409475326538
58 208 0.6707276105880737
58 210 0.2037709653377533
58 211 0.06908370554447174
58 212 0.6712043881416321
58 213 0.20771320164203644
58 214 0.3010273873806
58 215 0.12212388217449188
58 216 0.6670353412628174
58 217 0.6526832580566406
58 218 0.6739139556884766
58 219 0.6673797965049744
58 220 0.6617944240570068
58 221 0.655230700969696
58 222 0.6628674268722534
58 223 0.6537033319473267
58 224 0.5574849247932434
58 225 0.6584409475326538
58 226 0.6470813155174255
58 227 0.6600663661956787
58 228 0.0945967510342598
58 229 0.6534661650657654
58 230 0.23503492772579193
58 231 0.6584768295288086
58 232 0.6528571248054504
58 233 0.48050656914711
58 234 0.1655443012714386
58 235 0.6585987210273743
58 236 0.6400643587112427
58 237 0.6585987210273743
58 238 0.6618329882621765
58 239 0.6537033319473267
58 240 0.39348098635673523
58 241 0.6491196751594543
58 242 0.2906123697757721
58 243 0.6586288213729858
58 244 0.6606515645980835
58 245 0.6345818042755127
58 246 0.09518615156412125
58 247 0.6641928553581238
58 248 0.6525633335113525
58 249 0.09862393885850906
58 250 0.6469045877456665
58 251 0.1711319386959076
58 252 0.6605572700500488
58 253 0.6516687870025635
58 254 0.22316047549247742
58 255 0.3171505928039551
59 60 0.9472777247428894
59 61 0.9494563341140747
59 62 0.9463622570037842
59 63 0.11700358241796494
59 64 0.945658802986145
59 65 0.15043608844280243
59 66 0.9500844478607178
59 67 0.9336193203926086
59 68 0.9501526951789856
59 69 0.9477719664573669
59 70 0.9365366101264954
59 71 0.9466475248336792
59 72 0.07312723994255066
59 73 0.9471429586410522
59 74 0.9438987970352173
59 75 0.9446021914482117
59 76 0.947908341884613
59 77 0.585532546043396
59 78 0.949592113494873
59 79 0.06540699303150177
59 80 0.19680409133434296
59 81 0.07312723994255066
59 82 0.05664411932229996
59 83 0.9477052092552185
59 84 0.9438987970352173
59 85 0.9489626884460449
59 86 0.9512048959732056
59 87 0.9519011974334717
59 88 0.22192443907260895
59 89 0.14625447988510132
59 90 0.46907761693000793
59 91 0.939604640007019
59 92 0.06540699303150177
59 93 0.36919090151786804
59 94 0.21698403358459473
59 95 0.4591584801673889
59 96 0.1774219125509262
59 97 0.07552549242973328
59 98 0.9460175633430481
59 99 0.946221649646759
59 100 0.947908341884613
59 101 0.9519011974334717
59 102 0.9465143084526062
59 103 0.14320215582847595
59 104 0.9554772973060608
59 105 0.11897643655538559
59 106 0.9533751010894775
59 107 0.9484013915061951
59 108 0.9484699368476868
59 109 0.09440687298774719
59 110 0.9501526951789856
59 111 0.9157953262329102
59 112 0.9518324136734009
59 113 0.8743160367012024
59 114 0.32727712392807007
59 115 0.9334812760353088
59 116 0.426395058631897
59 117 0.19680409133434296
59 118 0.23795287311077118
59 120 0.9498851895332336
59 121 0.9472777247428894
59 122 0.9388079643249512
59 123 0.9495237469673157
59 124 0.9446731805801392
59 125 0.2448761761188507
59 126 0.15002131462097168
59 127 0.9476392269134521
59 128 0.17912442982196808
59 129 0.561683714389801
59 130 0.9393056035041809
59 131 0.8878034353256226
59 132 0.9519011974334717
59 133 0.9582613706588745
59 134 0.1816653311252594
59 135 0.951697587966919
59 136 0.7229375839233398
59 137 0.9501526951789856
59 138 0.9502216577529907
59 139 0.9474865198135376
59 140 0.9519360065460205
59 141 0.907522439956665
59 142 0.930906355381012
59 143 0.28334110975265503
59 144 0.9257639646530151
59 145 0.9544917941093445
59 146 0.9435654878616333
59 147 0.9564043283462524
59 148 0.9467841982841492
59 149 0.9463622570037842
59 151 0.9128601551055908
59 152 0.9522570967674255
59 153 0.3230310380458832
59 154 0.9463846683502197
59 155 0.9443944096565247
59 156 0.9505112767219543
59 157 0.9496612548828125
59 158 0.2219986915588379
59 159 0.9505776762962341
59 160 0.9454542994499207
59 161 0.8985311985015869
59 162 0.15261632204055786
59 163 0.947908341884613
59 164 0.9448243975639343
59 165 0.9544261693954468
59 166 0.9443944096565247
59 167 0.9535093307495117
59 168 0.942345142364502
59 169 0.9403705596923828
59 170 0.32048457860946655
59 171 0.9367001056671143
59 172 0.9531803131103516
59 173 0.9491004347801208
59 174 0.2577822804450989
59 175 0.935897946357727
59 176 0.9550496339797974
59 177 0.947908341884613
59 178 0.9471429586410522
59 179 0.8266454339027405
59 180 0.9415706992149353
59 181 0.30839574337005615
59 182 0.9449581503868103
59 183 0.953933596611023
59 184 0.948009192943573
59 185 0.9370351433753967
59 186 0.9497312307357788
59 187 0.9507818222045898
59 188 0.9500844478607178
59 189 0.9445320963859558
59 190 0.9490311145782471
59 191 0.9467841982841492
59 192 0.9493242502212524
59 193 0.9517645835876465
59 194 0.9524603486061096
59 195 0.9472777247428894
59 196 0.9500844478607178
59 197 0.9204096794128418
59 198 0.10628636181354523
59 199 0.944130003452301
59 200 0.16765525937080383
59 201 0.24771283566951752
59 202 0.9507129192352295
59 203 0.399599552154541
59 204 0.5072157979011536
59 205 0.873672604560852
59 206 0.5352356433868408
59 207 0.9505776762962341
59 208 0.9486980438232422
59 209 0.05664411932229996
59 210 0.1972505897283554
59 211 0.14329953491687775
59 212 0.9503813982009888
59 213 0.32234498858451843
59 214 0.39851051568984985
59 215 0.11821608990430832
59 216 0.9528830051422119
59 217 0.9500170946121216
59 218 0.9393749237060547
59 219 0.9544261693954468
59 220 0.9581981897354126
59 221 0.946221649646759
59 222 0.9546700716018677
59 223 0.9483337998390198
59 224 0.8430494070053101
59 225 0.9463622570037842
59 226 0.9353989958763123
59 227 0.9436303377151489
59 228 0.2289244681596756
59 229 0.9296559691429138
59 230 0.34243202209472656
59 231 0.943403959274292
59 232 0.9493242502212524
59 233 0.7721902132034302
59 234 0.2534520924091339
59 235 0.9496612548828125
59 236 0.9393749237060547
59 237 0.9507129192352295
59 238 0.947908341884613
59 239 0.9451656341552734
59 240 0.5329480171203613
59 241 0.9464490413665771
59 242 0.3701488971710205
59 243 0.950941801071167
59 244 0.9547311067581177
59 245 0.9414355754852295
59 246 0.13162903487682343
59 247 0.9500844478607178
59 248 0.9376033544540405
59 249 0.15002131462097168
59 250 0.9433345198631287
59 251 0.21200022101402283
59 252 0.9389495849609375
59 253 0.9466475248336792
59 254 0.20251844823360443
59 255 0.5200796127319336
60 61 0.9583338499069214
60 62 0.959419310092926
60 63 0.1444128006696701
60 64 0.9577466249465942
60 65 0.12270840257406235
60 66 0.9651618599891663
60 67 0.946178138256073
60 68 0.9620842933654785
60 69 0.9567033052444458
60 70 0.9500212669372559
60 71 0.9577035307884216
60 72 0.07220640033483505
60 73 0.9582048654556274
60 74 0.9571176171302795
60 75 0.9608765244483948
60 76 0.9620001316070557
60 77 0.5746973156929016
60 78 0.9636221528053284
60 79 0.06458336859941483
60 80 0.18436044454574585
60 81 0.07220640033483505
60 82 0.055930834263563156
60 83 0.9618811011314392
60 84 0.9613017439842224
60 85 0.9599179029464722
60 86 0.9610453844070435
60 87 0.9658217430114746
60 88 0.2398025244474411
60 89 0.12997151911258698
60 90 0.45679688453674316
60 91 0.9457160830497742
60 92 0.06458336859941483
60 93 0.3826397955417633
60 94 0.20472940802574158
60 95 0.4533766210079193
60 96 0.19642265141010284
60 97 0.10253987461328506
60 98 0.9571176171302795
60 99 0.9593325853347778
60 100 0.9599179029464722
60 101 0.9658217430114746
60 102 0.9586668610572815
60 103 0.14813220500946045
60 104 0.9662793874740601
60 105 0.13314202427864075
60 106 0.9631656408309937
60 107 0.9635422229766846
60 108 0.9615004658699036
60 109 0.10253987461328506
60 110 0.9672791361808777
60 111 0.9237798452377319
60 112 0.9657806158065796
60 113 0.8837800025939941
60 114 0.3293704688549042
60 115 0.942915678024292
60 116 0.42792782187461853
60 117 0.20429129898548126
60 118 0.2506202757358551
60 120 0.9587898850440979
60 121 0.9603754281997681
60 122 0.9501083493232727
60 123 0.9615004658699036
60 124 0.9598750472068787
60 125 0.22094842791557312
60 126 0.14813220500946045
60 127 0.9555704593658447
60 128 0.17097321152687073
60 129 0.5688316226005554
60 130 0.9537667036056519
60 131 0.9065465927124023
60 132 0.9658217430114746
60 133 0.966899037361145
60 134 0.20429129898548126
60 135 0.9605036377906799
60 136 0.7595409750938416
60 137 0.9631232619285583
60 138 0.9631656408309937
60 139 0.9636221528053284
60 140 0.9608367085456848
60 141 0.9221312999725342
60 142 0.9456278681755066
60 143 0.29642632603645325
60 144 0.9323243498802185
60 145 0.9632090330123901
60 146 0.9506120085716248
60 147 0.9610016942024231
60 148 0.9577906131744385
60 149 0.9625411033630371
60 151 0.93155437707901
60 152 0.9641622304916382
60 153 0.31592559814453125
60 154 0.9554433226585388
60 155 0.9534339308738708
60 156 0.9604172110557556
60 157 0.9615867137908936
60 158 0.21463648974895477
60 159 0.9625411033630371
60 160 0.9576202034950256
60 161 0.912440299987793
60 162 0.17760424315929413
60 163 0.9640824198722839
60 164 0.9538915157318115
60 165 0.9621278047561646
60 166 0.9565736651420593
60 167 0.9642890691757202
60 168 0.9545249342918396
60 169 0.9516635537147522
60 170 0.33734652400016785
60 171 0.9439750909805298
60 172 0.9620001316070557
60 173 0.965201199054718
60 174 0.2623681128025055
60 175 0.9483760595321655
60 176 0.9647854566574097
60 177 0.9599179029464722
60 178 0.9571599364280701
60 179 0.8271353840827942
60 180 0.9538488984107971
60 181 0.2951905131340027
60 182 0.9539795517921448
60 183 0.9668179750442505
60 184 0.9528432488441467
60 185 0.9505269527435303
60 186 0.9647432565689087
60 187 0.9647432565689087
60 188 0.9620417952537537
60 189 0.9577035307884216
60 190 0.966201901435852
60 191 0.9630016088485718
60 192 0.9572030305862427
60 193 0.9636635780334473
60 194 0.9684321284294128
60 195 0.9603754281997681
60 196 0.9610016942024231
60 197 0.9377220273017883
60 198 0.12916673719882965
60 199 0.9522103071212769
60 200 0.1712525188922882
60 201 0.24853861331939697
60 202 0.9615867137908936
60 203 0.4021555185317993
60 204 0.49486657977104187
60 205 0.8818414807319641
60 206 0.5359656810760498
60 207 0.9625411033630371
60 208 0.9587069153785706
60 209 0.055930834263563156
60 210 0.2504144012928009
60 211 0.1650775820016861
60 212 0.9603345394134521
60 213 0.2930751442909241
60 214 0.38847967982292175
60 215 0.11672747135162354
60 216 0.9626684784889221
60 217 0.9588767886161804
60 218 0.9496054649353027
60 219 0.9652414917945862
60 220 0.9647854566574097
60 221 0.9593325853347778
60 222 0.9572471380233765
60 223 0.9582898616790771
60 224 0.8511135578155518
60 225 0.9625411033630371
60 226 0.9520878791809082
60 227 0.9548577070236206
60 228 0.24218761920928955
60 229 0.9318578839302063
60 230 0.3438508212566376
60 231 0.9545249342918396
60 232 0.956159234046936
60 233 0.7957844734191895
60 234 0.2542969882488251
60 235 0.9647020101547241
60 236 0.9517063498497009
60 237 0.9615867137908936
60 238 0.9599179029464722
60 239 0.9572471380233765
60 240 0.533596932888031
60 241 0.9533893465995789
60 242 0.3785410523414612
60 243 0.9598332047462463
60 244 0.9604172110557556
60 245 0.9506120085716248
60 246 0.1444128006696701
60 247 0.9599616527557373
60 248 0.9542341232299805
60 249 0.14813220500946045
60 250 0.9586668610572815
60 251 0.20446249842643738
60 252 0.9512481689453125
60 253 0.9608367085456848
60 254 0.209490567445755
60 255 0.5231113433837891
61 62 0.9615389704704285
61 63 0.1370493322610855
61 64 0.9598761200904846
61 65 0.1483871042728424
61 66 0.9620791673660278
61 67 0.9473052024841309
61 68 0.963158369064331
61 69 0.9577916860580444
61 70 0.9511364102363586
61 71 0.9567064642906189
61 72 0.05770498141646385
61 73 0.959294855594635
61 74 0.9603009819984436
61 75 0.9588338732719421
61 76 0.9620386362075806
61 77 0.5896618962287903
61 78 0.9636573195457458
61 79 0.06451612710952759
61 80 0.19412356615066528
61 81 0.05770498141646385
61 82 0.055872607976198196
61 83 0.9577497839927673
61 84 0.961345911026001
61 85 0.96099853515625
61 86 0.963158369064331
61 87 0.9658514261245728
61 88 0.25194355845451355
61 89 0.12983621656894684
61 90 0.4733007252216339
61 91 0.950003445148468
61 92 0.06451612710952759
61 93 0.37707599997520447
61 94 0.20927245914936066
61 95 0.4678589999675751
61 96 0.18030858039855957
61 97 0.11174521595239639
61 98 0.955076277256012
61 99 0.9604172110557556
61 100 0.9599584937095642
61 101 0.9668866395950317
61 102 0.954532265663147
61 103 0.1547042578458786
61 104 0.9642365574836731
61 105 0.11735595017671585
61 106 0.9642365574836731
61 107 0.9604578614234924
61 108 0.9615389704704285
61 109 0.11174521595239639
61 110 0.962120532989502
61 111 0.9271506071090698
61 112 0.9647751450538635
61 113 0.8783149719238281
61 114 0.33213162422180176
61 115 0.9482840895652771
61 116 0.4412720501422882
61 117 0.19910110533237457
61 118 0.26600682735443115
61 120 0.9577916860580444
61 121 0.9604172110557556
61 122 0.9501690864562988
61 123 0.9615389704704285
61 124 0.9588757753372192
61 125 0.24570541083812714
61 126 0.1547042578458786
61 127 0.9566643834114075
61 128 0.17668470740318298
61 129 0.5629120469093323
61 130 0.9517232179641724
61 131 0.9044957160949707
61 132 0.9648162722587585
61 133 0.9658924341201782
61 134 0.19910110533237457
61 135 0.9636573195457458
61 136 0.7412922978401184
61 137 0.9673099517822266
61 138 0.9663101434707642
61 139 0.9646956920623779
61 140 0.9608796834945679
61 141 0.923338770866394
61 142 0.9456999897956848
61 143 0.2894634008407593
61 144 0.939917802810669
61 145 0.9642777442932129
61 146 0.9527737498283386
61 147 0.9620791673660278
61 148 0.963040292263031
61 149 0.9625784754753113
61 151 0.9251992106437683
61 152 0.963158369064331
61 153 0.3247004449367523
61 154 0.9544485807418823
61 155 0.954532265663147
61 156 0.9604578614234924
61 157 0.9657723307609558
61 158 0.21441303193569183
61 159 0.9615389704704285
61 160 0.9566232562065125
61 161 0.9169681072235107
61 162 0.1827957034111023
61 163 0.9620386362075806
61 164 0.9570869207382202
61 165 0.9642365574836731
61 166 0.9566232562065125
61 167 0.9674237966537476
61 168 0.9587531089782715
61 169 0.9517232179641724
61 170 0.33997756242752075
61 171 0.9419339895248413
61 172 0.9620386362075806
61 173 0.9641962647438049
61 174 0.2620949447154999
61 175 0.9484425187110901
61 176 0.9699922800064087
61 177 0.9620386362075806
61 178 0.9561633467674255
61 179 0.8214351534843445
61 180 0.9539041519165039
61 181 0.3228195011615753
61 182 0.9561212062835693
61 183 0.9637388586997986
61 184 0.9549926519393921
61 185 0.9537481069564819
61 186 0.9668476581573486
61 187 0.9637388586997986
61 188 0.9651960134506226
61 189 0.9608796834945679
61 190 0.9631180763244629
61 191 0.963040292263031
61 192 0.9582920074462891
61 193 0.9626602530479431
61 194 0.9663891196250916
61 195 0.9593755602836609
61 196 0.9620791673660278
61 197 0.9378150701522827
61 198 0.12903225421905518
61 199 0.9512190222740173
61 200 0.15966926515102386
61 201 0.25616174936294556
61 202 0.9636975526809692
61 203 0.3966835141181946
61 204 0.514204740524292
61 205 0.8888088464736938
61 206 0.5372732281684875
61 207 0.9615389704704285
61 208 0.9577087163925171
61 210 0.24618297815322876
61 211 0.17668470740318298
61 212 0.96037757396698
61 213 0.31165844202041626
61 214 0.3905789852142334
61 215 0.12493494898080826
61 216 0.9637388586997986
61 217 0.96099853515625
61 218 0.9517649412155151
61 219 0.9631996750831604
61 220 0.9648162722587585
61 221 0.9604172110557556
61 222 0.9583338499069214
61 223 0.9604172110557556
61 224 0.8548926711082458
61 225 0.9615389704704285
61 226 0.9500434398651123
61 227 0.9528142809867859
61 228 0.2540322542190552
61 229 0.9383689165115356
61 230 0.3492177426815033
61 231 0.9556199312210083
61 232 0.96037757396698
61 233 0.7885553240776062
61 234 0.2540322542190552
61 235 0.9636975526809692
61 236 0.9528142809867859
61 237 0.9636975526809692
61 238 0.9599584937095642
61 239 0.9583338499069214
61 240 0.5422317385673523
61 241 0.9544899463653564
61 242 0.37553903460502625
61 243 0.9609183073043823
61 244 0.9614984393119812
61 245 0.9527737498283386
61 246 0.14426246285438538
61 247 0.9631180763244629
61 248 0.9521884918212891
61 249 0.14797797799110413
61 250 0.9576687812805176
61 251 0.20424962043762207
61 252 0.9523531198501587
61 253 0.958793044090271
61 254 0.20927245914936066
61 255 0.5263950824737549
62 63 0.1369069367647171
62 64 0.9599199295043945
62 65 0.15467782318592072
62 66 0.9641931653022766
62 67 0.9473759531974792
62 68 0.9642313718795776
62 69 0.9599199295043945
62 70 0.9554034471511841
62 71 0.9588391184806824
62 72 0.07205627858638763
62 73 0.957255482673645
62 74 0.9561716914176941
62 75 0.9599199295043945
62 76 0.9641559720039368
62 77 0.5786847472190857
62 78 0.9657681584358215
62 79 0.06444909423589706
62 80 0.20386658608913422
62 81 0.07205627858638763
62 82 0.055814556777477264
62 83 0.9588391184806824
62 84 0.9572155475616455
62 85 0.9631170034408569
62 86 0.9642313718795776
62 87 0.9669162631034851
62 88 0.23930399119853973
62 89 0.1369069367647171
62 90 0.4664483368396759
62 91 0.9479631185531616
62 92 0.06444909423589706
62 93 0.3921643793582916
62 94 0.19480127096176147
62 95 0.4652388095855713
62 96 0.18541891872882843
62 97 0.11162911355495453
62 98 0.9582594037055969
62 99 0.9615004658699036
62 100 0.9620780944824219
62 101 0.9669162631034851
62 102 0.9577181935310364
62 103 0.15454350411891937
62 104 0.9663418531417847
62 105 0.1172340139746666
62 106 0.9684134125709534
62 107 0.9615389704704285
62 108 0.9626168012619019
62 109 0.10232669115066528
62 110 0.9652681350708008
62 111 0.9305152893066406
62 112 0.966878354549408
62 113 0.8774024248123169
62 114 0.31938329339027405
62 115 0.9451843500137329
62 116 0.4431094825267792
62 117 0.20386658608913422
62 118 0.2422836273908615
62 120 0.9599199295043945
62 121 0.9615004658699036
62 122 0.955474853515625
62 123 0.9626168012619019
62 124 0.9620397090911865
62 125 0.24545012414455414
62 126 0.1478242129087448
62 127 0.9567137360572815
62 128 0.17650113999843597
62 129 0.5605533719062805
62 130 0.9559813141822815
62 131 0.9035559892654419
62 132 0.9679503440856934
62 133 0.969021201133728
62 134 0.17403244972229004
62 135 0.9636934399604797
62 136 0.7351560592651367
62 137 0.9663049578666687
62 138 0.9642704129219055
62 139 0.9657681584358215
62 140 0.9598813652992249
62 141 0.9256271719932556
62 142 0.9499951601028442
62 143 0.2991337776184082
62 144 0.9335942268371582
62 145 0.9653451442718506
62 146 0.9517838358879089
62 147 0.9621174335479736
62 148 0.9599595665931702
62 149 0.9657320976257324
62 151 0.9285417199134827
62 152 0.9631944894790649
62 153 0.34255164861679077
62 154 0.9555500745773315
62 155 0.956673800945282
62 156 0.9625784754753113
62 157 0.9647688865661621
62 158 0.2141902595758438
62 159 0.9657320976257324
62 160 0.9608513116836548
62 161 0.9094489812850952
62 162 0.18797652423381805
62 163 0.961039125919342
62 164 0.9571385383605957
62 165 0.9653061628341675
62 166 0.956673800945282
62 167 0.9674522876739502
62 168 0.9619302749633789
62 169 0.9528331756591797
62 170 0.342603474855423
62 171 0.9462416172027588
62 172 0.961039125919342
62 173 0.9631944894790649
62 174 0.2540070414543152
62 175 0.9516680240631104
62 176 0.9658820629119873
62 177 0.9631170034408569
62 178 0.9582982063293457
62 179 0.8254157900810242
62 180 0.9560545086860657
62 181 0.31938329339027405
62 182 0.9593032002449036
62 183 0.9648079872131348
62 184 0.9571385383605957
62 185 0.9506540298461914
62 186 0.9679136276245117
62 187 0.9648079872131348
62 188 0.9652311205863953
62 189 0.9609235525131226
62 190 0.9631552696228027
62 191 0.960999608039856
62 192 0.9583380222320557
62 193 0.965805172920227
62 194 0.9684858918190002
62 195 0.9604598879814148
62 196 0.9621174335479736
62 197 0.9347042441368103
62 198 0.11278592050075531
62 199 0.9544259905815125
62 200 0.18228958547115326
62 201 0.2519587576389313
62 202 0.9668413996696472
62 203 0.39879539608955383
62 204 0.4938376843929291
62 205 0.8901360630989075
62 206 0.5329878330230713
62 207 0.9626168012619019
62 208 0.9567137360572815
62 209 0.055814556777477264
62 210 0.25782689452171326
62 211 0.1647343933582306
62 212 0.9593797326087952
62 213 0.31762418150901794
62 214 0.39517539739608765
62 215 0.12480514496564865
62 216 0.9648079872131348
62 217 0.9631170034408569
62 218 0.953920841217041
62 219 0.9653061628341675
62 220 0.9669162631034851
62 221 0.9615004658699036
62 222 0.959419310092926
62 223 0.959419310092926
62 224 0.8633250594139099
62 225 0.9615784287452698
62 226 0.9480040669441223
62 227 0.9549691081047058
62 228 0.24974025785923004
62 229 0.9331234097480774
62 230 0.3631522059440613
62 231 0.9577570557594299
62 232 0.9593797326087952
62 233 0.7736693024635315
62 234 0.23765605688095093
62 235 0.9637326002120972
62 236 0.9528725743293762
62 237 0.9668413996696472
62 238 0.9631170034408569
62 239 0.959419310092926
62 240 0.5453407764434814
62 241 0.9576802253723145
62 242 0.38556963205337524
62 243 0.9588788151741028
62 244 0.9646574854850769
62 245 0.9528331756591797
62 246 0.1369069367647171
62 247 0.9641931653022766
62 248 0.9490971565246582
62 249 0.15454350411891937
62 250 0.9577181935310364
62 251 0.2040373980998993
62 252 0.9545035362243652
62 253 0.9609235525131226
62 254 0.20905503630638123
62 255 0.5315847396850586
63 64 0.1444881558418274
63 66 0.14403779804706573
63 67 0.1317700445652008
63 68 0.14388862252235413
63 69 0.13003933429718018
63 70 0.12398524582386017
63 71 0.13740724325180054
63 73 0.14471492171287537
63 74 0.1376233696937561
63 75 0.1444881558418274
63 76 0.11534995585680008
63 78 0.1367649883031845
63 79 0.11180339008569717
63 83 0.13740724325180054
63 84 0.12313669174909592
63 85 0.13697807490825653
63 86 0.14388862252235413
63 87 0.12199001759290695
63 89 0.09999999403953552
63 91 0.13155870139598846
63 93 0.05370861291885376
63 98 0.1376233696937561
63 99 0.13719215989112854
63 100 0.14418745040893555
63 101 0.13634178042411804
63 102 0.12320134788751602
63 103 0.2331262081861496
63 104 0.12936590611934662
63 105 0.05423261597752571
63 106 0.14373990893363953
63 107 0.12983621656894684
63 108 0.1369069367647171
63 110 0.14388862252235413
63 111 0.11261972039937973
63 112 0.11493256688117981
63 113 0.11026698350906372
63 115 0.14672602713108063
63 120 0.1444881558418274
63 121 0.13719215989112854
63 122 0.13827785849571228
63 123 0.12970130145549774
63 124 0.12990380823612213
63 127 0.14479075372219086
63 130 0.1456327885389328
63 131 0.145809143781662
63 132 0.14351767301559448
63 133 0.13620159029960632
63 135 0.14396314322948456
63 136 0.10239759832620621
63 137 0.14388862252235413
63 138 0.14373990893363953
63 139 0.14396314322948456
63 140 0.13740724325180054
63 141 0.1126832589507103
63 142 0.13916520774364471
63 144 0.1484130471944809
63 145 0.1292324662208557
63 146 0.13835114240646362
63 147 0.12963402271270752
63 148 0.12268692255020142
63 149 0.14411255717277527
63 151 0.12692223489284515
63 152 0.14388862252235413
63 154 0.14524821937084198
63 155 0.12320134788751602
63 156 0.14426246285438538
63 157 0.12224207073450089
63 158 0.06324554979801178
63 159 0.14411255717277527
63 160 0.13769562542438507
63 161 0.11391127109527588
63 163 0.14418745040893555
63 164 0.13791309297084808
63 165 0.1149919182062149
63 166 0.13044849038124084
63 167 0.14344382286071777
63 168 0.14479075372219086
63 169 0.13835114240646362
63 170 0.16537964344024658
63 171 0.14672602713108063
63 172 0.14418745040893555
63 173 0.14388862252235413
63 174 0.05423261597752571
63 175 0.12418357282876968
63 176 0.11481413245201111
63 177 0.11534995585680008
63 178 0.1302434355020523
63 179 0.10063091665506363
63 180 0.1380586475133896
63 181 0.06454972177743912
63 182 0.1376233696937561
63 183 0.14366571605205536
63 184 0.13065451383590698
63 185 0.12405124306678772
63 186 0.14366571605205536
63 187 0.14366571605205536
63 188 0.14403779804706573
63 189 0.13740724325180054
63 190 0.14403779804706573
63 191 0.14433756470680237
63 192 0.12287908792495728
63 193 0.13662348687648773
63 194 0.14344382286071777
63 195 0.12997151911258698
63 196 0.14403779804706573
63 197 0.14083737134933472
63 199 0.14555563032627106
63 202 0.13662348687648773
63 203 0.08757118135690689
63 204 0.11009637266397476
63 205 0.1171303242444992
63 207 0.12970130145549774
63 208 0.14479075372219086
63 209 0.12909944355487823
63 212 0.14456363022327423
63 216 0.14366571605205536
63 217 0.13697807490825653
63 218 0.13093073666095734
63 219 0.12936590611934662
63 220 0.13634178042411804
63 221 0.1444128006696701
63 222 0.09386831521987915
63 223 0.13719215989112854
63 224 0.11318328976631165
63 225 0.14411255717277527
63 226 0.13871939480304718
63 227 0.1382046639919281
63 228 0.05590169504284859
63 229 0.14816847443580627
63 231 0.1375512033700943
63 232 0.13010726869106293
63 233 0.14197704195976257
63 235 0.14381420612335205
63 236 0.13093073666095734
63 237 0.11505135893821716
63 238 0.13697807490825653
63 239 0.13719215989112854
63 241 0.13784049451351166
63 243 0.13726374506950378
63 244 0.12983621656894684
63 245 0.12378786504268646
63 247 0.13683591783046722
63 248 0.13127849996089935
63 250 0.13769562542438507
63 252 0.14524821937084198
63 253 0.14463920891284943
63 255 0.09288036078214645
64 65 0.16154266893863678
64 66 0.9615030884742737
64 67 0.9509028196334839
64 68 0.961546778678894
64 69 0.9572024941444397
64 70 0.9484093189239502
64 71 0.9592481255531311
64 72 0.0722440779209137
64 73 0.9597502946853638
64 74 0.9565705060958862
64 75 0.9561586976051331
64 76 0.9583353996276855
64 77 0.5836567282676697
64 78 0.9610047936439514
64 79 0.06461706012487411
64 80 0.18445664644241333
64 81 0.05779526010155678
64 82 0.05596001818776131
64 83 0.9582032561302185
64 84 0.9555239081382751
64 85 0.9604187607765198
64 86 0.9605072736740112
64 87 0.963215172290802
64 88 0.24820102751255035
64 89 0.1444881558418274
64 90 0.47191548347473145
64 91 0.9483216404914856
64 92 0.06461706012487411
64 93 0.39318645000457764
64 94 0.21436350047588348
64 95 0.4707306921482086
64 96 0.1805906742811203
64 97 0.0839400365948677
64 98 0.9555239081382751
64 99 0.9608765244483948
64 100 0.9604187607765198
64 101 0.963215172290802
64 102 0.9528842568397522
64 103 0.15494629740715027
64 104 0.9626297950744629
64 105 0.11753954738378525
64 106 0.961591362953186
64 107 0.9588338732719421
64 108 0.9599199295043945
64 109 0.10259337723255157
64 110 0.961546778678894
64 111 0.9220921993255615
64 112 0.9631708264350891
64 113 0.87968909740448
64 114 0.3326512575149536
64 115 0.9423476457595825
64 116 0.43735864758491516
64 117 0.18445664644241333
64 118 0.26642298698425293
64 120 0.9582463502883911
64 121 0.9619197845458984
64 122 0.9516556262969971
64 123 0.9609610438346863
64 124 0.9582903981208801
64 125 0.23357677459716797
64 126 0.15494629740715027
64 127 0.9550230503082275
64 128 0.16516371071338654
64 129 0.5531216859817505
64 130 0.9511079788208008
64 131 0.9059107899665833
64 132 0.9642520546913147
64 133 0.9653320908546448
64 134 0.1944272667169571
64 135 0.962044894695282
64 136 0.7330368757247925
64 137 0.9625862836837769
64 138 0.9636682271957397
64 139 0.9599647521972656
64 140 0.956113338470459
64 141 0.9204416275024414
64 142 0.9429463148117065
64 143 0.29324862360954285
64 144 0.9349551796913147
64 145 0.9626742005348206
64 146 0.9542643427848816
64 147 0.9615030884742737
64 148 0.960375964641571
64 149 0.9588788151741028
64 151 0.9277254343032837
64 152 0.961546778678894
64 153 0.32216909527778625
64 154 0.9548923969268799
64 155 0.9581198692321777
64 156 0.9577916860580444
64 157 0.9641663432121277
64 158 0.21931760013103485
64 159 0.9599199295043945
64 160 0.9560256600379944
64 161 0.907430112361908
64 162 0.17769692838191986
64 163 0.9625020623207092
64 164 0.9543891549110413
64 165 0.961591362953186
64 166 0.9528842568397522
64 167 0.9637559056282043
64 168 0.9539769887924194
64 169 0.9490038156509399
64 170 0.3434963524341583
64 171 0.9402275681495667
64 172 0.959377110004425
64 173 0.9636257886886597
64 174 0.2625049948692322
64 175 0.9467599391937256
64 176 0.9663257002830505
64 177 0.9604187607765198
64 178 0.9566138386726379
64 179 0.8324136137962341
64 180 0.9532967209815979
64 181 0.3233245611190796
64 182 0.9555239081382751
64 183 0.9621329307556152
64 184 0.9533404111862183
64 185 0.9510229229927063
64 186 0.9683603644371033
64 187 0.964208722114563
64 188 0.9604625105857849
64 189 0.956113338470459
64 190 0.9615030884742737
64 191 0.9572476744651794
64 192 0.9556136727333069
64 193 0.961049497127533
64 194 0.9647921919822693
64 195 0.9598332047462463
64 196 0.9604625105857849
64 197 0.9317852258682251
64 198 0.12115699052810669
64 199 0.9527071714401245
64 200 0.16563047468662262
64 201 0.2565625309944153
64 202 0.961049497127533
64 203 0.4023653566837311
64 204 0.516997754573822
64 205 0.8868145942687988
64 206 0.5343769192695618
64 207 0.9609610438346863
64 208 0.9581611156463623
64 209 0.05596001818776131
64 210 0.25054505467414856
64 211 0.1710624247789383
64 212 0.956658124923706
64 213 0.31214600801467896
64 214 0.40623578429222107
64 215 0.12513041496276855
64 216 0.9652466773986816
64 217 0.9604187607765198
64 218 0.951151967048645
64 219 0.961591362953186
64 220 0.963215172290802
64 221 0.9577466249465942
64 222 0.9608765244483948
64 223 0.9567033052444458
64 224 0.8550620079040527
64 225 0.9630433320999146
64 226 0.9473100900650024
64 227 0.951151967048645
64 228 0.25846824049949646
64 229 0.9344848990440369
64 230 0.346897155046463
64 231 0.9560690522193909
64 232 0.9577024579048157
64 233 0.7833783626556396
64 234 0.2544296681880951
64 235 0.962088406085968
64 236 0.9522029757499695
64 237 0.962088406085968
64 238 0.9604187607765198
64 239 0.9608765244483948
64 240 0.5449210405349731
64 241 0.9549350738525391
64 242 0.38657450675964355
64 243 0.9592901468276978
64 244 0.9588338732719421
64 245 0.952160120010376
64 246 0.1444881558418274
64 247 0.963584303855896
64 248 0.9515706896781921
64 249 0.15494629740715027
64 250 0.9549785256385803
64 251 0.18995708227157593
64 252 0.9517444968223572
64 253 0.9571583271026611
64 254 0.20483623445034027
64 255 0.5176328420639038
65 66 0.1481560319662094
65 67 0.11131100356578827
65 68 0.16087237000465393
65 69 0.15508095920085907
65 70 0.16308201849460602
65 71 0.1487746387720108
65 72 0.08944272249937057
65 73 0.1617961972951889
65 74 0.1490086168050766
65 75 0.14861926436424255
65 76 0.14830996096134186
65 77 0.08576900511980057
65 78 0.15451745688915253
65 80 0.09258200973272324
65 83 0.12936924397945404
65 84 0.14252997934818268
65 85 0.15475820004940033
65 86 0.15443746745586395
65 87 0.16045762598514557
65 89 0.08944272249937057
65 90 0.11843130737543106
65 91 0.150355726480484
65 93 0.12810252606868744
65 94 0.08846516907215118
65 95 0.0927172601222992
65 96 0.06575959920883179
65 98 0.11661543697118759
65 99 0.14854174852371216
65 100 0.15475820004940033
65 101 0.1476210206747055
65 102 0.1490868777036667
65 104 0.15427783131599426
65 106 0.14784960448741913
65 107 0.1548387110233307
65 108 0.15467782318592072
65 109 0.057735029608011246
65 110 0.14800257980823517
65 111 0.1410222053527832
65 112 0.14134836196899414
65 113 0.11975989490747452
65 114 0.1154700517654419
65 115 0.14435932040214539
65 116 0.0854964628815651
65 118 0.09701424837112427
65 119 0.1414213627576828
65 120 0.14861926436424255
65 121 0.16145841777324677
65 122 0.15622667968273163
65 123 0.15467782318592072
65 124 0.1613743007183075
65 127 0.15540573000907898
65 129 0.07706746459007263
65 130 0.1367708295583725
65 131 0.1647355705499649
65 132 0.14120271801948547
65 133 0.14105752110481262
65 135 0.16095568239688873
65 136 0.1332177370786667
65 137 0.14156769216060638
65 138 0.1607060730457306
65 139 0.16095568239688873
65 140 0.14230617880821228
65 141 0.13438263535499573
65 142 0.15067800879478455
65 143 0.06188527122139931
65 144 0.13938190042972565
65 145 0.16054031252861023
65 146 0.15630951523780823
65 147 0.1481560319662094
65 148 0.1613743007183075
65 149 0.14823293685913086
65 151 0.15358953177928925
65 152 0.14800257980823517
65 154 0.1429053544998169
65 155 0.1490868777036667
65 156 0.16129031777381897
65 157 0.14792603254318237
65 158 0.08485280722379684
65 159 0.12889820337295532
65 160 0.1555688977241516
65 161 0.16301654279232025
65 162 0.1666666716337204
65 163 0.15475820004940033
65 164 0.1363377720117569
65 165 0.1607060730457306
65 166 0.13612279295921326
65 167 0.16037507355213165
65 168 0.15540573000907898
65 169 0.1367708295583725
65 171 0.16404467821121216
65 172 0.15475820004940033
65 173 0.16087237000465393
65 174 0.09701424837112427
65 175 0.1372080296278
65 176 0.14120271801948547
65 177 0.141861692070961
65 178 0.14238066971302032
65 179 0.10500819981098175
65 180 0.12998254597187042
65 181 0.05773502588272095
65 182 0.16196587681770325
65 183 0.14134836196899414
65 184 0.16230687499046326
65 185 0.15011532604694366
65 186 0.16062313318252563
65 187 0.14134836196899414
65 188 0.13527289032936096
65 189 0.12290078401565552
65 190 0.1481560319662094
65 191 0.14200939238071442
65 192 0.12930165231227875
65 193 0.14792603254318237
65 194 0.14754506945610046
65 195 0.16145841777324677
65 196 0.1481560319662094
65 197 0.11933884769678116
65 198 0.05000000447034836
65 199 0.16273613274097443
65 200 0.0707106813788414
65 201 0.09773555397987366
65 202 0.15435758233070374
65 203 0.07832605391740799
65 204 0.08616404235363007
65 205 0.16762325167655945
65 206 0.11566299200057983
65 207 0.16112273931503296
65 208 0.1618809700012207
65 212 0.1486968994140625
65 213 0.11710800230503082
65 214 0.09313805401325226
65 215 0.10327955335378647
65 216 0.15419819951057434
65 217 0.15475820004940033
65 218 0.15614400804042816
65 219 0.15427783131599426
65 220 0.16045762598514557
65 221 0.14854174852371216
65 222 0.14854174852371216
65 223 0.16145841777324677
65 224 0.13015827536582947
65 225 0.15467782318592072
65 226 0.16325579583644867
65 227 0.1431320160627365
65 228 0.10000000894069672
65 229 0.1656573861837387
65 230 0.10648278146982193
65 231 0.1618809700012207
65 232 0.15516197681427002
65 233 0.15079839527606964
65 234 0.05000000447034836
65 235 0.1607891470193863
65 236 0.1366260051727295
65 237 0.1607891470193863
65 238 0.14830996096134186
65 239 0.14854174852371216
65 240 0.11396057158708572
65 241 0.16222141683101654
65 242 0.09701424837112427
65 243 0.14861926436424255
65 244 0.1548387110233307
65 245 0.15630951523780823
65 247 0.15459758043289185
65 248 0.11741906404495239
65 250 0.1490868777036667
65 252 0.16239243745803833
65 253 0.1487746387720108
65 254 0.11795356124639511
65 255 0.05933908745646477
66 67 0.9479389190673828
66 68 0.9678761959075928
66 69 0.9615030884742737
66 70 0.9496552348136902
66 71 0.9604250192642212
66 72 0.07201889902353287
66 73 0.9609277248382568
66 74 0.9598488211631775
66 75 0.963584303855896
66 76 0.9615789651870728
66 77 0.5680254101753235
66 78 0.9631934762001038
66 79 0.06441566348075867
66 80 0.20873060822486877
66 81 0.07201889902353287
66 83 0.9604250192642212
66 84 0.9608922004699707
66 85 0.9636557698249817
66 86 0.9668399095535278
66 87 0.9664146304130554
66 88 0.2350560426712036
66 89 0.14403779804706573
66 90 0.46832549571990967
66 91 0.9506295919418335
66 92 0.06441566348075867
66 93 0.386803537607193
66 94 0.21844415366649628
66 95 0.4607313871383667
66 96 0.1906176656484604
66 97 0.1022736057639122
66 98 0.9608922004699707
66 99 0.9630818367004395
66 100 0.9636557698249817
66 101 0.9674481749534607
66 102 0.9613967537879944
66 103 0.14774754643440247
66 104 0.9648053646087646
66 105 0.1249847486615181
66 106 0.9658405184745789
66 107 0.9620791673660278
66 108 0.9631552696228027
66 109 0.09297600388526917
66 110 0.9658036828041077
66 111 0.9235439300537109
66 112 0.9674113988876343
66 113 0.8894264101982117
66 114 0.306820809841156
66 115 0.9457507133483887
66 116 0.4337007701396942
66 117 0.1938212662935257
66 118 0.2577810287475586
66 120 0.9625437259674072
66 121 0.9641218781471252
66 122 0.9539307951927185
66 123 0.9631552696228027
66 124 0.9625800251960754
66 125 0.24116475880146027
66 126 0.14774754643440247
66 127 0.958302915096283
66 128 0.16464892029762268
66 129 0.5584896206855774
66 130 0.9533876776695251
66 131 0.9108248353004456
66 132 0.9695153832435608
66 133 0.9695510268211365
66 134 0.1938212662935257
66 135 0.9652671217918396
66 136 0.7455012798309326
66 137 0.9658036828041077
66 138 0.9668757319450378
66 139 0.9652671217918396
66 140 0.9593833684921265
66 141 0.9229828715324402
66 142 0.950557291507721
66 143 0.289012610912323
66 144 0.9373853206634521
66 145 0.9658784866333008
66 146 0.9544364809989929
66 147 0.9636929035186768
66 148 0.9625800251960754
66 149 0.9673068523406982
66 151 0.9323615431785583
66 152 0.9637311697006226
66 153 0.32722464203834534
66 154 0.9550543427467346
66 155 0.9582651853561401
66 156 0.9631180763244629
66 157 0.9684113264083862
66 158 0.2186340093612671
66 159 0.9641931653022766
66 160 0.9582651853561401
66 161 0.9144462943077087
66 162 0.18251104652881622
66 163 0.9636557698249817
66 164 0.9576875567436218
66 165 0.9658405184745789
66 166 0.9572213292121887
66 167 0.9679834842681885
66 168 0.958302915096283
66 169 0.9533876776695251
66 170 0.3454033434391022
66 171 0.9457507133483887
66 172 0.9646941423416138
66 173 0.9658036828041077
66 174 0.2577810287475586
66 175 0.9511743187904358
66 176 0.9674481749534607
66 177 0.9626173377037048
66 178 0.9598855376243591
66 179 0.8286111950874329
66 180 0.9545118808746338
66 181 0.31921759247779846
66 182 0.9577622413635254
66 183 0.9674113988876343
66 184 0.9566420316696167
66 185 0.9512118101119995
66 186 0.9663767218589783
66 187 0.9663767218589783
66 188 0.9626556038856506
66 189 0.958341658115387
66 190 0.9678422808647156
66 191 0.9636195302009583
66 192 0.9588820338249207
66 193 0.9653041362762451
66 194 0.9690165519714355
66 195 0.9620417952537537
66 196 0.9626556038856506
66 197 0.9352869987487793
66 198 0.12883132696151733
66 199 0.9581238627433777
66 200 0.15942062437534332
66 201 0.24789321422576904
66 202 0.9663398265838623
66 203 0.4011112153530121
66 204 0.49952828884124756
66 205 0.8907990455627441
66 206 0.5457496643066406
66 207 0.9641931653022766
66 208 0.9614312052726746
66 209 0.05578560009598732
66 210 0.24976414442062378
66 211 0.15876860916614532
66 212 0.9620053768157959
66 213 0.3143162131309509
66 214 0.40746942162513733
66 215 0.12474039196968079
66 216 0.9653420448303223
66 217 0.9667710661888123
66 218 0.9544737339019775
66 219 0.9668757319450378
66 220 0.9684817790985107
66 221 0.9610016942024231
66 222 0.9620417952537537
66 223 0.9620417952537537
66 224 0.8570548295974731
66 225 0.9631552696228027
66 226 0.9485639929771423
66 227 0.9555214047431946
66 228 0.2415587455034256
66 229 0.9379748106002808
66 230 0.3429579436779022
66 231 0.958302915096283
66 232 0.9609642624855042
66 233 0.7847710847854614
66 234 0.2415587455034256
66 235 0.9684113264083862
66 236 0.953425943851471
66 237 0.9663398265838623
66 238 0.9636557698249817
66 239 0.9599616527557373
66 240 0.5432225465774536
66 241 0.9561384320259094
66 242 0.3827657401561737
66 243 0.9646248817443848
66 244 0.9631180763244629
66 245 0.9523388147354126
66 246 0.12243212759494781
66 247 0.9647303223609924
66 248 0.9517562389373779
66 249 0.15446335077285767
66 250 0.9613967537879944
66 251 0.20878705382347107
66 252 0.9561004042625427
66 253 0.9625083804130554
66 254 0.2089465856552124
66 255 0.5255753993988037
67 68 0.9501172304153442
67 69 0.942440927028656
67 70 0.9396755695343018
67 71 0.943426251411438
67 72 0.07320558279752731
67 73 0.9460388422012329
67 74 0.9470310211181641
67 75 0.9445564150810242
67 76 0.9457571506500244
67 77 0.5703650712966919
67 78 0.9506093263626099
67 79 0.06547705829143524
67 80 0.1616532802581787
67 81 0.05856446549296379
67 83 0.942367434501648
67 84 0.9438494443893433
67 85 0.949979305267334
67 86 0.9511705636978149
67 87 0.9550221562385559
67 88 0.24731262028217316
67 89 0.10248780995607376
67 90 0.47819626331329346
67 91 0.9374008774757385
67 93 0.36958640813827515
67 94 0.17860020697116852
67 95 0.455314040184021
67 96 0.17761197686195374
67 97 0.10395880043506622
67 98 0.9491519927978516
67 99 0.9493497610092163
67 100 0.9489237666130066
67 101 0.9497690200805664
67 102 0.9443451166152954
67 103 0.1433555632829666
67 104 0.9501873850822449
67 105 0.11910389363765717
67 106 0.9501873850822449
67 107 0.9494174122810364
67 108 0.9515959024429321
67 109 0.11340959370136261
67 110 0.9501172304153442
67 111 0.907982349395752
67 112 0.9570589065551758
67 113 0.8671805262565613
67 114 0.32132717967033386
67 115 0.9355553984642029
67 116 0.4245193302631378
67 117 0.19196327030658722
67 118 0.22629740834236145
67 120 0.9456140995025635
67 121 0.951464056968689
67 122 0.947272539138794
67 123 0.9473759531974792
67 124 0.9488551616668701
67 125 0.24091199040412903
67 126 0.1433555632829666
67 127 0.9433546662330627
67 128 0.17931631207466125
67 129 0.5406590104103088
67 130 0.9403119087219238
67 131 0.8865073323249817
67 132 0.9529209136962891
67 133 0.9561392664909363
67 134 0.2020666003227234
67 135 0.948501467704773
67 136 0.7305266261100769
67 137 0.954330563545227
67 138 0.9512396454811096
67 139 0.948501467704773
67 140 0.9518969655036926
67 141 0.9139940142631531
67 142 0.9340484142303467
67 143 0.27351444959640503
67 144 0.9256693124771118
67 145 0.9534119963645935
67 146 0.9403119087219238
67 147 0.9500477910041809
67 148 0.9435719847679138
67 149 0.9515959024429321
67 151 0.91274493932724
67 152 0.9511705636978149
67 153 0.32953667640686035
67 154 0.9410187602043152
67 155 0.9464671611785889
67 156 0.9441369771957397
67 157 0.9506785273551941
67 158 0.19908687472343445
67 159 0.9494858980178833
67 160 0.9485893249511719
67 161 0.9039411544799805
67 162 0.18551833927631378
67 163 0.946812629699707
67 164 0.9415855407714844
67 165 0.9501873850822449
67 166 0.9432840347290039
67 167 0.9524306058883667
67 168 0.942294716835022
67 169 0.9403119087219238
67 170 0.3329346179962158
67 171 0.9323329925537109
67 172 0.949979305267334
67 173 0.9469571709632874
67 174 0.23026752471923828
67 175 0.9369005560874939
67 176 0.9529209136962891
67 177 0.9457571506500244
67 178 0.9449794292449951
67 179 0.8238476514816284
67 180 0.9468348026275635
67 181 0.32132717967033386
67 182 0.944909930229187
67 183 0.949696958065033
67 184 0.94477379322052
67 185 0.9369706511497498
67 186 0.9528520703315735
67 187 0.9518003463745117
67 188 0.9500477910041809
67 189 0.9476615786552429
67 190 0.9479389190673828
67 191 0.947798490524292
67 192 0.9492828845977783
67 193 0.9527841210365295
67 194 0.9545307755470276
67 195 0.9430065751075745
67 196 0.95637446641922
67 197 0.9203104376792908
67 198 0.12276948988437653
67 199 0.9387481212615967
67 200 0.1736222803592682
67 201 0.22797995805740356
67 202 0.9496257901191711
67 203 0.3743848502635956
67 204 0.48760998249053955
67 205 0.8734652400016785
67 206 0.5168758630752563
67 207 0.9484309554100037
67 208 0.9444145560264587
67 209 0.056704796850681305
67 210 0.26193925738334656
67 211 0.16736188530921936
67 212 0.9503412246704102
67 213 0.29713067412376404
67 214 0.39385542273521423
67 215 0.11834272742271423
67 216 0.9507486820220947
67 217 0.9510347843170166
67 218 0.9382513165473938
67 219 0.9480828642845154
67 220 0.9529209136962891
67 221 0.9504069089889526
67 222 0.9482924938201904
67 223 0.9504069089889526
67 224 0.8486871123313904
67 225 0.9484309554100037
67 226 0.9385389089584351
67 227 0.9371863603591919
67 228 0.2373543381690979
67 229 0.9273978471755981
67 230 0.3427988290786743
67 231 0.9454745054244995
67 232 0.9450498223304749
67 233 0.7626239061355591
67 234 0.23326203227043152
67 235 0.9485729336738586
67 236 0.9414463043212891
67 237 0.9506785273551941
67 238 0.957368016242981
67 239 0.9493497610092163
67 240 0.5353843569755554
67 241 0.9453385472297668
67 242 0.37848570942878723
67 243 0.9456140995025635
67 244 0.950473427772522
67 245 0.9360474348068237
67 246 0.14641116559505463
67 247 0.9458300471305847
67 248 0.9428789615631104
67 249 0.1433555632829666
67 250 0.9432840347290039
67 251 0.18754972517490387
67 252 0.9410187602043152
67 253 0.943426251411438
67 254 0.18342725932598114
67 255 0.5167513489723206
68 69 0.9657047986984253
68 70 0.9549681544303894
68 71 0.9604708552360535
68 72 0.07194431126117706
68 73 0.9599325060844421
68 74 0.9651081562042236
68 75 0.961546778678894
68 76 0.9647324085235596
68 77 0.5881338715553284
68 78 0.968410313129425
68 79 0.06434894353151321
68 80 0.1985851675271988
68 81 0.07194431126117706
68 82 0.05572781711816788
68 83 0.9667144417762756
68 84 0.9630236625671387
68 85 0.9647324085235596
68 86 0.9648033380508423
68 87 0.9695438146591187
68 88 0.2224540263414383
68 89 0.12230532616376877
68 90 0.46572351455688477
68 91 0.9506966471672058
68 92 0.06434894353151321
68 93 0.37867483496665955
68 94 0.2039862871170044
68 95 0.4709082543849945
68 96 0.1904202401638031
68 97 0.10216767340898514
68 98 0.957812488079071
68 99 0.9631232619285583
68 100 0.9636949896812439
68 101 0.9674786925315857
68 102 0.9593581557273865
68 103 0.15430335700511932
68 104 0.9679425954818726
68 105 0.11705183237791061
68 106 0.9658743143081665
68 107 0.963158369064331
68 108 0.9642313718795776
68 109 0.09287970513105392
68 110 0.9658384919166565
68 111 0.9301496148109436
68 112 0.9664095044136047
68 113 0.8783055543899536
68 114 0.32507896423339844
68 115 0.9511048197746277
68 116 0.43095919489860535
68 117 0.18369126319885254
68 118 0.2614157497882843
68 120 0.9625862836837769
68 121 0.9620842933654785
68 122 0.9560843706130981
68 123 0.9652681350708008
68 124 0.9615830779075623
68 125 0.240914985537529
68 126 0.15430335700511932
68 127 0.9625187516212463
68 128 0.1468556970357895
68 129 0.5685380101203918
68 130 0.9534479379653931
68 131 0.9065687656402588
68 132 0.9674786925315857
68 133 0.9695783257484436
68 134 0.19362053275108337
68 135 0.9663388133049011
68 136 0.7420502305030823
68 137 0.9658384919166565
68 138 0.9679425954818726
68 139 0.9653031229972839
68 140 0.9604708552360535
68 141 0.9252697825431824
68 142 0.9464110732078552
68 143 0.3019874691963196
68 144 0.9342789649963379
68 145 0.970043420791626
68 146 0.9534479379653931
68 147 0.9689124822616577
68 148 0.9667752385139465
68 149 0.9642313718795776
68 151 0.9313958883285522
68 152 0.9648033380508423
68 153 0.3359659016132355
68 154 0.9603350758552551
68 155 0.9604009985923767
68 156 0.9662720561027527
68 157 0.965338945388794
68 158 0.21840757131576538
68 159 0.9673417210578918
68 160 0.9583154320716858
68 161 0.9145918488502502
68 162 0.18232201039791107
68 163 0.9636949896812439
68 164 0.9566956758499146
68 165 0.9658743143081665
68 166 0.9593581557273865
68 167 0.9711089134216309
68 168 0.9583519697189331
68 169 0.9534479379653931
68 170 0.3420710861682892
68 171 0.9468823671340942
68 172 0.9626576900482178
68 173 0.9679089188575745
68 174 0.2614157497882843
68 175 0.9501891732215881
68 176 0.9695438146591187
68 177 0.9657697081565857
68 178 0.9630559086799622
68 179 0.8265463709831238
68 180 0.9587509036064148
68 181 0.306503027677536
68 182 0.959896981716156
68 183 0.9664095044136047
68 184 0.9566956758499146
68 185 0.9575765132904053
68 186 0.9705438613891602
68 187 0.9664095044136047
68 188 0.9647673964500427
68 189 0.9594302773475647
68 190 0.9658036828041077
68 191 0.9626215100288391
68 192 0.9620490670204163
68 193 0.967408299446106
68 194 0.9690449237823486
68 195 0.9641622304916382
68 196 0.9658036828041077
68 197 0.9407177567481995
68 198 0.12869788706302643
68 199 0.9539900422096252
68 200 0.17631860077381134
68 201 0.25942865014076233
68 202 0.967408299446106
68 203 0.3981756865978241
68 204 0.5029712915420532
68 205 0.8954943418502808
68 206 0.5377416610717773
68 207 0.9642313718795776
68 208 0.9593937397003174
68 210 0.24554502964019775
68 211 0.17035260796546936
68 212 0.9620490670204163
68 213 0.3108507990837097
68 214 0.38457241654396057
68 215 0.11630378663539886
68 216 0.96744304895401
68 217 0.9626576900482178
68 218 0.9566250443458557
68 219 0.9679425954818726
68 220 0.9685112237930298
68 221 0.9662402272224426
68 222 0.9620842933654785
68 223 0.9610453844070435
68 224 0.8596569299697876
68 225 0.9652681350708008
68 226 0.9517835974693298
68 227 0.9545317888259888
68 228 0.24935215711593628
68 229 0.9359372854232788
68 230 0.3340376913547516
68 231 0.9583519697189331
68 232 0.963089108467102
68 233 0.7852350473403931
68 234 0.2533739507198334
68 235 0.96637362241745
68 236 0.9566250443458557
68 237 0.967408299446106
68 238 0.9657697081565857
68 239 0.965201199054718
68 240 0.5243268609046936
68 241 0.9582797884941101
68 242 0.3823693096637726
68 243 0.9636257886886597
68 244 0.9641962647438049
68 245 0.9544957280158997
68 246 0.12230532616376877
68 247 0.9637311697006226
68 248 0.9549681544303894
68 249 0.15430335700511932
68 250 0.9572726488113403
68 251 0.1940193623304367
68 252 0.9551101922988892
68 253 0.9635926485061646
68 254 0.19449855387210846
68 255 0.5135757923126221
69 70 0.9473555684089661
69 71 0.956113338470459
69 72 0.05779526010155678
69 73 0.9566138386726379
69 74 0.9555239081382751
69 75 0.9572024941444397
69 76 0.9583353996276855
69 77 0.5836567282676697
69 78 0.962044894695282
69 80 0.20938321948051453
69 81 0.0722440779209137
69 82 0.05596001818776131
69 83 0.9571583271026611
69 84 0.9544773697853088
69 85 0.9614604115486145
69 86 0.9605072736740112
69 87 0.9663257002830505
69 88 0.23579098284244537
69 89 0.11559052020311356
69 90 0.4697897434234619
69 91 0.9483216404914856
69 92 0.06461706012487411
69 93 0.38801294565200806
69 94 0.21436350047588348
69 95 0.4728703796863556
69 96 0.1805906742811203
69 97 0.10259337723255157
69 98 0.9534308314323425
69 99 0.9598332047462463
69 100 0.959377110004425
69 101 0.9642520546913147
69 102 0.9570727944374084
69 103 0.14820949733257294
69 104 0.9626297950744629
69 105 0.12537550926208496
69 106 0.9626297950744629
69 107 0.9609183073043823
69 108 0.9599199295043945
69 109 0.10259337723255157
69 110 0.9636257886886597
69 111 0.9253466129302979
69 112 0.9631708264350891
69 113 0.8774129748344421
69 114 0.31710678339004517
69 115 0.9455276131629944
69 116 0.43275487422943115
69 117 0.18445664644241333
69 118 0.2546690106391907
69 120 0.9603340029716492
69 121 0.9587898850440979
69 122 0.9527071714401245
69 123 0.9599199295043945
69 124 0.960375964641571
69 125 0.24191880226135254
69 126 0.14820949733257294
69 127 0.9550230503082275
69 128 0.16516371071338654
69 129 0.5780210494995117
69 130 0.952160120010376
69 131 0.9036931991577148
69 132 0.9642520546913147
69 133 0.9642963409423828
69 134 0.1894419640302658
69 135 0.962044894695282
69 136 0.742452085018158
69 137 0.9625862836837769
69 138 0.9636682271957397
69 139 0.9630849361419678
69 140 0.9550684094429016
69 141 0.9193561673164368
69 142 0.9461212754249573
69 143 0.30991047620773315
69 144 0.933883011341095
69 145 0.9668236970901489
69 146 0.9490038156509399
69 147 0.9646248817443848
69 148 0.9582903981208801
69 149 0.9599199295043945
69 151 0.9277254343032837
69 152 0.9625862836837769
69 153 0.34040507674217224
69 154 0.9538431167602539
69 155 0.9570727944374084
69 156 0.9630026817321777
69 157 0.9641663432121277
69 158 0.20104114711284637
69 159 0.962002158164978
69 160 0.9549785256385803
69 161 0.9107218980789185
69 162 0.17769692838191986
69 163 0.9583353996276855
69 164 0.9533404111862183
69 165 0.961591362953186
69 166 0.9560256600379944
69 167 0.9658284783363342
69 168 0.9581611156463623
69 169 0.9542643427848816
69 170 0.3345355987548828
69 171 0.9444676041603088
69 172 0.9604187607765198
69 173 0.9625862836837769
69 174 0.2546690106391907
69 175 0.9499263763427734
69 176 0.9663257002830505
69 177 0.9614604115486145
69 178 0.9555683732032776
69 179 0.8324136137962341
69 180 0.9522468447685242
69 181 0.30778011679649353
69 182 0.9544773697853088
69 183 0.9621329307556152
69 184 0.9543891549110413
69 185 0.9499685764312744
69 186 0.9621329307556152
69 187 0.9621329307556152
69 188 0.9594219326972961
69 189 0.9571583271026611
69 190 0.9594219326972961
69 191 0.9582903981208801
69 192 0.9618800282478333
69 193 0.962088406085968
69 194 0.9668647646903992
69 195 0.9577466249465942
69 196 0.9615030884742737
69 197 0.9446374177932739
69 198 0.12115699052810669
69 199 0.9516556262969971
69 200 0.1713418811559677
69 201 0.2565625309944153
69 202 0.9652053117752075
69 203 0.3998347520828247
69 204 0.49313628673553467
69 205 0.8856863379478455
69 206 0.541850745677948
69 207 0.9640844464302063
69 208 0.9550230503082275
69 209 0.05596001818776131
69 210 0.258498877286911
69 211 0.17696112394332886
69 212 0.9587468504905701
69 213 0.31214600801467896
69 214 0.3936976492404938
69 215 0.11678838729858398
69 216 0.964208722114563
69 217 0.9625020623207092
69 218 0.9490500092506409
69 219 0.9626297950744629
69 220 0.9642520546913147
69 221 0.9598332047462463
69 222 0.9608765244483948
69 223 0.9567033052444458
69 224 0.8538938164710999
69 225 0.9588788151741028
69 226 0.9473100900650024
69 227 0.9543049931526184
69 228 0.2382754236459732
69 229 0.9312736392021179
69 230 0.35549792647361755
69 231 0.9571150541305542
69 232 0.956658124923706
69 233 0.7641465067863464
69 234 0.24635256826877594
69 235 0.9641663432121277
69 236 0.9501010179519653
69 237 0.9652053117752075
69 238 0.9604187607765198
69 239 0.9587898850440979
69 240 0.5412391424179077
69 241 0.9559832811355591
69 242 0.37612655758857727
69 243 0.9592901468276978
69 244 0.9577916860580444
69 245 0.9511079788208008
69 246 0.13003933429718018
69 247 0.9646248817443848
69 248 0.9473555684089661
69 249 0.14820949733257294
69 250 0.9549785256385803
69 251 0.19482778012752533
69 252 0.9538431167602539
69 253 0.9602930545806885
69 254 0.20483623445034027
69 255 0.5233843326568604
70 71 0.9483460187911987
70 72 0.07293249666690826
70 73 0.949897825717926
70 74 0.9434981942176819
70 75 0.950516939163208
70 76 0.959054708480835
70 77 0.5629921555519104
70 78 0.9544128775596619
70 79 0.06523280590772629
70 80 0.19124716520309448
70 81 0.07293249666690826
70 82 0.05649326741695404
70 83 0.9462361931800842
70 84 0.9456112384796143
70 85 0.9558998942375183
70 86 0.9518199563026428
70 87 0.9566930532455444
70 88 0.22550952434539795
70 89 0.12398524582386017
70 90 0.4678283929824829
70 91 0.9371023178100586
70 93 0.38387608528137207
70 94 0.1923610419034958
70 95 0.4665759801864624
70 96 0.19303573668003082
70 97 0.094155453145504
70 98 0.9477243423461914
70 99 0.9563406705856323
70 100 0.9516935348510742
70 101 0.9566930532455444
70 102 0.9439936280250549
70 103 0.142820805311203
70 104 0.9539811611175537
70 105 0.12657023966312408
70 106 0.9539811611175537
70 107 0.9542928338050842
70 108 0.9543524384498596
70 109 0.11298653483390808
70 110 0.9539187550544739
70 111 0.9188323020935059
70 112 0.9555843472480774
70 113 0.8673921227455139
70 114 0.32640552520751953
70 115 0.9363458156585693
70 116 0.44152629375457764
70 117 0.19627998769283295
70 118 0.24918514490127563
70 120 0.9473555684089661
70 121 0.9489679336547852
70 122 0.9458619952201843
70 123 0.9533013701438904
70 124 0.9505789875984192
70 125 0.22738100588321686
70 126 0.13601981103420258
70 127 0.9482836127281189
70 128 0.17269249260425568
70 129 0.5314602255821228
70 130 0.9399906396865845
70 131 0.8932749032974243
70 132 0.9545996785163879
70 133 0.9546637535095215
70 134 0.19124716520309448
70 135 0.9523130059242249
70 136 0.7468112111091614
70 137 0.9570670127868652
70 138 0.9539811611175537
70 139 0.9523130059242249
70 140 0.9494009017944336
70 141 0.9116801619529724
70 142 0.9380427002906799
70 143 0.30277127027511597
70 144 0.9287106990814209
70 145 0.955091655254364
70 146 0.9399906396865845
70 147 0.9538572430610657
70 148 0.949526309967041
70 149 0.9511992335319519
70 151 0.9267645478248596
70 152 0.9528693556785583
70 153 0.33444395661354065
70 154 0.9470424056053162
70 155 0.946107804775238
70 156 0.9490321278572083
70 157 0.9544742703437805
70 158 0.202956885099411
70 159 0.9533013701438904
70 160 0.9439936280250549
70 161 0.9027845859527588
70 162 0.1685180813074112
70 163 0.9516935348510742
70 164 0.941249430179596
70 165 0.958174467086792
70 166 0.9439936280250549
70 167 0.9562008380889893
70 168 0.9440596103668213
70 169 0.9442391395568848
70 170 0.31963106989860535
70 171 0.9342055320739746
70 172 0.9485387802124023
70 173 0.9528693556785583
70 174 0.22940854728221893
70 175 0.9366021752357483
70 176 0.9556463956832886
70 177 0.950641930103302
70 178 0.946731448173523
70 179 0.8122119307518005
70 180 0.9454224705696106
70 181 0.30443593859672546
70 182 0.9498374462127686
70 183 0.9545365571975708
70 184 0.9486607909202576
70 185 0.9441193342208862
70 186 0.9545365571975708
70 187 0.9555843472480774
70 188 0.9507057666778564
70 189 0.9472911357879639
70 190 0.9496552348136902
70 191 0.9484735727310181
70 192 0.9467960596084595
70 193 0.9523765444755554
70 194 0.9562008380889893
70 195 0.9468615055084229
70 196 0.9559582471847534
70 197 0.9212022423744202
70 198 0.12231151759624481
70 199 0.9405540823936462
70 200 0.18450623750686646
70 201 0.2590073347091675
70 202 0.9523765444755554
70 203 0.3985353708267212
70 204 0.48579102754592896
70 205 0.8941261172294617
70 206 0.5300377607345581
70 207 0.9543524384498596
70 208 0.9472275376319885
70 209 0.05649326741695404
70 210 0.2609621286392212
70 211 0.16078266501426697
70 212 0.951013445854187
70 213 0.32148656249046326
70 214 0.39491772651672363
70 215 0.12632279098033905
70 216 0.9534887075424194
70 217 0.9516935348510742
70 218 0.9464223384857178
70 219 0.9560778141021729
70 220 0.9566930532455444
70 221 0.9500212669372559
70 222 0.951074481010437
70 223 0.9489679336547852
70 224 0.8525967597961426
70 225 0.9501482248306274
70 226 0.9414276480674744
70 227 0.9432393908500671
70 228 0.25685417652130127
70 229 0.9271802306175232
70 230 0.3502027988433838
70 231 0.9503955841064453
70 232 0.9467960596084595
70 233 0.7727224230766296
70 234 0.23646892607212067
70 235 0.9523765444755554
70 236 0.9432393908500671
70 237 0.953425407409668
70 238 0.9495903253555298
70 239 0.947914719581604
70 240 0.5389626622200012
70 241 0.9418120980262756
70 242 0.3928951025009155
70 243 0.9494631290435791
70 244 0.9500842690467834
70 245 0.9484876990318298
70 246 0.14586499333381653
70 247 0.9507057666778564
70 248 0.936170220375061
70 249 0.14962178468704224
70 250 0.9471648931503296
70 251 0.19176718592643738
70 252 0.9449236989021301
70 253 0.9483460187911987
70 254 0.20197910070419312
70 255 0.5032112002372742
71 72 0.05785568431019783
71 73 0.9576139450073242
71 74 0.9544275999069214
71 75 0.9571583271026611
71 76 0.9572518467903137
71 77 0.5825332403182983
71 78 0.9599272608757019
71 79 0.06468462198972702
71 80 0.1996210813522339
71 81 0.05785568431019783
71 82 0.05601852759718895
71 83 0.9560669660568237
71 84 0.9533798694610596
71 85 0.9593372941017151
71 86 0.9635926485061646
71 87 0.9642221927642822
71 88 0.2360374927520752
71 89 0.14463920891284943
71 90 0.45751306414604187
71 91 0.9493131041526794
71 93 0.3858291208744049
71 94 0.20505037903785706
71 95 0.4519455134868622
71 96 0.18077947199344635
71 97 0.1120370551943779
71 98 0.9544275999069214
71 99 0.9577035307884216
71 100 0.9582945704460144
71 101 0.9631842970848083
71 102 0.9538805484771729
71 103 0.1281329244375229
71 104 0.9625967144966125
71 105 0.13335075974464417
71 106 0.9615572094917297
71 107 0.958793044090271
71 108 0.9609235525131226
71 109 0.1120370551943779
71 110 0.9625520706176758
71 111 0.9219703078269958
71 112 0.9631388187408447
71 113 0.878330409526825
71 114 0.32366257905960083
71 115 0.9443939924240112
71 116 0.4193815588951111
71 117 0.20960213243961334
71 118 0.25101321935653687
71 120 0.9592481255531311
71 121 0.9608367085456848
71 122 0.9494926333427429
71 123 0.9609235525131226
71 124 0.9592922329902649
71 125 0.24217170476913452
71 126 0.1551082730293274
71 127 0.9560214877128601
71 128 0.17124126851558685
71 129 0.560821533203125
71 130 0.9489427208900452
71 131 0.8990880250930786
71 132 0.9621464014053345
71 133 0.9642676711082458
71 134 0.1846494823694229
71 135 0.9599272608757019
71 136 0.7378426194190979
71 137 0.9635926485061646
71 138 0.9625967144966125
71 139 0.9609683752059937
71 140 0.9571129679679871
71 141 0.9203173518180847
71 142 0.9418134093284607
71 143 0.28354763984680176
71 144 0.9316393733024597
71 145 0.9636806845664978
71 146 0.9521023631095886
71 147 0.9614666700363159
71 148 0.9572045803070068
71 149 0.9598813652992249
71 151 0.9286953806877136
71 152 0.9604708552360535
71 153 0.33163347840309143
71 154 0.9527395367622375
71 155 0.9517841339111328
71 156 0.958793044090271
71 157 0.9651743769645691
71 158 0.21954688429832458
71 159 0.9630079865455627
71 160 0.9538805484771729
71 161 0.9105756878852844
71 162 0.17249232530593872
71 163 0.9593372941017151
71 164 0.958536684513092
71 165 0.9636362195014954
71 166 0.9570252299308777
71 167 0.9637261033058167
71 168 0.9570686221122742
71 169 0.9510491490364075
71 170 0.34385550022125244
71 171 0.9422718286514282
71 172 0.9593372941017151
71 173 0.9635926485061646
71 174 0.25101321935653687
71 175 0.9456366896629333
71 176 0.9652601480484009
71 177 0.9572518467903137
71 178 0.9597071409225464
71 179 0.8223675489425659
71 180 0.9521914124488831
71 181 0.3143261671066284
71 182 0.9554752707481384
71 183 0.9620998501777649
71 184 0.9511874914169312
71 185 0.946739912033081
71 186 0.9631388187408447
71 187 0.9610608816146851
71 188 0.9593833684921265
71 189 0.9571129679679871
71 190 0.9656333923339844
71 191 0.9603360891342163
71 192 0.9566128253936768
71 193 0.9599741101264954
71 194 0.9658008813858032
71 195 0.956659197807312
71 196 0.9604250192642212
71 197 0.933831512928009
71 198 0.12128367274999619
71 199 0.9494926333427429
71 200 0.17152102291584015
71 201 0.26078200340270996
71 202 0.9599741101264954
71 203 0.40785253047943115
71 204 0.5055950284004211
71 205 0.885482907295227
71 206 0.5405467748641968
71 207 0.9588391184806824
71 208 0.9591628909111023
71 209 0.05601852759718895
71 210 0.250806987285614
71 211 0.16533638536930084
71 212 0.9555673599243164
71 213 0.3187849223613739
71 214 0.3840682804584503
71 215 0.11691047996282578
71 216 0.9610608816146851
71 217 0.9572518467903137
71 218 0.9510942697525024
71 219 0.9625967144966125
71 220 0.9621464014053345
71 221 0.9629254937171936
71 222 0.956659197807312
71 223 0.956659197807312
71 224 0.8547866344451904
71 225 0.9588391184806824
71 226 0.9472444653511047
71 227 0.9521463513374329
71 228 0.23448176681995392
71 229 0.9343903660774231
71 230 0.34725984930992126
71 231 0.954974353313446
71 232 0.9566128253936768
71 233 0.7841973900794983
71 234 0.2466101348400116
71 235 0.9610141515731812
71 236 0.950042188167572
71 237 0.9651743769645691
71 238 0.9572518467903137
71 239 0.9556147456169128
71 240 0.5510193705558777
71 241 0.9538347721099854
71 242 0.3817492723464966
71 243 0.9582032561302185
71 244 0.9598363637924194
71 245 0.9489427208900452
71 246 0.13740724325180054
71 247 0.9604250192642212
71 248 0.9483460187911987
71 249 0.1551082730293274
71 250 0.9528323411941528
71 251 0.20965883135795593
71 252 0.9516890645027161
71 253 0.9550209641456604
71 254 0.17643870413303375
71 255 0.5200932621955872
72 73 0.05788596719503403
72 74 0.07243335247039795
72 75 0.05779526010155678
72 76 0.07209372520446777
72 78 0.07198157161474228
72 80 0.0690065547823906
72 83 0.07231960445642471
72 85 0.07209372520446777
72 86 0.05755544826388359
72 87 0.057407066226005554
72 98 0.07243335247039795
72 100 0.05767497792840004
72 101 0.07175883650779724
72 102 0.07247138023376465
72 103 0.09325047582387924
72 104 0.07186995446681976
72 106 0.05749595910310745
72 107 0.07213123142719269
72 108 0.07205627858638763
72 110 0.07194431126117706
72 111 0.06006385013461113
72 112 0.07183285802602768
72 120 0.0722440779209137
72 121 0.07220640033483505
72 122 0.07277781516313553
72 123 0.07205627858638763
72 124 0.05773502215743065
72 127 0.07239537686109543
72 130 0.0728163942694664
72 131 0.07674165815114975
72 132 0.07175883650779724
72 133 0.057348039001226425
72 136 0.07447098195552826
72 137 0.05755544826388359
72 138 0.07186995446681976
72 139 0.07198157161474228
72 140 0.07231960445642471
72 141 0.07512217015028
72 142 0.0732448473572731
72 143 0.13837967813014984
72 144 0.05936521664261818
72 145 0.07179581373929977
72 146 0.0728163942694664
72 147 0.07201889902353287
72 148 0.05773502215743065
72 149 0.07205627858638763
72 151 0.07466013729572296
72 152 0.07194431126117706
72 154 0.07262410968542099
72 155 0.07247138023376465
72 156 0.07213123142719269
72 157 0.07190710306167603
72 159 0.05764502286911011
72 160 0.07247138023376465
72 161 0.06075267866253853
72 163 0.05767497792840004
72 164 0.07258584350347519
72 165 0.07186995446681976
72 166 0.0579771026968956
72 167 0.07172191143035889
72 168 0.057916298508644104
72 169 0.05825311318039894
72 171 0.07336301356554031
72 172 0.05767497792840004
72 173 0.07194431126117706
72 174 0.05423261597752571
72 175 0.0730491578578949
72 176 0.07175883650779724
72 177 0.05767497792840004
72 178 0.07235746085643768
72 179 0.050315458327531815
72 180 0.07266244292259216
72 182 0.05794667825102806
72 183 0.07183285802602768
72 184 0.07258584350347519
72 185 0.05837705358862877
72 186 0.07183285802602768
72 187 0.07183285802602768
72 188 0.07201889902353287
72 189 0.07231960445642471
72 190 0.057615119963884354
72 191 0.05773502215743065
72 192 0.05782545357942581
72 193 0.07190710306167603
72 194 0.07172191143035889
72 195 0.07220640033483505
72 196 0.07201889902353287
72 197 0.05929994583129883
72 199 0.05822225287556648
72 202 0.07190710306167603
72 204 0.05504818633198738
72 205 0.07808688282966614
72 206 0.07758908718824387
72 207 0.07205627858638763
72 208 0.07239537686109543
72 210 0.11009637266397476
72 212 0.07228181511163712
72 214 0.06942101567983627
72 216 0.07183285802602768
72 217 0.07209372520446777
72 218 0.07273929566144943
72 219 0.07186995446681976
72 220 0.07175883650779724
72 221 0.07220640033483505
72 222 0.05776512250304222
72 224 0.06467616558074951
72 226 0.07301021367311478
72 227 0.058191437274217606
72 229 0.05926739051938057
72 231 0.07239537686109543
72 232 0.05782545357942581
72 233 0.07098852097988129
72 235 0.07190710306167603
72 236 0.07273929566144943
72 237 0.07190710306167603
72 238 0.07209372520446777
72 239 0.05776512250304222
72 240 0.05096471682190895
72 241 0.07254762947559357
72 242 0.10846521705389023
72 243 0.0722440779209137
72 244 0.07213123142719269
72 245 0.0728163942694664
72 247 0.057615119963884354
72 248 0.07293249666690826
72 250 0.07247138023376465
72 251 0.06741998344659805
72 252 0.05809928849339485
72 253 0.07231960445642471
73 74 0.9549272060394287
73 75 0.9587048292160034
73 76 0.9598394632339478
73 77 0.5741649866104126
73 78 0.9583463072776794
73 79 0.06471847742795944
73 80 0.19972556829452515
73 81 0.05788596719503403
73 82 0.056047845631837845
73 83 0.9555208086967468
73 84 0.9528307318687439
73 85 0.9598394632339478
73 86 0.9599325060844421
73 87 0.9668039083480835
73 88 0.24030421674251556
73 89 0.14471492171287537
73 90 0.4790433645248413
73 91 0.9466368556022644
73 92 0.06471847742795944
73 93 0.39121270179748535
73 94 0.20515771210193634
73 95 0.46504032611846924
73 96 0.19683358073234558
73 97 0.1027543917298317
73 98 0.9517825245857239
73 99 0.9561149477958679
73 100 0.9567095637321472
73 101 0.9626500606536865
73 102 0.9533310532569885
73 103 0.15518946945667267
73 104 0.9610204100608826
73 105 0.13342057168483734
73 106 0.9599803686141968
73 107 0.9624264240264893
73 108 0.9635120034217834
73 109 0.1027543917298317
73 110 0.9588913321495056
73 111 0.9257124662399292
73 112 0.9615639448165894
73 113 0.8799299001693726
73 114 0.33317333459854126
73 115 0.9417032599449158
73 116 0.43573957681655884
73 117 0.1947324126958847
73 118 0.25506874918937683
73 120 0.9587048292160034
73 121 0.9602946639060974
73 122 0.948936402797699
73 123 0.9593409299850464
73 124 0.9577056169509888
73 125 0.22976580262184143
73 126 0.14169472455978394
73 127 0.9533788561820984
73 128 0.17133089900016785
73 129 0.552208423614502
73 130 0.9504931569099426
73 131 0.8962270021438599
73 132 0.9626500606536865
73 133 0.9637349247932434
73 134 0.19972556829452515
73 135 0.9604296684265137
73 136 0.7422701120376587
73 137 0.9599325060844421
73 138 0.9599803686141968
73 139 0.9614713191986084
73 140 0.9576139450073242
73 141 0.9153634309768677
73 142 0.942306399345398
73 143 0.2803584933280945
73 144 0.9299792647361755
73 145 0.9662631154060364
73 146 0.9494393467903137
73 147 0.9598855376243591
73 148 0.9597944021224976
73 149 0.957255482673645
73 151 0.9291814565658569
73 152 0.9609736204147339
73 153 0.3287629187107086
73 154 0.9532381892204285
73 155 0.9543797969818115
73 156 0.9561633467674255
73 157 0.9625577926635742
73 158 0.21966180205345154
73 159 0.9614264965057373
73 160 0.9533310532569885
73 161 0.9176461696624756
73 162 0.17797580361366272
73 163 0.9587961435317993
73 164 0.9537862539291382
73 165 0.9620605111122131
73 166 0.9533310532569885
73 167 0.9652685523033142
73 168 0.9565218687057495
73 169 0.9483855962753296
73 170 0.3410438597202301
73 171 0.939579963684082
73 172 0.9587961435317993
73 173 0.9599325060844421
73 174 0.25506874918937683
73 175 0.9440173506736755
73 176 0.9626500606536865
73 177 0.9567095637321472
73 178 0.9528795480728149
73 179 0.8264387249946594
73 180 0.9495352506637573
73 181 0.3176044821739197
73 182 0.9538789391517639
73 183 0.9626034498214722
73 184 0.9527358412742615
73 185 0.9451234936714172
73 186 0.9605243802070618
73 187 0.9615639448165894
73 188 0.9578010439872742
73 189 0.9544742703437805
73 190 0.9588432908058167
73 191 0.9577056169509888
73 192 0.9560675024986267
73 193 0.9604765772819519
73 194 0.962154746055603
73 195 0.9561149477958679
73 196 0.9588432908058167
73 197 0.9321748614311218
73 198 0.12134714424610138
73 199 0.95420241355896
73 200 0.18305151164531708
73 201 0.2530118525028229
73 202 0.9625577926635742
73 203 0.40046226978302
73 204 0.5058596730232239
73 205 0.883686363697052
73 206 0.5277299880981445
73 207 0.9603837728500366
73 208 0.9575695395469666
73 209 0.056047845631837845
73 210 0.23898883163928986
73 211 0.1654229313135147
73 212 0.9560675024986267
73 213 0.3252676725387573
73 214 0.4068733751773834
73 215 0.12532679736614227
73 216 0.9636430144309998
73 217 0.9587961435317993
73 218 0.9494868516921997
73 219 0.9610204100608826
73 220 0.9626500606536865
73 221 0.9550700187683105
73 222 0.9561149477958679
73 223 0.9561149477958679
73 224 0.8493842482566833
73 225 0.9624692797660828
73 226 0.9445706009864807
73 227 0.9484341740608215
73 228 0.2548289895057678
73 229 0.9359515309333801
73 230 0.33882737159729004
73 231 0.9586172103881836
73 232 0.9581595659255981
73 233 0.7833237648010254
73 234 0.25078409910202026
73 235 0.9604765772819519
73 236 0.9484341740608215
73 237 0.9594359993934631
73 238 0.9577528834342957
73 239 0.9561149477958679
73 240 0.5439324378967285
73 241 0.9543339610099792
73 242 0.3819490671157837
73 243 0.9587048292160034
73 244 0.9582510590553284
73 245 0.9462780952453613
73 246 0.14471492171287537
73 247 0.9598855376243591
73 248 0.9456760287284851
73 249 0.15518946945667267
73 250 0.9533310532569885
73 251 0.20489025115966797
73 252 0.952187180519104
73 253 0.9534277319908142
73 254 0.21469992399215698
73 255 0.5030839443206787
74 75 0.9597102403640747
74 76 0.9566685557365417
74 77 0.5730307102203369
74 78 0.9603942036628723
74 80 0.1849398910999298
74 81 0.07243335247039795
74 82 0.056106630712747574
74 83 0.9575705528259277
74 84 0.9527806639671326
74 85 0.9556241035461426
74 86 0.957812488079071
74 87 0.9626200795173645
74 88 0.23226118087768555
74 89 0.1376233696937561
74 90 0.4582326114177704
74 91 0.945512056350708
74 92 0.06478635221719742
74 93 0.373468279838562
74 94 0.20059676468372345
74 95 0.463382750749588
74 96 0.18106380105018616
74 97 0.09351105988025665
74 98 0.9548792839050293
74 99 0.9550256133079529
74 100 0.9556241035461426
74 101 0.9615805149078369
74 102 0.9564306139945984
74 103 0.14859777688980103
74 104 0.9630694389343262
74 105 0.13356049358844757
74 106 0.9599459767341614
74 107 0.9561212062835693
74 108 0.9582594037055969
74 109 0.1028621643781662
74 110 0.9588547348976135
74 111 0.9136313796043396
74 112 0.9604911208152771
74 113 0.8762887120246887
74 114 0.3272886872291565
74 115 0.943753719329834
74 116 0.40157777070999146
74 117 0.20493340492248535
74 118 0.26319271326065063
74 120 0.9576170444488525
74 121 0.9560716152191162
74 122 0.953094482421875
74 123 0.9572155475616455
74 124 0.9555734992027283
74 125 0.2383706420660019
74 126 0.14859777688980103
74 127 0.9533299803733826
74 128 0.1596822589635849
74 129 0.5670530796051025
74 130 0.9483254551887512
74 131 0.8949434161186218
74 132 0.9626200795173645
74 133 0.9657841920852661
74 134 0.1899382770061493
74 135 0.9583086371421814
74 136 0.7443972229957581
74 137 0.959896981716156
74 138 0.9609870910644531
74 139 0.9614369869232178
74 140 0.9544275999069214
74 141 0.9250295758247375
74 142 0.9411724209785461
74 143 0.30404019355773926
74 144 0.9298796653747559
74 145 0.9620760679244995
74 146 0.9483254551887512
74 147 0.956718921661377
74 148 0.9597554802894592
74 149 0.9572155475616455
74 151 0.9204217791557312
74 152 0.959896981716156
74 153 0.31387126445770264
74 154 0.9531857967376709
74 155 0.9574804306030273
74 156 0.9582111239433289
74 157 0.9583587646484375
74 158 0.2244732677936554
74 159 0.960347056388855
74 160 0.9522311091423035
74 161 0.9087073802947998
74 162 0.17816245555877686
74 163 0.9556241035461426
74 164 0.9505804181098938
74 165 0.9620282649993896
74 166 0.9574804306030273
74 167 0.9662808179855347
74 168 0.9533299803733826
74 169 0.9472705721855164
74 170 0.3473910391330719
74 171 0.941628098487854
74 172 0.9577129483222961
74 173 0.9609392285346985
74 174 0.2514079809188843
74 175 0.9428908824920654
74 176 0.9646991491317749
74 177 0.9577129483222961
74 178 0.9601682424545288
74 179 0.8200163245201111
74 180 0.9484257102012634
74 181 0.31793758273124695
74 182 0.9527806639671326
74 183 0.9594504833221436
74 184 0.9516319632530212
74 185 0.9492860436439514
74 186 0.9615316987037659
74 187 0.9604911208152771
74 188 0.9608922004699707
74 189 0.9554752707481384
74 190 0.9598488211631775
74 191 0.9576645493507385
74 192 0.9539288282394409
74 193 0.9594005346298218
74 194 0.9610857963562012
74 195 0.9539795517921448
74 196 0.956718921661377
74 197 0.9320786595344543
74 198 0.12147441506385803
74 199 0.9467686414718628
74 200 0.1775171309709549
74 201 0.2453622967004776
74 202 0.961483895778656
74 203 0.3653610348701477
74 204 0.4964219331741333
74 205 0.8766945600509644
74 206 0.5320302248001099
74 207 0.9561716914176941
74 208 0.9543787240982056
74 210 0.259176105260849
74 211 0.14193978905677795
74 212 0.9549759030342102
74 213 0.3066413104534149
74 214 0.3771297335624695
74 215 0.11709434539079666
74 216 0.9615316987037659
74 217 0.9556241035461426
74 218 0.9483751058578491
74 219 0.9609870910644531
74 220 0.9678177833557129
74 221 0.9571176171302795
74 222 0.9550256133079529
74 223 0.9571176171302795
74 224 0.8619868755340576
74 225 0.9582594037055969
74 226 0.9487341642379761
74 227 0.947321355342865
74 228 0.21865393221378326
74 229 0.9315669536590576
74 230 0.32481056451797485
74 231 0.9522812366485596
74 232 0.9549759030342102
74 233 0.7738614082336426
74 234 0.2550962567329407
74 235 0.9604421854019165
74 236 0.9504826068878174
74 237 0.9583587646484375
74 238 0.9566685557365417
74 239 0.9550256133079529
74 240 0.5278909206390381
74 241 0.9511309862136841
74 242 0.38496845960617065
74 243 0.9544773697853088
74 244 0.9561212062835693
74 245 0.9493802785873413
74 246 0.1376233696937561
74 247 0.9608922004699707
74 248 0.9551202058792114
74 249 0.15535221993923187
74 250 0.9532809853553772
74 251 0.2099885791540146
74 252 0.9500295519828796
74 253 0.9544275999069214
74 254 0.20059676468372345
74 255 0.5170668363571167
75 76 0.9583353996276855
75 77 0.5611417889595032
75 78 0.962044894695282
75 80 0.1894419640302658
75 81 0.05779526010155678
75 82 0.05596001818776131
75 83 0.9592481255531311
75 84 0.9555239081382751
75 85 0.9625020623207092
75 86 0.9625862836837769
75 87 0.9673624634742737
75 88 0.23992766439914703
75 89 0.1444881558418274
75 90 0.46553823351860046
75 91 0.9525457620620728
75 92 0.06461706012487411
75 93 0.38801294565200806
75 94 0.19530896842479706
75 95 0.4578925669193268
75 96 0.1805906742811203
75 97 0.11192003637552261
75 98 0.9555239081382751
75 99 0.9598332047462463
75 100 0.9625020623207092
75 101 0.9673624634742737
75 102 0.9570727944374084
75 103 0.14820949733257294
75 104 0.961591362953186
75 105 0.13321149349212646
75 106 0.9626297950744629
75 107 0.9598761200904846
75 108 0.962002158164978
75 109 0.10259337723255157
75 110 0.9625862836837769
75 111 0.9231769442558289
75 112 0.9652466773986816
75 113 0.8751369714736938
75 114 0.31710678339004517
75 115 0.9476476907730103
75 116 0.4166416525840759
75 117 0.1944272667169571
75 118 0.2625049948692322
75 120 0.9582463502883911
75 121 0.9598332047462463
75 122 0.9579650163650513
75 123 0.962002158164978
75 124 0.9582903981208801
75 125 0.23357677459716797
75 126 0.15494629740715027
75 127 0.9550230503082275
75 128 0.1533662974834442
75 129 0.5584572553634644
75 130 0.9490038156509399
75 131 0.9036931991577148
75 132 0.9663257002830505
75 133 0.9653320908546448
75 134 0.19941259920597076
75 135 0.962044894695282
75 136 0.7559022903442383
75 137 0.9657047986984253
75 138 0.9626297950744629
75 139 0.9630849361419678
75 140 0.956113338470459
75 141 0.9193561673164368
75 142 0.9440045952796936
75 143 0.27658677101135254
75 144 0.9306663870811462
75 145 0.9647489786148071
75 146 0.952160120010376
75 147 0.9604625105857849
75 148 0.960375964641571
75 149 0.965125560760498
75 151 0.9288042187690735
75 152 0.9605072736740112
75 153 0.3069724440574646
75 154 0.9548923969268799
75 155 0.953931450843811
75 156 0.9609183073043823
75 157 0.9631273746490479
75 158 0.21474848687648773
75 159 0.9630433320999146
75 160 0.953931450843811
75 161 0.914013683795929
75 162 0.1723121702671051
75 163 0.9645854234695435
75 164 0.9543891549110413
75 165 0.961591362953186
75 166 0.9591670632362366
75 167 0.9658284783363342
75 168 0.9592071175575256
75 169 0.9511079788208008
75 170 0.3345355987548828
75 171 0.9423476457595825
75 172 0.9614604115486145
75 173 0.9646652936935425
75 174 0.2546690106391907
75 175 0.9499263763427734
75 176 0.9642520546913147
75 177 0.9625020623207092
75 178 0.9555683732032776
75 179 0.8275669813156128
75 180 0.9501470327377319
75 181 0.3233245611190796
75 182 0.9597102403640747
75 183 0.9652466773986816
75 184 0.9533404111862183
75 185 0.9531316161155701
75 186 0.9662845730781555
75 187 0.9621329307556152
75 188 0.9615030884742737
75 189 0.9582032561302185
75 190 0.9615030884742737
75 191 0.960375964641571
75 192 0.9556136727333069
75 193 0.9641663432121277
75 194 0.9668647646903992
75 195 0.9577466249465942
75 196 0.9615030884742737
75 197 0.9307141900062561
75 198 0.12115699052810669
75 199 0.9548103213310242
75 200 0.1770532727241516
75 201 0.25261539220809937
75 202 0.962088406085968
75 203 0.3821205496788025
75 204 0.5070555210113525
75 205 0.887942910194397
75 206 0.5343769192695618
75 207 0.9599199295043945
75 208 0.9571150541305542
75 209 0.05596001818776131
75 210 0.2545219659805298
75 211 0.1533662974834442
75 212 0.9587468504905701
75 213 0.31214600801467896
75 214 0.3987129330635071
75 215 0.11678838729858398
75 216 0.9631708264350891
75 217 0.9614604115486145
75 218 0.9532540440559387
75 219 0.961591362953186
75 220 0.9642520546913147
75 221 0.9598332047462463
75 222 0.9567033052444458
75 223 0.9587898850440979
75 224 0.8609026074409485
75 225 0.9630433320999146
75 226 0.9504747986793518
75 227 0.9522029757499695
75 228 0.24635256826877594
75 229 0.9376962184906006
75 230 0.33829641342163086
75 231 0.9581611156463623
75 232 0.9587468504905701
75 233 0.7859426736831665
75 234 0.23423685133457184
75 235 0.962088406085968
75 236 0.951151967048645
75 237 0.9652053117752075
75 238 0.9604187607765198
75 239 0.9587898850440979
75 240 0.5357162952423096
75 241 0.9528385400772095
75 242 0.3996344804763794
75 243 0.9592901468276978
75 244 0.9598761200904846
75 245 0.9511079788208008
75 246 0.10114170610904694
75 247 0.9604625105857849
75 248 0.9515706896781921
75 249 0.15494629740715027
75 250 0.962308406829834
75 251 0.19969847798347473
75 252 0.9559417963027954
75 253 0.9582032561302185
75 254 0.20007261633872986
75 255 0.5022956132888794
76 77 0.5703439116477966
76 78 0.9652321338653564
76 79 0.06448258459568024
76 80 0.20397250354290009
76 81 0.07209372520446777
76 83 0.9593372941017151
76 84 0.9598016738891602
76 85 0.9615384936332703
76 86 0.9647324085235596
76 87 0.9663839340209961
76 88 0.23530025780200958
76 89 0.1225593313574791
76 90 0.4688120484352112
76 91 0.9474018216133118
76 92 0.06448258459568024
76 93 0.38720542192459106
76 94 0.20440992712974548
76 95 0.4740214943885803
76 96 0.19081571698188782
76 97 0.11168711632490158
76 98 0.9598016738891602
76 99 0.9620001316070557
76 100 0.9615384936332703
76 101 0.9694879651069641
76 102 0.9582157731056213
76 103 0.13445548713207245
76 104 0.9668440222740173
76 105 0.12511460483074188
76 106 0.9658077955245972
76 107 0.9620386362075806
76 108 0.9631170034408569
76 109 0.09307260066270828
76 110 0.9657697081565857
76 111 0.925585925579071
76 112 0.9673807621002197
76 113 0.884672224521637
76 114 0.32885652780532837
76 115 0.9467332363128662
76 116 0.44104260206222534
76 117 0.19899757206439972
76 118 0.24240954220294952
76 120 0.959377110004425
76 121 0.9609590172767639
76 122 0.9549218416213989
76 123 0.9620780944824219
76 124 0.9614989161491394
76 125 0.23725299537181854
76 126 0.15462380647659302
76 127 0.9613862633705139
76 128 0.17659282684326172
76 129 0.5590698719024658
76 130 0.9533282518386841
76 131 0.905131995677948
76 132 0.9684532880783081
76 133 0.9684910774230957
76 134 0.20397250354290009
76 135 0.9631562829017639
76 136 0.744933545589447
76 137 0.9636949896812439
76 138 0.9668440222740173
76 139 0.9621184468269348
76 140 0.9603801369667053
76 141 0.9271913170814514
76 142 0.9483766555786133
76 143 0.30926549434661865
76 144 0.931939423084259
76 145 0.9679172039031982
76 146 0.9522783756256104
76 147 0.9657326340675354
76 148 0.962539553642273
76 149 0.9631170034408569
76 151 0.933330237865448
76 152 0.9636949896812439
76 153 0.324531614780426
76 154 0.9581408500671387
76 155 0.9561258554458618
76 156 0.96099853515625
76 157 0.9652701616287231
76 158 0.2188611477613449
76 159 0.9662339091300964
76 160 0.957170844078064
76 161 0.9110164642333984
76 162 0.18270066380500793
76 163 0.9604989290237427
76 164 0.9544962048530579
76 165 0.9689165949821472
76 166 0.957170844078064
76 167 0.9669209122657776
76 168 0.9572108387947083
76 169 0.9543781876564026
76 170 0.3278779685497284
76 171 0.9446176886558533
76 172 0.9615384936332703
76 173 0.9636949896812439
76 174 0.24631935358047485
76 175 0.9490026831626892
76 176 0.9663839340209961
76 177 0.9615384936332703
76 178 0.9577528834342957
76 179 0.8306812047958374
76 180 0.9586466550827026
76 181 0.3102419674396515
76 182 0.9577129483222961
76 183 0.9653093218803406
76 184 0.9565893411636353
76 185 0.9500958323478699
76 186 0.9642735719680786
76 187 0.9653093218803406
76 188 0.9646941423416138
76 189 0.9603801369667053
76 190 0.9615789651870728
76 191 0.9594177603721619
76 192 0.9598782062530518
76 193 0.9652701616287231
76 194 0.9658867120742798
76 195 0.9609590172767639
76 196 0.9626173377037048
76 197 0.9362587332725525
76 198 0.12896516919136047
76 199 0.9517738223075867
76 200 0.18238429725170135
76 201 0.25602856278419495
76 202 0.9642333984375
76 203 0.38637596368789673
76 204 0.492110013961792
76 205 0.8939763307571411
76 206 0.5388584733009338
76 207 0.9641559720039368
76 208 0.9613862633705139
76 209 0.05584355816245079
76 210 0.2539922595024109
76 211 0.17070640623569489
76 212 0.9598782062530518
76 213 0.311496376991272
76 214 0.3978831470012665
76 215 0.11654532700777054
76 216 0.9673807621002197
76 217 0.9625779390335083
76 218 0.9512701034545898
76 219 0.9637352228164673
76 220 0.9663839340209961
76 221 0.9588767886161804
76 222 0.9630413055419922
76 223 0.9599179029464722
76 224 0.8614422678947449
76 225 0.9620780944824219
76 226 0.9474440217018127
76 227 0.9565141201019287
76 228 0.24987003207206726
76 229 0.9336082935333252
76 230 0.35189712047576904
76 231 0.9572108387947083
76 232 0.9588359594345093
76 233 0.7817479968070984
76 234 0.25793033838272095
76 235 0.9652701616287231
76 236 0.9544165134429932
76 237 0.9652701616287231
76 238 0.9604989290237427
76 239 0.9609590172767639
76 240 0.5492983460426331
76 241 0.9571317434310913
76 242 0.38837653398513794
76 243 0.9583353996276855
76 244 0.9641186594963074
76 245 0.9533282518386841
76 246 0.13697807490825653
76 247 0.9636557698249817
76 248 0.9537967443466187
76 249 0.14117825031280518
76 250 0.957170844078064
76 251 0.19928286969661713
76 252 0.9539523124694824
76 253 0.9593372941017151
76 254 0.20440992712974548
76 255 0.5165556073188782
77 78 0.576359212398529
77 80 0.09925832599401474
77 82 0.06189844757318497
77 83 0.5825332403182983
77 84 0.5782400369644165
77 85 0.5789854526519775
77 86 0.5812349319458008
77 87 0.5831770896911621
77 88 0.15786044299602509
77 90 0.2468893826007843
77 91 0.5606895685195923
77 92 0.05360563099384308
77 93 0.22746990621089935
77 94 0.09484461694955826
77 95 0.26625892519950867
77 96 0.08812710642814636
77 98 0.5730307102203369
77 99 0.5764282941818237
77 100 0.5789854526519775
77 101 0.5762959122657776
77 102 0.5698568224906921
77 103 0.0670652687549591
77 104 0.5875260233879089
77 105 0.06500637531280518
77 106 0.5840801000595093
77 107 0.5810158252716064
77 108 0.5700476765632629
77 110 0.5639876127243042
77 111 0.5759682655334473
77 112 0.5768903493881226
77 113 0.5022552013397217
77 114 0.1650625318288803
77 115 0.5733504295349121
77 116 0.31699714064598083
77 117 0.19851665198802948
77 118 0.14301402866840363
77 119 0.07580980658531189
77 120 0.5819248557090759
77 121 0.5850834250450134
77 122 0.5705216526985168
77 123 0.5821396112442017
77 124 0.5657473802566528
77 125 0.13148868083953857
77 126 0.0894203633069992
77 127 0.574465811252594
77 128 0.12723104655742645
77 129 0.39246872067451477
77 130 0.5882804989814758
77 131 0.5114478468894958
77 132 0.5762959122657776
77 133 0.5791404247283936
77 134 0.08271528035402298
77 135 0.5780847668647766
77 136 0.4195467233657837
77 137 0.5743359923362732
77 138 0.5720194578170776
77 139 0.5746335387229919
77 140 0.5860006809234619
77 141 0.5312702655792236
77 142 0.5618914365768433
77 143 0.20457293093204498
77 144 0.5514792203903198
77 145 0.5783141851425171
77 146 0.5638415217399597
77 147 0.58183753490448
77 148 0.5934292078018188
77 149 0.566592812538147
77 151 0.5297925472259521
77 152 0.5864090919494629
77 153 0.1361554116010666
77 154 0.5693167448043823
77 155 0.5698568224906921
77 156 0.5931203365325928
77 157 0.5705912709236145
77 158 0.17436254024505615
77 159 0.5873218178749084
77 160 0.5820183753967285
77 161 0.5552654266357422
77 162 0.09827698767185211
77 163 0.5772571563720703
77 164 0.5759771466255188
77 165 0.5754653811454773
77 166 0.5715941786766052
77 167 0.5794382691383362
77 168 0.5692591667175293
77 169 0.5743153691291809
77 170 0.2081453800201416
77 171 0.559280514717102
77 172 0.5772571563720703
77 173 0.5795102119445801
77 174 0.1560152918100357
77 175 0.5621414184570312
77 176 0.5797365307807922
77 177 0.5703439116477966
77 178 0.581103503704071
77 179 0.4684157371520996
77 180 0.5591655969619751
77 181 0.12379688769578934
77 182 0.5678213238716125
77 183 0.5665580034255981
77 184 0.5603161454200745
77 185 0.5790360569953918
77 186 0.5786124467849731
77 187 0.5751683115959167
77 188 0.5852906107902527
77 189 0.5617284178733826
77 190 0.5870171189308167
77 191 0.5795882344245911
77 192 0.5926256775856018
77 193 0.5861057639122009
77 194 0.5845964550971985
77 195 0.5816214084625244
77 196 0.5887436270713806
77 197 0.5739739537239075
77 198 0.10721126198768616
77 199 0.5792452096939087
77 200 0.09476225823163986
77 201 0.1113324910402298
77 202 0.5723150968551636
77 203 0.25192299485206604
77 204 0.3530142307281494
77 205 0.5279010534286499
77 206 0.3286098837852478
77 207 0.5821396112442017
77 208 0.5692591667175293
77 210 0.12536953389644623
77 211 0.15659205615520477
77 212 0.5770303010940552
77 213 0.2563372850418091
77 214 0.17890594899654388
77 215 0.08304547518491745
77 216 0.568280041217804
77 217 0.5703439116477966
77 218 0.5789386630058289
77 219 0.5754653811454773
77 220 0.5780162215232849
77 221 0.5764282941818237
77 222 0.5798903703689575
77 223 0.5677732229232788
77 224 0.5213530659675598
77 225 0.5752299427986145
77 226 0.5740936994552612
77 227 0.5702196955680847
77 228 0.16751758754253387
77 229 0.5683307647705078
77 230 0.25686341524124146
77 231 0.5571103692054749
77 232 0.5804959535598755
77 233 0.5020367503166199
77 234 0.12061266601085663
77 235 0.5774865746498108
77 236 0.57719486951828
77 237 0.5930011868476868
77 238 0.5807138085365295
77 239 0.5816214084625244
77 240 0.34209996461868286
77 241 0.5739347338676453
77 242 0.23835669457912445
77 243 0.5801929235458374
77 244 0.5740989446640015
77 245 0.5795522928237915
77 246 0.11986582726240158
77 247 0.58183753490448
77 248 0.5717342495918274
77 249 0.14530809223651886
77 250 0.5820183753967285
77 251 0.14546434581279755
77 252 0.5727987885475159
77 253 0.5894681215286255
77 254 0.11065205186605453
77 255 0.34035724401474
78 80 0.19372081756591797
78 81 0.05758525803685188
78 82 0.05575668811798096
78 83 0.9599272608757019
78 84 0.9583086371421814
78 85 0.9662699699401855
78 86 0.9653031229972839
78 87 0.9690129160881042
78 88 0.24317751824855804
78 89 0.1367649883031845
78 90 0.46172869205474854
78 91 0.9501368999481201
78 92 0.06438227742910385
78 93 0.3917577862739563
78 94 0.20409195125102997
78 95 0.46475642919540405
78 96 0.1852266788482666
78 97 0.11151337623596191
78 98 0.9583086371421814
78 99 0.9636221528053284
78 100 0.9631562829017639
78 101 0.9669467806816101
78 102 0.9598551392555237
78 103 0.14767096936702728
78 104 0.9653400182723999
78 105 0.1327274739742279
78 106 0.9663746953010559
78 107 0.962618887424469
78 108 0.9636934399604797
78 109 0.11151337623596191
78 110 0.9663388133049011
78 111 0.9273887276649475
78 112 0.9689782857894897
78 113 0.8753588199615479
78 114 0.32214975357055664
78 115 0.9526536464691162
78 116 0.43576952815055847
78 117 0.19372081756591797
78 118 0.261551171541214
78 120 0.962044894695282
78 121 0.9636221528053284
78 122 0.9555319547653198
78 123 0.9636934399604797
78 124 0.9610422849655151
78 125 0.24103978276252747
78 126 0.15438328683376312
78 127 0.9609329700469971
78 128 0.1528090387582779
78 129 0.561744213104248
78 130 0.9549901485443115
78 131 0.903723955154419
78 132 0.9669467806816101
78 133 0.9690485596656799
78 134 0.19868803024291992
78 135 0.9658031463623047
78 136 0.7558359503746033
78 137 0.9663388133049011
78 138 0.9663746953010559
78 139 0.9637306332588196
78 140 0.9609683752059937
78 141 0.9203415513038635
78 142 0.9511191844940186
78 143 0.3121046721935272
78 144 0.9358312487602234
78 145 0.9674450755119324
78 146 0.9518452286720276
78 147 0.9642303586006165
78 148 0.96312016248703
78 149 0.9668055176734924
78 151 0.931878387928009
78 152 0.9653031229972839
78 153 0.3361399471759796
78 154 0.9556049108505249
78 155 0.9588118195533752
78 156 0.9636573195457458
78 157 0.9679093956947327
78 158 0.20941568911075592
78 159 0.9657681584358215
78 160 0.9577685594558716
78 161 0.9117858409881592
78 162 0.1716860681772232
78 163 0.9621184468269348
78 164 0.9603261351585388
78 165 0.9663746953010559
78 166 0.9588118195533752
78 167 0.9716118574142456
78 168 0.9630173444747925
78 169 0.953941822052002
78 170 0.33034399151802063
78 171 0.946316659450531
78 172 0.9652321338653564
78 173 0.968410313129425
78 174 0.2537437081336975
78 175 0.9527845978736877
78 176 0.9731451272964478
78 177 0.9641941785812378
78 178 0.9604296684265137
78 179 0.8269745111465454
78 180 0.9571554064750671
78 181 0.3159545660018921
78 182 0.9593513607978821
78 183 0.9669100642204285
78 184 0.9645060300827026
78 185 0.9517694115638733
78 186 0.9679441452026367
78 187 0.9669100642204285
78 188 0.9652671217918396
78 189 0.9640917778015137
78 190 0.9631934762001038
78 191 0.9610422849655151
78 192 0.9594255685806274
78 193 0.9689446091651917
78 194 0.9705793857574463
78 195 0.9625826478004456
78 196 0.9652671217918396
78 197 0.9390708208084106
78 198 0.1287645548582077
78 199 0.9586750864982605
78 200 0.1821005791425705
78 201 0.2477647364139557
78 202 0.9658389687538147
78 203 0.38073211908340454
78 204 0.49134448170661926
78 205 0.8993306159973145
78 206 0.5305736064910889
78 207 0.9657681584358215
78 208 0.9588484764099121
78 210 0.2575596272945404
78 211 0.17631812393665314
78 212 0.9635879397392273
78 213 0.3141533434391022
78 214 0.37727606296539307
78 215 0.11636403203010559
78 216 0.9689782857894897
78 217 0.9641941785812378
78 218 0.9592148661613464
78 219 0.9674093723297119
78 220 0.9669467806816101
78 221 0.9636221528053284
78 222 0.9625826478004456
78 223 0.9615431427955627
78 224 0.8624299764633179
78 225 0.9647308588027954
78 226 0.9501744508743286
78 227 0.9560733437538147
78 228 0.2575291097164154
78 229 0.9364221096038818
78 230 0.3456366956233978
78 231 0.9588484764099121
78 232 0.961506724357605
78 233 0.7881967425346375
78 234 0.2414335459470749
78 235 0.9679093956947327
78 236 0.9602620601654053
78 237 0.9648038148880005
78 238 0.9652321338653564
78 239 0.9605036377906799
78 240 0.5319355130195618
78 241 0.9577317833900452
78 242 0.3825674057006836
78 243 0.9599647521972656
78 244 0.9615805149078369
78 245 0.953941822052002
78 246 0.1367649883031845
78 247 0.9631934762001038
78 248 0.9512630105018616
78 249 0.15438328683376312
78 250 0.9598551392555237
78 251 0.1941198706626892
78 252 0.9556049108505249
78 253 0.9630506634712219
78 254 0.20883828401565552
78 255 0.5233927965164185
79 83 0.06468462198972702
79 84 0.06478635221719742
79 85 0.06448258459568024
79 86 0.06434894353151321
79 88 0.06401844322681427
79 90 0.0657951682806015
79 94 0.14744195342063904
79 98 0.06478635221719742
79 99 0.06458336859941483
79 100 0.06448258459568024
79 103 0.10425721108913422
79 104 0.06428243219852448
79 106 0.06428243219852448
79 107 0.06451612710952759
79 108 0.06444909423589706
79 110 0.06434894353151321
79 111 0.06715342402458191
79 113 0.05283524468541145
79 115 0.0656178742647171
79 120 0.06461706012487411
79 121 0.06458336859941483
79 122 0.06509445607662201
79 123 0.06444909423589706
79 127 0.06475239247083664
79 131 0.05147986486554146
79 132 0.0641830563545227
79 133 0.06411705911159515
79 137 0.06434894353151321
79 138 0.06428243219852448
79 139 0.06438227742910385
79 140 0.06468462198972702
79 141 0.06719131767749786
79 142 0.06551217287778854
79 144 0.0663723275065422
79 146 0.06512895971536636
79 147 0.06441566348075867
79 149 0.06444909423589706
79 151 0.05008354038000107
79 152 0.06434894353151321
79 154 0.06495697796344757
79 156 0.06451612710952759
79 157 0.06431566923856735
79 159 0.06444909423589706
79 160 0.06482037156820297
79 161 0.050942666828632355
79 162 0.0833333283662796
79 164 0.0649227499961853
79 166 0.06482037156820297
79 167 0.06415002793073654
79 168 0.06475239247083664
79 169 0.06512895971536636
79 171 0.0656178742647171
79 172 0.06448258459568024
79 173 0.06434894353151321
79 175 0.0653371512889862
79 180 0.06499126553535461
79 183 0.06424925476312637
79 184 0.0649227499961853
79 185 0.06526753306388855
79 186 0.06424925476312637
79 187 0.06424925476312637
79 188 0.06441566348075867
79 189 0.06468462198972702
79 190 0.06441566348075867
79 191 0.06454972177743912
79 192 0.06465081870555878
79 193 0.06431566923856735
79 194 0.06415002793073654
79 195 0.06458336859941483
79 196 0.06441566348075867
79 197 0.06629935652017593
79 204 0.06154574826359749
79 205 0.06984303146600723
79 207 0.06444909423589706
79 208 0.06475239247083664
79 209 0.2886751592159271
79 212 0.06465081870555878
79 216 0.06424925476312637
79 217 0.06448258459568024
79 219 0.06428243219852448
79 220 0.0641830563545227
79 221 0.06458336859941483
79 223 0.06458336859941483
79 224 0.07231015712022781
79 225 0.06444909423589706
79 226 0.06530231237411499
79 227 0.06506000459194183
79 228 0.0625
79 230 0.0887356549501419
79 231 0.06475239247083664
79 232 0.06465081870555878
79 233 0.05952567979693413
79 235 0.06431566923856735
79 236 0.06506000459194183
79 237 0.06431566923856735
79 238 0.06448258459568024
79 239 0.06458336859941483
79 240 0.05698028579354286
79 241 0.06488857418298721
79 243 0.06461706012487411
79 244 0.06451612710952759
79 245 0.06512895971536636
79 246 0.11180339008569717
79 247 0.06441566348075867
79 250 0.06482037156820297
79 252 0.06495697796344757
79 253 0.06468462198972702
79 255 0.05933908373117447
80 83 0.1846494823694229
80 84 0.1849398910999298
80 85 0.19402262568473816
80 86 0.20851442217826843
80 87 0.20302504301071167
80 89 0.0690065547823906
80 90 0.07106690853834152
80 91 0.19669893383979797
80 93 0.1358957141637802
80 94 0.09100314974784851
80 95 0.14306584000587463
80 98 0.1899382770061493
80 99 0.19432587921619415
80 100 0.18407274782657623
80 101 0.20302504301071167
80 102 0.20504100620746613
80 104 0.20333939790725708
80 106 0.19837990403175354
80 107 0.20905615389347076
80 108 0.19889423251152039
80 110 0.18369126319885254
80 111 0.1813349723815918
80 112 0.1982775181531906
80 113 0.21740415692329407
80 115 0.18225102126598358
80 116 0.08794926106929779
80 118 0.16840825974941254
80 120 0.20938321948051453
80 121 0.1793777346611023
80 122 0.19084157049655914
80 123 0.19392186403274536
80 124 0.19920477271080017
80 125 0.07968190312385559
80 127 0.20982173085212708
80 128 0.08451542258262634
80 129 0.18687063455581665
80 130 0.19596751034259796
80 131 0.15887030959129333
80 132 0.20302504301071167
80 133 0.18302929401397705
80 134 0.1190476194024086
80 135 0.19868803024291992
80 136 0.16701704263687134
80 137 0.1737620085477829
80 138 0.19342041015625
80 139 0.19372081756591797
80 140 0.19463054835796356
80 141 0.17625336349010468
80 142 0.20217497646808624
80 144 0.19458797574043274
80 145 0.20312964916229248
80 146 0.21104195713996887
80 147 0.20376081764698029
80 148 0.19422464072704315
80 149 0.18894952535629272
80 151 0.20092950761318207
80 152 0.19362053275108337
80 153 0.05806254968047142
80 154 0.1954500377178192
80 155 0.19503900408744812
80 156 0.20407862961292267
80 157 0.18855834007263184
80 158 0.08728715777397156
80 159 0.17900480329990387
80 160 0.18503700196743011
80 161 0.1938953995704651
80 162 0.07715167105197906
80 163 0.20397250354290009
80 164 0.20536483824253082
80 165 0.20829890668392181
80 166 0.20004001259803772
80 167 0.2029205560684204
80 168 0.19983021914958954
80 169 0.2060171365737915
80 171 0.19237609207630157
80 172 0.20894746482372284
80 173 0.18865591287612915
80 174 0.07484811544418335
80 175 0.20163483917713165
80 176 0.20302504301071167
80 177 0.20397250354290009
80 178 0.2047186940908432
80 179 0.20832578837871552
80 180 0.20056740939617157
80 181 0.13363061845302582
80 182 0.17994153499603271
80 183 0.2081913948059082
80 184 0.21037374436855316
80 185 0.1611359864473343
80 186 0.17844976484775543
80 187 0.2032344490289688
80 188 0.20376081764698029
80 189 0.18964003026485443
80 190 0.19879105687141418
80 191 0.18924452364444733
80 192 0.19951675832271576
80 193 0.1984824538230896
80 194 0.2029205560684204
80 195 0.209274023771286
80 196 0.1938212662935257
80 197 0.16368339955806732
80 199 0.21093015372753143
80 201 0.11310692131519318
80 202 0.20840658247470856
80 203 0.1450316458940506
80 204 0.06647700071334839
80 205 0.18320922553539276
80 206 0.0803123340010643
80 207 0.20386658608913422
80 208 0.2048259675502777
80 211 0.08451542258262634
80 212 0.18455299735069275
80 213 0.36140313744544983
80 214 0.14371514320373535
80 216 0.2081913948059082
80 217 0.20397250354290009
80 218 0.20579901337623596
80 219 0.19837990403175354
80 220 0.20797687768936157
80 221 0.19432587921619415
80 222 0.209274023771286
80 223 0.1993086040019989
80 224 0.1506289392709732
80 225 0.20386658608913422
80 226 0.18137459456920624
80 227 0.20077954232692719
80 228 0.09643959254026413
80 229 0.20449191331863403
80 230 0.06846104562282562
80 231 0.19983021914958954
80 232 0.20450466871261597
80 233 0.2143169492483139
80 235 0.20344451069831848
80 236 0.1807015836238861
80 237 0.20344451069831848
80 238 0.1890476942062378
80 239 0.1993086040019989
80 240 0.1142992377281189
80 241 0.1952441930770874
80 242 0.09979749470949173
80 243 0.20439790189266205
80 244 0.20407862961292267
80 245 0.21104195713996887
80 247 0.20376081764698029
80 248 0.18621434271335602
80 250 0.1700340062379837
80 251 0.09304841607809067
80 252 0.2054731249809265
80 253 0.17466843128204346
80 255 0.14649949967861176
81 83 0.07231960445642471
81 84 0.07243335247039795
81 85 0.05767497792840004
81 86 0.07194431126117706
81 87 0.057407066226005554
81 90 0.08827348798513412
81 91 0.058470532298088074
81 95 0.08885232359170914
81 96 0.07352146506309509
81 98 0.07243335247039795
81 99 0.07220640033483505
81 100 0.07209372520446777
81 101 0.07175883650779724
81 102 0.07247138023376465
81 104 0.07186995446681976
81 105 0.10846523195505142
81 106 0.07186995446681976
81 107 0.05770498141646385
81 108 0.05764502286911011
81 110 0.07194431126117706
81 112 0.07183285802602768
81 113 0.07876213639974594
81 115 0.05869041010737419
81 117 0.0690065547823906
81 120 0.0722440779209137
81 123 0.07205627858638763
81 124 0.05773502215743065
81 125 0.05773502215743065
81 127 0.07239537686109543
81 130 0.05825311318039894
81 131 0.06139332428574562
81 132 0.07175883650779724
81 133 0.07168504595756531
81 134 0.0690065547823906
81 135 0.07198157161474228
81 137 0.07194431126117706
81 138 0.07186995446681976
81 139 0.07198157161474228
81 140 0.07231960445642471
81 141 0.06009773910045624
81 142 0.0732448473572731
81 144 0.07420652359724045
81 145 0.07179581373929977
81 146 0.05825311318039894
81 147 0.07201889902353287
81 148 0.07216878235340118
81 149 0.05764502286911011
81 151 0.07466013729572296
81 152 0.07194431126117706
81 154 0.07262410968542099
81 155 0.07247138023376465
81 156 0.07213123142719269
81 157 0.07190710306167603
81 158 0.06324554979801178
81 159 0.05764502286911011
81 160 0.07247138023376465
81 163 0.05767497792840004
81 164 0.05806867033243179
81 165 0.07186995446681976
81 166 0.07247138023376465
81 167 0.07172191143035889
81 168 0.057916298508644104
81 169 0.0728163942694664
81 171 0.07336301356554031
81 172 0.07209372520446777
81 173 0.05755544826388359
81 175 0.0730491578578949
81 176 0.07175883650779724
81 177 0.05767497792840004
81 178 0.07235746085643768
81 179 0.06708728522062302
81 180 0.07266244292259216
81 182 0.07243335247039795
81 183 0.057466283440589905
81 184 0.07258584350347519
81 185 0.07297132164239883
81 186 0.07183285802602768
81 187 0.07183285802602768
81 188 0.07201889902353287
81 189 0.07231960445642471
81 190 0.07201889902353287
81 191 0.05773502215743065
81 192 0.07228181511163712
81 193 0.05752567946910858
81 195 0.07220640033483505
81 196 0.057615119963884354
81 197 0.05929994583129883
81 200 0.07905694097280502
81 201 0.05463584139943123
81 202 0.05752567946910858
81 205 0.07808688282966614
81 206 0.10345212370157242
81 207 0.07205627858638763
81 208 0.057916298508644104
81 210 0.05504818633198738
81 212 0.05782545357942581
81 214 0.06942101567983627
81 216 0.07183285802602768
81 217 0.07209372520446777
81 218 0.058191437274217606
81 219 0.07186995446681976
81 220 0.07175883650779724
81 221 0.07220640033483505
81 222 0.07220640033483505
81 223 0.05776512250304222
81 224 0.08084520697593689
81 225 0.07205627858638763
81 226 0.07301021367311478
81 227 0.058191437274217606
81 229 0.07408423721790314
81 231 0.07239537686109543
81 232 0.07228181511163712
81 233 0.053241387009620667
81 234 0.05590169504284859
81 235 0.07190710306167603
81 236 0.07273929566144943
81 237 0.07190710306167603
81 239 0.07220640033483505
81 240 0.07644706964492798
81 241 0.058038100600242615
81 243 0.0722440779209137
81 244 0.07213123142719269
81 245 0.0728163942694664
81 247 0.07201889902353287
81 248 0.07293249666690826
81 250 0.07247138023376465
81 253 0.05785568431019783
81 254 0.06593804806470871
82 83 0.05601852759718895
82 84 0.056106630712747574
82 85 0.05584355816245079
82 87 0.055584151297807693
82 96 0.09491580724716187
82 98 0.056106630712747574
82 99 0.055930834263563156
82 100 0.05584355816245079
82 102 0.05613608658313751
82 104 0.05567022040486336
82 107 0.055872607976198196
82 108 0.055814556777477264
82 111 0.0581565760076046
82 112 0.05564148724079132
82 115 0.056826744228601456
82 116 0.08226901292800903
82 118 0.14002801477909088
82 120 0.05596001818776131
82 123 0.055814556777477264
82 124 0.055901702493429184
82 127 0.05607721582055092
82 132 0.055584151297807693
82 133 0.05552699789404869
82 135 0.05575668811798096
82 136 0.07210621237754822
82 138 0.05567022040486336
82 139 0.05575668811798096
82 140 0.05601852759718895
82 141 0.058189380913972855
82 142 0.05673521012067795
82 144 0.05748012289404869
82 147 0.05578560009598732
82 148 0.055901702493429184
82 149 0.055814556777477264
82 152 0.05572781711816788
82 154 0.05625439062714577
82 155 0.05613608658313751
82 156 0.055872607976198196
82 157 0.055698998272418976
82 161 0.05882352590560913
82 163 0.05584355816245079
82 164 0.056224748492240906
82 166 0.05613608658313751
82 168 0.05607721582055092
82 169 0.05640333145856857
82 173 0.05572781711816788
82 175 0.05658363178372383
82 176 0.055584151297807693
82 177 0.05584355816245079
82 181 0.1111111119389534
82 182 0.056106630712747574
82 183 0.05564148724079132
82 184 0.056224748492240906
82 185 0.056523337960243225
82 186 0.05564148724079132
82 187 0.05564148724079132
82 188 0.05578560009598732
82 189 0.05601852759718895
82 190 0.05578560009598732
82 191 0.055901702493429184
82 192 0.05598925054073334
82 193 0.055698998272418976
82 194 0.0555555559694767
82 195 0.055930834263563156
82 196 0.05578560009598732
82 197 0.05741692706942558
82 206 0.10016708076000214
82 207 0.055814556777477264
82 208 0.05607721582055092
82 212 0.05598925054073334
82 216 0.05564148724079132
82 217 0.05584355816245079
82 218 0.05634361505508423
82 219 0.05567022040486336
82 220 0.055584151297807693
82 221 0.055930834263563156
82 222 0.055930834263563156
82 223 0.055930834263563156
82 224 0.06262242794036865
82 225 0.055814556777477264
82 227 0.05634361505508423
82 228 0.07216878980398178
82 229 0.0573853999376297
82 232 0.05598925054073334
82 233 0.06873433291912079
82 235 0.055698998272418976
82 236 0.05634361505508423
82 237 0.055698998272418976
82 238 0.05584355816245079
82 239 0.055930834263563156
82 241 0.05619514361023903
82 243 0.05596001818776131
82 245 0.05640333145856857
82 247 0.05578560009598732
82 248 0.05649326741695404
82 249 0.12038584798574448
82 250 0.05613608658313751
82 252 0.05625439062714577
82 253 0.05601852759718895
82 254 0.17025130987167358
83 84 0.9565228819847107
83 85 0.9603801369667053
83 86 0.9604708552360535
83 87 0.9631842970848083
83 88 0.23189647495746613
83 89 0.13740724325180054
83 90 0.4702809154987335
83 91 0.9440274238586426
83 92 0.06468462198972702
83 93 0.37029239535331726
83 94 0.19551315903663635
83 95 0.47122281789779663
83 96 0.1967305988073349
83 97 0.10270064324140549
83 98 0.9565228819847107
83 99 0.9577035307884216
83 100 0.9572518467903137
83 101 0.9631842970848083
83 102 0.9580734372138977
83 103 0.1551082730293274
83 104 0.9636362195014954
83 105 0.13335075974464417
83 106 0.9605176448822021
83 107 0.958793044090271
83 108 0.9598813652992249
83 109 0.1120370551943779
83 110 0.9615114331245422
83 111 0.926314115524292
83 112 0.9620998501777649
83 113 0.880608856678009
83 114 0.32988688349723816
83 115 0.9454551339149475
83 116 0.442424476146698
83 117 0.1846494823694229
83 118 0.25101321935653687
83 120 0.9582032561302185
83 121 0.9556147456169128
83 122 0.9505453109741211
83 123 0.961965799331665
83 124 0.9572045803070068
83 125 0.2463470995426178
83 126 0.13487675786018372
83 127 0.9560214877128601
83 128 0.17124126851558685
83 129 0.5697234272956848
83 130 0.947889506816864
83 131 0.9024179577827454
83 132 0.9662981033325195
83 133 0.9663413166999817
83 134 0.19463054835796356
83 135 0.9599272608757019
83 136 0.7364962100982666
83 137 0.9625520706176758
83 138 0.9636362195014954
83 139 0.9599272608757019
83 140 0.9550209641456604
83 141 0.9203173518180847
83 142 0.9460510611534119
83 143 0.3102344572544098
83 144 0.9294927716255188
83 145 0.9636806845664978
83 146 0.9489427208900452
83 147 0.958341658115387
83 148 0.9634675979614258
83 149 0.9588391184806824
83 151 0.9232959747314453
83 152 0.9594302773475647
83 153 0.3285909593105316
83 154 0.9516890645027161
83 155 0.9517841339111328
83 156 0.958793044090271
83 157 0.9610141515731812
83 158 0.21039912104606628
83 159 0.9588391184806824
83 160 0.9517841339111328
83 161 0.906182050704956
83 162 0.17249232530593872
83 163 0.9572518467903137
83 164 0.9543371796607971
83 165 0.9615572094917297
83 166 0.9549288153648376
83 167 0.9658008813858032
83 168 0.9528800845146179
83 169 0.947889506816864
83 170 0.34086546301841736
83 171 0.9422718286514282
83 172 0.9582945704460144
83 173 0.9604708552360535
83 174 0.25101321935653687
83 175 0.9477497935295105
83 176 0.9642221927642822
83 177 0.9593372941017151
83 178 0.9576139450073242
83 179 0.8247933387756348
83 180 0.9521914124488831
83 181 0.31121402978897095
83 182 0.9565228819847107
83 183 0.9620998501777649
83 184 0.9511874914169312
83 185 0.9499062895774841
83 186 0.9610608816146851
83 187 0.9641777873039246
83 188 0.9593833684921265
83 189 0.9592050313949585
83 190 0.9625083804130554
83 191 0.9592922329902649
83 192 0.9576583504676819
83 193 0.9610141515731812
83 194 0.9626887440681458
83 195 0.958747923374176
83 196 0.9593833684921265
83 197 0.9370478987693787
83 198 0.12128367274999619
83 199 0.9494926333427429
83 200 0.17723838984966278
83 201 0.2528795301914215
83 202 0.9641343355178833
83 203 0.39771953225135803
83 204 0.5055950284004211
83 205 0.8820945620536804
83 206 0.5368059873580933
83 207 0.9588391184806824
83 208 0.954974353313446
83 209 0.05601852759718895
83 210 0.25876912474632263
83 211 0.15943151712417603
83 212 0.9566128253936768
83 213 0.30931606888771057
83 214 0.3941092789173126
83 215 0.10020898282527924
83 216 0.9620998501777649
83 217 0.9582945704460144
83 218 0.9521463513374329
83 219 0.9625967144966125
83 220 0.9621464014053345
83 221 0.9556147456169128
83 222 0.9577035307884216
83 223 0.9556147456169128
83 224 0.8524479866027832
83 225 0.9598813652992249
83 226 0.9461885094642639
83 227 0.9521463513374329
83 228 0.23852455615997314
83 229 0.931175708770752
83 230 0.3415200114250183
83 231 0.9560214877128601
83 232 0.9587038159370422
83 233 0.7764965891838074
83 234 0.25469571352005005
83 235 0.9610141515731812
83 236 0.9521463513374329
83 237 0.9610141515731812
83 238 0.9593372941017151
83 239 0.958747923374176
83 240 0.5325906276702881
83 241 0.9527854323387146
83 242 0.3948228657245636
83 243 0.9613379836082458
83 244 0.9567064642906189
83 245 0.9489427208900452
83 246 0.13740724325180054
83 247 0.9614666700363159
83 248 0.9504557847976685
83 249 0.14836443960666656
83 250 0.9528323411941528
83 251 0.19990725815296173
83 252 0.9506386518478394
83 253 0.9602510333061218
83 254 0.2098190039396286
83 255 0.5220123529434204
84 85 0.9577129483222961
84 86 0.9588547348976135
84 87 0.9626200795173645
84 88 0.2447037547826767
84 89 0.1303800344467163
84 90 0.4603639245033264
84 91 0.9433944225311279
84 92 0.06478635221719742
84 93 0.36568766832351685
84 94 0.21014899015426636
84 95 0.448365718126297
84 96 0.19704000651836395
84 97 0.11221326142549515
84 98 0.9538300037384033
84 99 0.9581636786460876
84 100 0.9566685557365417
84 101 0.9615805149078369
84 102 0.9543308019638062
84 103 0.14184333384037018
84 104 0.9589048027992249
84 105 0.12570399045944214
84 106 0.9630694389343262
84 107 0.955076277256012
84 108 0.9561716914176941
84 109 0.1028621643781662
84 110 0.9619814157485962
84 111 0.9245079755783081
84 112 0.9625723958015442
84 113 0.8808527588844299
84 114 0.3085864782333374
84 115 0.942690908908844
84 116 0.43850448727607727
84 117 0.20493340492248535
84 118 0.2514079809188843
84 120 0.9534308314323425
84 121 0.9581636786460876
84 122 0.9478229284286499
84 123 0.9561716914176941
84 124 0.9566190242767334
84 125 0.22582481801509857
84 126 0.15535221993923187
84 127 0.9533299803733826
84 128 0.17151057720184326
84 129 0.5617035031318665
84 130 0.9525449275970459
84 131 0.9038372039794922
84 132 0.9615805149078369
84 133 0.9657841920852661
84 134 0.19493664801120758
84 135 0.9603942036628723
84 136 0.7363058924674988
84 137 0.959896981716156
84 138 0.9599459767341614
84 139 0.9603942036628723
84 140 0.9554752707481384
84 141 0.9228530526161194
84 142 0.9401113390922546
84 143 0.2806524932384491
84 144 0.926654577255249
84 145 0.961035966873169
84 146 0.9493802785873413
84 147 0.9608922004699707
84 148 0.9576645493507385
84 149 0.9593032002449036
84 151 0.9247480630874634
84 152 0.959896981716156
84 153 0.3260604441165924
84 154 0.9500295519828796
84 155 0.950131356716156
84 156 0.9571661949157715
84 157 0.961483895778656
84 158 0.21531109511852264
84 159 0.960347056388855
84 160 0.9532809853553772
84 161 0.9054069519042969
84 162 0.17276360094547272
84 163 0.9566685557365417
84 164 0.9495289325714111
84 165 0.9599459767341614
84 166 0.9564306139945984
84 167 0.9631637930870056
84 168 0.9512324333190918
84 169 0.9462156891822815
84 170 0.3294225335121155
84 171 0.9384397268295288
84 172 0.9566685557365417
84 173 0.9651081562042236
84 174 0.26319271326065063
84 175 0.9471238851547241
84 176 0.9646991491317749
84 177 0.9556241035461426
84 178 0.9538789391517639
84 179 0.8212312459945679
84 180 0.94737309217453
84 181 0.29300129413604736
84 182 0.9506819844245911
84 183 0.9625723958015442
84 184 0.9495289325714111
84 185 0.950343132019043
84 186 0.9667348265647888
84 187 0.9594504833221436
84 188 0.958805501461029
84 189 0.9544275999069214
84 190 0.9598488211631775
84 191 0.9587100148200989
84 192 0.9528816342353821
84 193 0.9604421854019165
84 194 0.9662808179855347
84 195 0.9550256133079529
84 196 0.9577622413635254
84 197 0.9331524968147278
84 198 0.12957270443439484
84 199 0.9467686414718628
84 200 0.18324348330497742
84 201 0.24931974709033966
84 202 0.961483895778656
84 203 0.3805844187736511
84 204 0.5024029016494751
84 205 0.8778257966041565
84 206 0.5245367884635925
84 207 0.9582594037055969
84 208 0.9543787240982056
84 209 0.056106630712747574
84 210 0.24721412360668182
84 211 0.17742474377155304
84 212 0.9591644406318665
84 213 0.30031880736351013
84 214 0.39724332094192505
84 215 0.11709434539079666
84 216 0.9594504833221436
84 217 0.9577129483222961
84 218 0.947321355342865
84 219 0.9589048027992249
84 220 0.9615805149078369
84 221 0.9539795517921448
84 222 0.9581636786460876
84 223 0.9550256133079529
84 224 0.847932755947113
84 225 0.9593032002449036
84 226 0.9476765394210815
84 227 0.9483751058578491
84 228 0.24699798226356506
84 229 0.9294204711914062
84 230 0.3535548448562622
84 231 0.9522812366485596
84 232 0.9560230374336243
84 233 0.7790032625198364
84 234 0.2591454088687897
84 235 0.9604421854019165
84 236 0.953643798828125
84 237 0.9604421854019165
84 238 0.9598016738891602
84 239 0.9539795517921448
84 240 0.5334281921386719
84 241 0.9500799775123596
84 242 0.37449315190315247
84 243 0.960756778717041
84 244 0.9561212062835693
84 245 0.9472705721855164
84 246 0.1448667049407959
84 247 0.956718921661377
84 248 0.9508939981460571
84 249 0.15535221993923187
84 250 0.9553806781768799
84 251 0.2099885791540146
84 252 0.9500295519828796
84 253 0.9544275999069214
84 254 0.21492509543895721
84 255 0.5247555375099182
85 86 0.9636949896812439
85 87 0.9684532880783081
85 88 0.2394283264875412
85 89 0.13697807490825653
85 90 0.4624480605125427
85 91 0.9526710510253906
85 92 0.06448258459568024
85 93 0.37946128845214844
85 94 0.19965621829032898
85 95 0.4676157832145691
85 96 0.19081571698188782
85 97 0.11168711632490158
85 98 0.9598016738891602
85 99 0.9640824198722839
85 100 0.9615384936332703
85 101 0.9674186110496521
85 102 0.9561258554458618
85 103 0.15462380647659302
85 104 0.9647715091705322
85 105 0.13293425738811493
85 106 0.9637352228164673
85 107 0.9620386362075806
85 108 0.9631170034408569
85 109 0.11168711632490158
85 110 0.9647324085235596
85 111 0.9288336634635925
85 112 0.9663450121879578
85 113 0.8812652230262756
85 114 0.3071395754814148
85 115 0.9446176886558533
85 116 0.43644845485687256
85 117 0.17909781634807587
85 118 0.26195868849754333
85 120 0.9635437726974487
85 121 0.9630413055419922
85 122 0.9538725018501282
85 123 0.9641559720039368
85 124 0.962539553642273
85 125 0.23725299537181854
85 126 0.14117825031280518
85 127 0.9603423476219177
85 128 0.17659282684326172
85 129 0.5643942952156067
85 130 0.9512283802032471
85 131 0.905131995677948
85 132 0.9663839340209961
85 133 0.9664239287376404
85 134 0.20894746482372284
85 135 0.9631562829017639
85 136 0.7489602565765381
85 137 0.9647324085235596
85 138 0.9658077955245972
85 139 0.9621184468269348
85 140 0.9593372941017151
85 141 0.9217754602432251
85 142 0.9526010751724243
85 143 0.2826620042324066
85 144 0.931939423084259
85 145 0.9658467173576355
85 146 0.9533282518386841
85 147 0.9636557698249817
85 148 0.9635801315307617
85 149 0.9641559720039368
85 151 0.9311772584915161
85 152 0.9647324085235596
85 153 0.33363062143325806
85 154 0.9539523124694824
85 155 0.957170844078064
85 156 0.9620386362075806
85 157 0.9642333984375
85 158 0.20974195003509521
85 159 0.9620780944824219
85 160 0.9582157731056213
85 161 0.9153963327407837
85 162 0.17732711136341095
85 163 0.9615384936332703
85 164 0.9576359391212463
85 165 0.9658077955245972
85 166 0.957170844078064
85 167 0.9658867120742798
85 168 0.9582546949386597
85 169 0.9533282518386841
85 170 0.33085867762565613
85 171 0.9509645104408264
85 172 0.9604989290237427
85 173 0.9647324085235596
85 174 0.24631935358047485
85 175 0.9468961954116821
85 176 0.9653492569923401
85 177 0.9615384936332703
85 178 0.9567095637321472
85 179 0.828262984752655
85 180 0.9565512537956238
85 181 0.32885652780532837
85 182 0.9608460664749146
85 183 0.9673807621002197
85 184 0.9565893411636353
85 185 0.9553565979003906
85 186 0.9663450121879578
85 187 0.9663450121879578
85 188 0.9626173377037048
85 189 0.9582945704460144
85 190 0.9615789651870728
85 191 0.9604583382606506
85 192 0.9588359594345093
85 193 0.9663069844245911
85 194 0.9669209122657776
85 195 0.9630413055419922
85 196 0.9667710661888123
85 197 0.9394651055335999
85 198 0.11284452676773071
85 199 0.9549218416213989
85 200 0.18238429725170135
85 201 0.25602856278419495
85 202 0.9683805704116821
85 203 0.393951952457428
85 204 0.49806296825408936
85 205 0.8928504586219788
85 206 0.5369939208030701
85 207 0.9620780944824219
85 208 0.9592984914779663
85 209 0.05584355816245079
85 210 0.2381177395582199
85 211 0.15893355011940002
85 212 0.9630048274993896
85 213 0.3146427869796753
85 214 0.3853711187839508
85 215 0.12486998736858368
85 216 0.9673807621002197
85 217 0.9625779390335083
85 218 0.9523189067840576
85 219 0.9647715091705322
85 220 0.9715573191642761
85 221 0.9609590172767639
85 222 0.9599179029464722
85 223 0.9599179029464722
85 224 0.8661050200462341
85 225 0.9641559720039368
85 226 0.9484966993331909
85 227 0.9523189067840576
85 228 0.24583987891674042
85 229 0.9389493465423584
85 230 0.35189712047576904
85 231 0.9582546949386597
85 232 0.9598782062530518
85 233 0.7855863571166992
85 234 0.24180971086025238
85 235 0.9642333984375
85 236 0.959660530090332
85 237 0.9663069844245911
85 238 0.9625779390335083
85 239 0.9609590172767639
85 240 0.5346013903617859
85 241 0.956085741519928
85 242 0.3831634223461151
85 243 0.9635437726974487
85 244 0.96099853515625
85 245 0.9543781876564026
85 246 0.14418745040893555
85 247 0.9626173377037048
85 248 0.9495903253555298
85 249 0.15462380647659302
85 250 0.9561258554458618
85 251 0.19928286969661713
85 252 0.9529051184654236
85 253 0.9624655842781067
85 254 0.20916365087032318
85 255 0.508902907371521
86 87 0.9695438146591187
86 88 0.23069307208061218
86 89 0.14388862252235413
86 90 0.47630810737609863
86 91 0.952799916267395
86 92 0.06434894353151321
86 93 0.37867483496665955
86 94 0.19449855387210846
86 95 0.4602542221546173
86 96 0.17984133958816528
86 97 0.11145563423633575
86 98 0.9588547348976135
86 99 0.9620842933654785
86 100 0.9626576900482178
86 101 0.9695438146591187
86 102 0.9583154320716858
86 103 0.14759451150894165
86 104 0.9658743143081665
86 105 0.13265874981880188
86 106 0.9679425954818726
86 107 0.963158369064331
86 108 0.9652681350708008
86 109 0.10216767340898514
86 110 0.9668737053871155
86 111 0.9279889464378357
86 112 0.9664095044136047
86 113 0.8862386345863342
86 114 0.3219829499721527
86 115 0.9521604776382446
86 116 0.4332515597343445
86 117 0.1985851675271988
86 118 0.25361230969429016
86 120 0.9605072736740112
86 121 0.9693570733070374
86 122 0.9581787586212158
86 123 0.9652681350708008
86 124 0.964698314666748
86 125 0.24506869912147522
86 126 0.15430335700511932
86 127 0.9604353904724121
86 128 0.17622683942317963
86 129 0.5738514065742493
86 130 0.9534479379653931
86 131 0.902151882648468
86 132 0.9685112237930298
86 133 0.9695783257484436
86 134 0.18369126319885254
86 135 0.9673745632171631
86 136 0.7393713593482971
86 137 0.9648033380508423
86 138 0.9689767360687256
86 139 0.964267373085022
86 140 0.9625520706176758
86 141 0.9263506531715393
86 142 0.9485188722610474
86 143 0.29866892099380493
86 144 0.9385499954223633
86 145 0.9690102934837341
86 146 0.9555434584617615
86 147 0.9658036828041077
86 148 0.9615830779075623
86 149 0.9652681350708008
86 151 0.9313958883285522
86 152 0.9648033380508423
86 153 0.33293917775154114
86 154 0.9551101922988892
86 155 0.9572726488113403
86 156 0.9641962647438049
86 157 0.967408299446106
86 158 0.22750788927078247
86 159 0.9673417210578918
86 160 0.9604009985923767
86 161 0.9145918488502502
86 162 0.19304683804512024
86 163 0.9636949896812439
86 164 0.9598289132118225
86 165 0.9679425954818726
86 166 0.9593581557273865
86 167 0.9700769186019897
86 168 0.9635604619979858
86 169 0.9524002075195312
86 170 0.33017295598983765
86 171 0.9500492215156555
86 172 0.9668070673942566
86 173 0.9648033380508423
86 174 0.2497105747461319
86 175 0.9512402415275574
86 176 0.9685112237930298
86 177 0.9626576900482178
86 178 0.9609736204147339
86 179 0.825339674949646
86 180 0.9577054381370544
86 181 0.31579098105430603
86 182 0.959896981716156
86 183 0.9705438613891602
86 184 0.9587845206260681
86 185 0.9512766003608704
86 186 0.9664095044136047
86 187 0.9664095044136047
86 188 0.9678761959075928
86 189 0.9615114331245422
86 190 0.9647673964500427
86 191 0.964698314666748
86 192 0.963089108467102
86 193 0.96637362241745
86 194 0.9690449237823486
86 195 0.9641622304916382
86 196 0.9637311697006226
86 197 0.9353848695755005
86 198 0.12065427005290985
86 199 0.957131564617157
86 200 0.17063090205192566
86 201 0.25549793243408203
86 202 0.96637362241745
86 203 0.3906153738498688
86 204 0.5049514770507812
86 205 0.8876292705535889
86 206 0.5247167944908142
86 207 0.9642313718795776
86 208 0.9604353904724121
86 209 0.05572781711816788
86 210 0.2415846288204193
86 211 0.17035260796546936
86 212 0.9620490670204163
86 213 0.32655030488967896
86 214 0.3820751905441284
86 215 0.12461119890213013
86 216 0.9664095044136047
86 217 0.9678444266319275
86 218 0.9597649574279785
86 219 0.9669085144996643
86 220 0.9695438146591187
86 221 0.9631232619285583
86 222 0.9631232619285583
86 223 0.9620842933654785
86 224 0.8584936261177063
86 225 0.9652681350708008
86 226 0.9538846611976624
86 227 0.9566250443458557
86 228 0.24935215711593628
86 229 0.9359372854232788
86 230 0.356877863407135
86 231 0.9604353904724121
86 232 0.9641291499137878
86 233 0.7737438082695007
86 234 0.24533036351203918
86 235 0.9694775938987732
86 236 0.9566250443458557
86 237 0.96637362241745
86 238 0.9636949896812439
86 239 0.9620842933654785
86 240 0.5389932990074158
86 241 0.9572359323501587
86 242 0.3901727795600891
86 243 0.9625862836837769
86 244 0.963158369064331
86 245 0.9534479379653931
86 246 0.13669419288635254
86 247 0.9637311697006226
86 248 0.9528693556785583
86 249 0.14088566601276398
86 250 0.9593581557273865
86 251 0.20857080817222595
86 252 0.9582451581954956
86 253 0.9615114331245422
86 254 0.19449855387210846
86 255 0.5269402265548706
87 88 0.24242503941059113
87 89 0.14351767301559448
87 90 0.47719165682792664
87 91 0.9545393586158752
87 92 0.0641830563545227
87 93 0.3854067623615265
87 94 0.20819206535816193
87 95 0.4633182883262634
87 96 0.1899293214082718
87 97 0.11116830259561539
87 98 0.9615805149078369
87 99 0.9647854566574097
87 100 0.9653492569923401
87 101 0.9701338410377502
87 102 0.9641656279563904
87 103 0.14721401035785675
87 104 0.96854168176651
87 105 0.10896674543619156
87 106 0.9706045985221863
87 107 0.9699922800064087
87 108 0.9679503440856934
87 109 0.11116830259561539
87 110 0.9674786925315857
87 111 0.9299066662788391
87 112 0.9721654057502747
87 113 0.8828235268592834
87 114 0.3273289203643799
87 115 0.9497057795524597
87 116 0.441280335187912
87 117 0.20302504301071167
87 118 0.26074185967445374
87 120 0.963215172290802
87 121 0.9658217430114746
87 122 0.9567530751228333
87 123 0.9658820629119873
87 124 0.9684258699417114
87 125 0.24443690478801727
87 126 0.15390555560588837
87 127 0.9631544351577759
87 128 0.1757725328207016
87 129 0.5653057098388672
87 130 0.9583052396774292
87 131 0.9031302332878113
87 132 0.9701338410377502
87 133 0.973251461982727
87 134 0.20302504301071167
87 135 0.9690129160881042
87 136 0.7588410377502441
87 137 0.9685112237930298
87 138 0.96854168176651
87 139 0.9669467806816101
87 140 0.9642221927642822
87 141 0.9315093755722046
87 142 0.9534319639205933
87 143 0.3045189380645752
87 144 0.9382603764533997
87 145 0.969603419303894
87 146 0.9562151432037354
87 147 0.9674481749534607
87 148 0.9653186202049255
87 149 0.9658820629119873
87 151 0.9332807660102844
87 152 0.9716088175773621
87 153 0.3200051784515381
87 154 0.9589015245437622
87 155 0.9620854258537292
87 156 0.9679219126701355
87 157 0.9690423011779785
87 158 0.21784450113773346
87 159 0.9658820629119873
87 160 0.9610453248023987
87 161 0.9264025688171387
87 162 0.19254916906356812
87 163 0.9674186110496521
87 164 0.9583961963653564
87 165 0.9706045985221863
87 166 0.9631255269050598
87 167 0.9716933965682983
87 168 0.9631544351577759
87 169 0.9593502879142761
87 170 0.3233880400657654
87 171 0.9486528635025024
87 172 0.9694879651069641
87 173 0.9695438146591187
87 174 0.2568501830101013
87 175 0.9540298581123352
87 176 0.9721935987472534
87 177 0.9684532880783081
87 178 0.9626500606536865
87 179 0.8268225789070129
87 180 0.9583648443222046
87 181 0.3273289203643799
87 182 0.9626200795173645
87 183 0.9701035618782043
87 184 0.960479736328125
87 185 0.9561551213264465
87 186 0.969072699546814
87 187 0.9701035618782043
87 188 0.9664146304130554
87 189 0.9621464014053345
87 190 0.9664146304130554
87 191 0.9673900604248047
87 192 0.9647557139396667
87 193 0.9690423011779785
87 194 0.9716933965682983
87 195 0.9647854566574097
87 196 0.9664146304130554
87 197 0.9425478577613831
87 198 0.12034322321414948
87 199 0.9577975273132324
87 200 0.17019101977348328
87 201 0.25875985622406006
87 202 0.9700742959976196
87 203 0.38709479570388794
87 204 0.5095750689506531
87 205 0.8909443020820618
87 206 0.53449946641922
87 207 0.9679503440856934
87 208 0.9631544351577759
87 210 0.2528124153614044
87 211 0.16991344094276428
87 212 0.9637182950973511
87 213 0.3225766718387604
87 214 0.39105331897735596
87 215 0.12428995221853256
87 216 0.969072699546814
87 217 0.9705225825309753
87 218 0.9614664316177368
87 219 0.96854168176651
87 220 0.9711636900901794
87 221 0.9637491703033447
87 222 0.9658217430114746
87 223 0.9678942561149597
87 224 0.8597612977027893
87 225 0.9679503440856934
87 226 0.9566647410392761
87 227 0.9593784809112549
87 228 0.2567322254180908
87 229 0.9452201128005981
87 230 0.3531101644039154
87 231 0.9631544351577759
87 232 0.9637182950973511
87 233 0.7832106947898865
87 234 0.2567322254180908
87 235 0.9690423011779785
87 236 0.9562467336654663
87 237 0.9680102467536926
87 238 0.9653492569923401
87 239 0.9678942561149597
87 240 0.5467467308044434
87 241 0.9599740505218506
87 242 0.394355833530426
87 243 0.9642520546913147
87 244 0.9668866395950317
87 245 0.9562151432037354
87 246 0.14351767301559448
87 247 0.9674481749534607
87 248 0.9556463956832886
87 249 0.15390555560588837
87 250 0.9652056694030762
87 251 0.20803311467170715
87 252 0.9641129970550537
87 253 0.9642221927642822
87 254 0.21292369067668915
87 255 0.5255818367004395
88 90 0.10109049081802368
88 91 0.24691596627235413
88 94 0.07551202923059464
88 95 0.11023283749818802
88 97 0.07392212748527527
88 98 0.23226118087768555
88 99 0.24393706023693085
88 100 0.2394283264875412
88 101 0.24242503941059113
88 102 0.23653285205364227
88 104 0.23045462369918823
88 105 0.06210700795054436
88 106 0.24280041456222534
88 107 0.25194355845451355
88 108 0.24342992901802063
88 109 0.1108831837773323
88 110 0.24717114865779877
88 111 0.24074722826480865
88 112 0.2385619431734085
88 113 0.22098542749881744
88 114 0.08624248206615448
88 115 0.24784448742866516
88 116 0.13683374226093292
88 118 0.07763376086950302
88 120 0.23579098284244537
88 121 0.2480715811252594
88 122 0.25003471970558167
88 123 0.22280025482177734
88 124 0.23554524779319763
88 127 0.24043011665344238
88 129 0.09162656962871552
88 130 0.25433674454689026
88 131 0.23728756606578827
88 132 0.2506428360939026
88 133 0.2503851056098938
88 135 0.2472991645336151
88 136 0.11726539582014084
88 137 0.23893211781978607
88 138 0.25103092193603516
88 139 0.2472991645336151
88 140 0.2360374927520752
88 141 0.17636080086231232
88 142 0.2222813367843628
88 144 0.2549431622028351
88 145 0.23021690547466278
88 146 0.25016728043556213
88 147 0.23093225061893463
88 148 0.24794235825538635
88 149 0.25168177485466003
88 151 0.20947633683681488
88 152 0.24305163323879242
88 153 0.06022348254919052
88 154 0.2287144511938095
88 155 0.24483224749565125
88 156 0.23129242658615112
88 157 0.25116071105003357
88 158 0.09053575247526169
88 159 0.23930399119853973
88 160 0.2323831468820572
88 161 0.2565532624721527
88 163 0.24768447875976562
88 164 0.2452189326286316
88 165 0.24280041456222534
88 166 0.2282334566116333
88 167 0.24640707671642303
88 168 0.24457547068595886
88 169 0.245997816324234
88 170 0.10653312504291534
88 171 0.23104147613048553
88 172 0.243556410074234
88 173 0.2512906789779663
88 174 0.07763376086950302
88 175 0.24260137975215912
88 176 0.24653393030166626
88 177 0.2394283264875412
88 178 0.24859055876731873
88 179 0.21127736568450928
88 180 0.2371564507484436
88 181 0.061601776629686356
88 182 0.23640871047973633
88 183 0.24267509579658508
88 184 0.23275016248226166
88 185 0.23398622870445251
88 186 0.25090137124061584
88 187 0.24267509579658508
88 188 0.2391798347234726
88 189 0.24431951344013214
88 190 0.24742740392684937
88 191 0.24794235825538635
88 192 0.2276364415884018
88 193 0.2388085275888443
88 194 0.24640707671642303
88 195 0.231533482670784
88 196 0.24742740392684937
88 197 0.23768535256385803
88 199 0.23753300309181213
88 201 0.0782109722495079
88 202 0.23469115793704987
88 203 0.0702003538608551
88 204 0.260044127702713
88 205 0.1922633945941925
88 206 0.14068672060966492
88 207 0.23930399119853973
88 208 0.24457547068595886
88 210 0.11032175272703171
88 212 0.24419182538986206
88 214 0.1391262412071228
88 216 0.2385619431734085
88 217 0.2394283264875412
88 218 0.22907719016075134
88 219 0.24691566824913025
88 220 0.23420724272727966
88 221 0.2398025244474411
88 222 0.21912990510463715
88 223 0.24393706023693085
88 224 0.22220078110694885
88 225 0.22692619264125824
88 226 0.23829148709774017
88 227 0.23740728199481964
88 228 0.11203227192163467
88 229 0.24179691076278687
88 230 0.15906010568141937
88 231 0.24872080981731415
88 232 0.2400529831647873
88 233 0.2083205282688141
88 234 0.06401844322681427
88 235 0.23057375848293304
88 236 0.241572305560112
88 237 0.25116071105003357
88 238 0.24768447875976562
88 239 0.2480715811252594
88 240 0.12402483820915222
88 241 0.25339797139167786
88 242 0.09316051006317139
88 243 0.2440643459558487
88 244 0.2436830997467041
88 245 0.23348945379257202
88 246 0.08588974177837372
88 247 0.2391798347234726
88 248 0.22550952434539795
88 250 0.24483224749565125
88 251 0.057906851172447205
88 252 0.25366511940956116
88 253 0.2360374927520752
88 255 0.1747445911169052
89 90 0.07356124371290207
89 91 0.14617633819580078
89 92 0.11180339008569717
89 93 0.05370861291885376
89 97 0.12909944355487823
89 98 0.1376233696937561
89 99 0.13719215989112854
89 100 0.12976869940757751
89 101 0.14351767301559448
89 102 0.1449427604675293
89 103 0.09325047582387924
89 104 0.1149919182062149
89 105 0.05423261597752571
89 106 0.14373990893363953
89 107 0.12983621656894684
89 108 0.14411255717277527
89 110 0.13669419288635254
89 111 0.1051117330789566
89 112 0.13648243248462677
89 113 0.149648055434227
89 115 0.12471712380647659
89 117 0.0690065547823906
89 120 0.13726374506950378
89 121 0.13719215989112854
89 122 0.13827785849571228
89 123 0.1369069367647171
89 124 0.12990380823612213
89 125 0.05773502215743065
89 127 0.12307213246822357
89 129 0.09847318381071091
89 130 0.13106951117515564
89 131 0.12278664857149124
89 132 0.14351767301559448
89 133 0.13620159029960632
89 135 0.14396314322948456
89 136 0.12101534008979797
89 137 0.12230532616376877
89 138 0.13655290007591248
89 139 0.12956683337688446
89 140 0.14463920891284943
89 141 0.13521991670131683
89 142 0.1464896947145462
89 144 0.12615108489990234
89 145 0.1292324662208557
89 146 0.1456327885389328
89 147 0.12963402271270752
89 148 0.14433756470680237
89 149 0.12970130145549774
89 151 0.1194562166929245
89 152 0.12230532616376877
89 153 0.06310547143220901
89 154 0.14524821937084198
89 155 0.13769562542438507
89 156 0.14426246285438538
89 157 0.1294327825307846
89 158 0.15811388194561005
89 159 0.1369069367647171
89 160 0.13769562542438507
89 161 0.12150535732507706
89 163 0.12976869940757751
89 164 0.14517168700695038
89 165 0.13655290007591248
89 166 0.1449427604675293
89 167 0.14344382286071777
89 168 0.14479075372219086
89 169 0.13835114240646362
89 171 0.1320534199476242
89 172 0.14418745040893555
89 173 0.13669419288635254
89 174 0.05423261597752571
89 175 0.12418357282876968
89 176 0.14351767301559448
89 177 0.13697807490825653
89 178 0.14471492171287537
89 179 0.08385910093784332
89 180 0.10899366438388824
89 181 0.12909944355487823
89 182 0.1376233696937561
89 183 0.13648243248462677
89 184 0.13065451383590698
89 185 0.1313483715057373
89 186 0.14366571605205536
89 187 0.14366571605205536
89 188 0.14403779804706573
89 189 0.13017529249191284
89 190 0.13683591783046722
89 191 0.12990380823612213
89 192 0.13733544945716858
89 193 0.1294327825307846
89 194 0.12909944355487823
89 195 0.12275088578462601
89 196 0.13683591783046722
89 197 0.0963624119758606
89 199 0.13827785849571228
89 202 0.14381420612335205
89 203 0.08757118135690689
89 204 0.09633432328701019
89 205 0.09370425343513489
89 207 0.1369069367647171
89 208 0.1375512033700943
89 212 0.13010726869106293
89 213 0.1963961124420166
89 214 0.0867762640118599
89 215 0.05773502215743065
89 216 0.14366571605205536
89 217 0.13697807490825653
89 218 0.14547859132289886
89 219 0.14373990893363953
89 220 0.14351767301559448
89 221 0.13719215989112854
89 222 0.1444128006696701
89 223 0.1444128006696701
89 224 0.08892972767353058
89 225 0.14411255717277527
89 226 0.13871939480304718
89 227 0.13093073666095734
89 229 0.14816847443580627
89 231 0.13031166791915894
89 232 0.13733544945716858
89 233 0.08873564749956131
89 235 0.13662348687648773
89 236 0.10910893976688385
89 237 0.12224207073450089
89 238 0.13697807490825653
89 239 0.12997151911258698
89 240 0.06370589882135391
89 241 0.14509525895118713
89 242 0.10846521705389023
89 243 0.11559052020311356
89 244 0.1370493322610855
89 245 0.13106951117515564
89 247 0.14403779804706573
89 248 0.1093987450003624
89 249 0.09325047582387924
89 250 0.13769562542438507
89 251 0.10112997144460678
89 252 0.13798581063747406
89 253 0.12294332683086395
89 254 0.06593804806470871
89 255 0.09288036078214645
90 91 0.4774293005466461
90 93 0.1633027195930481
90 94 0.10671065002679825
90 95 0.3180896043777466
90 96 0.2055165320634842
90 97 0.11396057158708572
90 98 0.46249523758888245
90 99 0.47591862082481384
90 100 0.4624480605125427
90 101 0.46874579787254333
90 102 0.46273812651634216
90 104 0.4673568308353424
90 106 0.46524208784103394
90 107 0.4754231572151184
90 108 0.47280898690223694
90 110 0.4572557806968689
90 111 0.46613815426826477
90 112 0.4776838719844818
90 113 0.4403318464756012
90 114 0.1392851620912552
90 115 0.4619552791118622
90 116 0.29063814878463745
90 117 0.15228623151779175
90 120 0.4591609835624695
90 121 0.47166937589645386
90 122 0.4689776301383972
90 123 0.4812898635864258
90 124 0.4799177646636963
90 125 0.11891767382621765
90 126 0.054876964539289474
90 127 0.4729038178920746
90 128 0.15616248548030853
90 129 0.32234954833984375
90 130 0.47136881947517395
90 131 0.4493587911128998
90 132 0.4729686975479126
90 133 0.4851381182670593
90 134 0.06091449037194252
90 135 0.4829089045524597
90 136 0.3670378625392914
90 137 0.46148964762687683
90 138 0.4758157730102539
90 139 0.4553745985031128
90 140 0.47240889072418213
90 141 0.46861156821250916
90 142 0.4547455906867981
90 143 0.12893882393836975
90 144 0.4650832712650299
90 145 0.48166269063949585
90 146 0.469226211309433
90 147 0.47468283772468567
90 148 0.46930012106895447
90 149 0.4579674303531647
90 151 0.46572941541671753
90 152 0.47419118881225586
90 153 0.1733056902885437
90 154 0.4786718189716339
90 155 0.45634084939956665
90 156 0.4648110568523407
90 157 0.4612509310245514
90 158 0.13026778399944305
90 159 0.45584723353385925
90 160 0.4734002947807312
90 161 0.47595301270484924
90 162 0.14255619049072266
90 163 0.47517597675323486
90 164 0.4634689390659332
90 165 0.4673568308353424
90 166 0.4670029878616333
90 167 0.4790565073490143
90 168 0.47929438948631287
90 169 0.4649410545825958
90 170 0.09732425212860107
90 171 0.46411392092704773
90 172 0.4730546474456787
90 173 0.4424373209476471
90 174 0.08776719868183136
90 175 0.4578295648097992
90 176 0.4729686975479126
90 177 0.477297306060791
90 178 0.47265616059303284
90 179 0.3429841101169586
90 180 0.4832006096839905
90 181 0.22159001231193542
90 182 0.47528311610221863
90 183 0.47345656156539917
90 184 0.4741479754447937
90 185 0.47666603326797485
90 186 0.460774689912796
90 187 0.48191115260124207
90 188 0.47044461965560913
90 189 0.47453683614730835
90 190 0.47044461965560913
90 191 0.47354716062545776
90 192 0.47216200828552246
90 193 0.46971428394317627
90 194 0.46006307005882263
90 195 0.47591862082481384
90 196 0.485278457403183
90 197 0.4580286145210266
90 198 0.0657951682806015
90 199 0.4732605516910553
90 200 0.11631052941083908
90 201 0.12057239562273026
90 202 0.47606173157691956
90 203 0.15975773334503174
90 204 0.21461889147758484
90 205 0.4480450749397278
90 206 0.2701573371887207
90 207 0.4706887900829315
90 208 0.46438300609588623
90 210 0.11338356137275696
90 211 0.08408749103546143
90 212 0.47216200828552246
90 213 0.23115424811840057
90 214 0.2706548571586609
90 215 0.05096471682190895
90 216 0.47979751229286194
90 217 0.477297306060791
90 218 0.4708697497844696
90 219 0.48850420117378235
90 220 0.4708572328090668
90 221 0.47591862082481384
90 222 0.4780432879924774
90 223 0.47379398345947266
90 224 0.3996433615684509
90 225 0.47280898690223694
90 226 0.48336490988731384
90 227 0.46230846643447876
90 228 0.156263530254364
90 229 0.46431684494018555
90 230 0.2510502338409424
90 231 0.4686434268951416
90 232 0.46578142046928406
90 233 0.3211531937122345
90 235 0.4739459156990051
90 236 0.4409053325653076
90 237 0.46971428394317627
90 238 0.477297306060791
90 239 0.47166937589645386
90 240 0.2474358081817627
90 241 0.46322494745254517
90 242 0.21808819472789764
90 243 0.46766397356987
90 244 0.4626886248588562
90 245 0.47136881947517395
90 246 0.11769798398017883
90 247 0.4789210855960846
90 248 0.4699743986129761
90 249 0.06859620660543442
90 250 0.4542084038257599
90 251 0.11902794241905212
90 252 0.48294568061828613
90 253 0.47240889072418213
90 254 0.13581354916095734
90 255 0.21473239362239838
91 92 0.0653720498085022
91 93 0.3873124420642853
91 94 0.17831376194953918
91 95 0.46973657608032227
91 96 0.1934477686882019
91 97 0.10379206389188766
91 98 0.9433944225311279
91 99 0.9499380588531494
91 100 0.9474018216133118
91 101 0.9545393586158752
91 102 0.9428304433822632
91 103 0.12267912179231644
91 104 0.9528656601905823
91 105 0.11098534613847733
91 106 0.9539162516593933
91 107 0.9510578513145447
91 108 0.9511229991912842
91 109 0.10379206389188766
91 110 0.9496449828147888
91 111 0.9175009727478027
91 112 0.9534239172935486
91 113 0.8634870648384094
91 114 0.30194053053855896
91 115 0.9329824447631836
91 116 0.4401399493217468
91 117 0.17148113250732422
91 118 0.2536807954311371
91 120 0.9451534748077393
91 121 0.9531044960021973
91 122 0.9468171000480652
91 123 0.9500697255134583
91 124 0.9494431614875793
91 125 0.24052560329437256
91 126 0.14994116127490997
91 127 0.9460746645927429
91 128 0.1730610877275467
91 129 0.5505877733230591
91 130 0.94093257188797
91 131 0.8940597772598267
91 132 0.9513925313949585
91 133 0.954605758190155
91 134 0.19165538251399994
91 135 0.954345703125
91 136 0.7171083092689514
91 137 0.9506966471672058
91 138 0.9570679664611816
91 139 0.9490846991539001
91 140 0.9471988081932068
91 141 0.9070375561714172
91 142 0.9325503706932068
91 143 0.286560982465744
91 144 0.925269365310669
91 145 0.9550312757492065
91 146 0.9398680925369263
91 147 0.9506295919418335
91 148 0.9462783336639404
91 149 0.9490163922309875
91 151 0.915646493434906
91 152 0.9496449828147888
91 153 0.32285845279693604
91 154 0.9448174238204956
91 155 0.94706791639328
91 156 0.9542209506034851
91 157 0.9512559771537781
91 158 0.22188007831573486
91 159 0.9490163922309875
91 160 0.9449491500854492
91 161 0.9069316387176514
91 162 0.15798243880271912
91 163 0.9495095014572144
91 164 0.94325852394104
91 165 0.9549667835235596
91 166 0.9438897967338562
91 167 0.9519514441490173
91 168 0.9503076672554016
91 169 0.9419969320297241
91 170 0.3414660692214966
91 171 0.9329824447631836
91 172 0.950563371181488
91 173 0.951748251914978
91 174 0.23782573640346527
91 175 0.9353979229927063
91 176 0.9555883407592773
91 177 0.9484556913375854
91 178 0.9455791711807251
91 179 0.8262037634849548
91 180 0.9421297311782837
91 181 0.32081183791160583
91 182 0.9518648982048035
91 183 0.9523739218711853
91 184 0.9443195462226868
91 185 0.942934513092041
91 186 0.9544739127159119
91 187 0.9544739127159119
91 188 0.9506295919418335
91 189 0.9450845718383789
91 190 0.9495768547058105
91 191 0.9473333358764648
91 192 0.9488170146942139
91 193 0.9512559771537781
91 194 0.9519514441490173
91 195 0.9478271007537842
91 196 0.9495768547058105
91 197 0.918834388256073
91 198 0.0980580672621727
91 199 0.9414979219436646
91 200 0.17334380745887756
91 201 0.25556692481040955
91 202 0.9544093608856201
91 203 0.38658520579338074
91 204 0.5069447755813599
91 205 0.8789129853248596
91 206 0.5217176675796509
91 207 0.9490163922309875
91 208 0.9439581036567688
91 209 0.056613851338624954
91 210 0.2494490146636963
91 211 0.1730610877275467
91 212 0.9456472396850586
91 213 0.32217273116111755
91 214 0.38561296463012695
91 215 0.10971342772245407
91 216 0.9523739218711853
91 217 0.9495095014572144
91 218 0.9399363398551941
91 219 0.9518150687217712
91 220 0.9534904360771179
91 221 0.9478271007537842
91 222 0.9467715620994568
91 223 0.9467715620994568
91 224 0.8473259210586548
91 225 0.9511229991912842
91 226 0.9348991513252258
91 227 0.9388729929924011
91 228 0.2533166706562042
91 229 0.9378227591514587
91 230 0.33644819259643555
91 231 0.9460746645927429
91 232 0.9477604031562805
91 233 0.7808573842048645
91 234 0.2574024200439453
91 235 0.9523071050643921
91 236 0.9431261420249939
91 237 0.9502049088478088
91 238 0.9495095014572144
91 239 0.9446606040000916
91 240 0.5270758867263794
91 241 0.9417014718055725
91 242 0.36995115876197815
91 243 0.9504336714744568
91 244 0.950003445148468
91 245 0.936674952507019
91 246 0.1242498829960823
91 247 0.9495768547058105
91 248 0.9403005838394165
91 249 0.14994116127490997
91 250 0.9407117962837219
91 251 0.20695935189723969
91 252 0.9395095109939575
91 253 0.9440274238586426
91 254 0.20241022109985352
91 255 0.4926478862762451
92 94 0.07372097671031952
92 99 0.06458336859941483
92 100 0.06448258459568024
92 101 0.0641830563545227
92 102 0.06482037156820297
92 104 0.06428243219852448
92 106 0.06428243219852448
92 108 0.06444909423589706
92 110 0.06434894353151321
92 111 0.05036506801843643
92 112 0.06424925476312637
92 113 0.07044699043035507
92 115 0.0656178742647171
92 117 0.07715167105197906
92 118 0.060633908957242966
92 120 0.06461706012487411
92 121 0.06458336859941483
92 124 0.06454972177743912
92 125 0.06454972177743912
92 126 0.10425721108913422
92 129 0.08257228136062622
92 130 0.06512895971536636
92 131 0.05147986486554146
92 132 0.0641830563545227
92 133 0.06411705911159515
92 135 0.06438227742910385
92 137 0.06434894353151321
92 138 0.06428243219852448
92 139 0.06438227742910385
92 140 0.06468462198972702
92 141 0.06719131767749786
92 142 0.06551217287778854
92 145 0.06421612948179245
92 146 0.06512895971536636
92 147 0.06441566348075867
92 148 0.06454972177743912
92 151 0.05008354038000107
92 152 0.06434894353151321
92 154 0.06495697796344757
92 155 0.06482037156820297
92 156 0.06451612710952759
92 157 0.06431566923856735
92 160 0.06482037156820297
92 163 0.06448258459568024
92 164 0.0649227499961853
92 165 0.06428243219852448
92 166 0.06482037156820297
92 167 0.06415002793073654
92 168 0.06475239247083664
92 172 0.06448258459568024
92 173 0.06434894353151321
92 174 0.12126781791448593
92 176 0.0641830563545227
92 179 0.05625439062714577
92 180 0.06499126553535461
92 182 0.06478635221719742
92 183 0.06424925476312637
92 185 0.06526753306388855
92 186 0.06424925476312637
92 187 0.06424925476312637
92 188 0.06441566348075867
92 189 0.06468462198972702
92 191 0.06454972177743912
92 192 0.06465081870555878
92 193 0.06431566923856735
92 194 0.06415002793073654
92 195 0.06458336859941483
92 197 0.06629935652017593
92 199 0.06509445607662201
92 202 0.06431566923856735
92 208 0.06475239247083664
92 212 0.06465081870555878
92 216 0.06424925476312637
92 217 0.06448258459568024
92 218 0.06506000459194183
92 219 0.06428243219852448
92 220 0.0641830563545227
92 222 0.06458336859941483
92 223 0.06458336859941483
92 225 0.06444909423589706
92 226 0.06530231237411499
92 232 0.06465081870555878
92 235 0.06431566923856735
92 236 0.06506000459194183
92 237 0.06431566923856735
92 239 0.06458336859941483
92 241 0.06488857418298721
92 245 0.06512895971536636
92 250 0.06482037156820297
92 252 0.06495697796344757
92 253 0.06468462198972702
92 254 0.07372097671031952
93 94 0.05902402475476265
93 95 0.22269967198371887
93 96 0.05264981463551521
93 98 0.3812488317489624
93 99 0.377469003200531
93 100 0.3897867798805237
93 101 0.3905455470085144
93 102 0.3788542151451111
93 104 0.3860035538673401
93 106 0.3860035538673401
93 107 0.3951549828052521
93 108 0.3947444260120392
93 110 0.3889789283275604
93 111 0.40055498480796814
93 112 0.38580432534217834
93 113 0.30739492177963257
93 114 0.16178755462169647
93 115 0.3598739802837372
93 116 0.08556494116783142
93 117 0.14824986457824707
93 118 0.08738276362419128
93 119 0.05661385506391525
93 120 0.3724924325942993
93 121 0.3929814100265503
93 122 0.3778502643108368
93 123 0.38958436250686646
93 124 0.3927766978740692
93 125 0.0930260568857193
93 126 0.08347257226705551
93 127 0.38882553577423096
93 129 0.1454436182975769
93 130 0.37544330954551697
93 131 0.3846908509731293
93 132 0.3854067623615265
93 133 0.3619098365306854
93 134 0.12354156374931335
93 135 0.3840257227420807
93 136 0.31331244111061096
93 137 0.3864029049873352
93 138 0.36799004673957825
93 139 0.381448358297348
93 140 0.37806078791618347
93 141 0.3658135235309601
93 142 0.38814273476600647
93 143 0.1734175682067871
93 144 0.38526785373687744
93 145 0.39845889806747437
93 146 0.3624070882797241
93 147 0.36875271797180176
93 148 0.3643520474433899
93 149 0.38958436250686646
93 151 0.37425661087036133
93 152 0.3889789283275604
93 153 0.13557231426239014
93 154 0.3770522475242615
93 155 0.3970184624195099
93 156 0.37965866923332214
93 157 0.3887777626514435
93 158 0.10190493613481522
93 159 0.3766842186450958
93 160 0.39442354440689087
93 161 0.35892361402511597
93 162 0.10675209760665894
93 163 0.40011224150657654
93 164 0.3898485004901886
93 165 0.39115026593208313
93 166 0.3814490735530853
93 167 0.38520845770835876
93 168 0.3914177119731903
93 169 0.38326501846313477
93 170 0.09622503817081451
93 171 0.39139577746391296
93 172 0.3897867798805237
93 173 0.38382688164711
93 174 0.13592873513698578
93 175 0.3949524760246277
93 176 0.39311492443084717
93 177 0.3897867798805237
93 178 0.37566784024238586
93 179 0.2942584753036499
93 180 0.3954634368419647
93 181 0.1386750489473343
93 182 0.378655344247818
93 183 0.3729442059993744
93 184 0.3898485004901886
93 185 0.3840804696083069
93 186 0.38580432534217834
93 187 0.38580432534217834
93 188 0.39196091890335083
93 189 0.38065019249916077
93 190 0.386803537607193
93 191 0.3721042275428772
93 192 0.3804512917995453
93 193 0.38362839818000793
93 194 0.3929126560688019
93 195 0.38522520661354065
93 196 0.3842248320579529
93 197 0.36891970038414
93 198 0.1200961172580719
93 199 0.388273686170578
93 201 0.10759522765874863
93 202 0.37847900390625
93 203 0.1755908727645874
93 204 0.1527557075023651
93 205 0.36067870259284973
93 206 0.27781349420547485
93 207 0.3870043158531189
93 208 0.3758646845817566
93 210 0.18724893033504486
93 212 0.390803724527359
93 213 0.10938835889101028
93 214 0.180211141705513
93 215 0.10336228460073471
93 216 0.3832322955131531
93 217 0.37946128845214844
93 218 0.3854637145996094
93 219 0.39372363686561584
93 220 0.3905455470085144
93 221 0.38522520661354065
93 222 0.3878105878829956
93 223 0.39039599895477295
93 224 0.353156179189682
93 225 0.38958436250686646
93 226 0.368600070476532
93 227 0.39588168263435364
93 228 0.15012015402317047
93 229 0.38993823528289795
93 230 0.15629982948303223
93 231 0.37327253818511963
93 232 0.38562750816345215
93 233 0.3780922591686249
93 234 0.15012015402317047
93 235 0.3939271569252014
93 236 0.3750458061695099
93 237 0.3939271569252014
93 238 0.3691358268260956
93 239 0.36195653676986694
93 240 0.2144174873828888
93 241 0.40003377199172974
93 242 0.1618199199438095
93 243 0.3828394412994385
93 244 0.38482409715652466
93 245 0.38065779209136963
93 247 0.3842248320579529
93 248 0.38126471638679504
93 249 0.08347257226705551
93 250 0.3866388499736786
93 251 0.14484135806560516
93 252 0.37965261936187744
93 253 0.388418585062027
93 254 0.10624323785305023
93 255 0.19003716111183167
94 95 0.17576247453689575
94 96 0.0969572365283966
94 98 0.21492509543895721
94 99 0.21425171196460724
94 100 0.21867109835147858
94 101 0.20346041023731232
94 102 0.20548070967197418
94 103 0.09223131090402603
94 104 0.21325336396694183
94 106 0.21325336396694183
94 107 0.19024768471717834
94 108 0.18054752051830292
94 110 0.2039862871170044
94 111 0.1980246603488922
94 112 0.20840679109096527
94 113 0.2285105437040329
94 114 0.05675043538212776
94 115 0.21284620463848114
94 116 0.14706724882125854
94 117 0.09100314974784851
94 118 0.08939981460571289
94 120 0.21912714838981628
94 121 0.18568481504917145
94 122 0.1775565892457962
94 123 0.2043037712574005
94 124 0.19986408948898315
94 126 0.12297508865594864
94 127 0.21481242775917053
94 129 0.08928053826093674
94 130 0.20165757834911346
94 131 0.1922874003648758
94 132 0.20819206535816193
94 133 0.2032511979341507
94 135 0.20409195125102997
94 136 0.17800457775592804
94 137 0.20873016119003296
94 138 0.21799233555793762
94 139 0.20883828401565552
94 140 0.1716700941324234
94 141 0.1981363743543625
94 142 0.18352563679218292
94 143 0.060829903930425644
94 144 0.18104220926761627
94 145 0.20356525480747223
94 146 0.2064589411020279
94 147 0.2089465856552124
94 148 0.19034674763679504
94 149 0.2043037712574005
94 151 0.2067636400461197
94 152 0.20873016119003296
94 153 0.13870172202587128
94 154 0.2154911309480667
94 155 0.1863662153482437
94 156 0.21402864158153534
94 157 0.2181050330400467
94 159 0.2043037712574005
94 160 0.19114485383033752
94 161 0.20029565691947937
94 163 0.20440992712974548
94 164 0.1866605579853058
94 165 0.20377543568611145
94 166 0.21981658041477203
94 167 0.2175433337688446
94 168 0.21481242775917053
94 169 0.1920548379421234
94 171 0.20317137241363525
94 172 0.19965621829032898
94 173 0.21347402036190033
94 174 0.1609196662902832
94 175 0.2119356393814087
94 176 0.21765533089637756
94 177 0.19965621829032898
94 178 0.20038661360740662
94 179 0.19353267550468445
94 180 0.19164879620075226
94 181 0.17025130987167358
94 182 0.1958206444978714
94 183 0.21787983179092407
94 184 0.1866605579853058
94 185 0.20208662748336792
94 186 0.21314330399036407
94 187 0.21314330399036407
94 188 0.20419777929782867
94 189 0.21458761394023895
94 190 0.2089465856552124
94 191 0.1951054036617279
94 192 0.21447546780109406
94 193 0.20862220227718353
94 194 0.2128141224384308
94 195 0.20472940802574158
94 196 0.1947002112865448
94 197 0.21505674719810486
94 198 0.07372097671031952
94 199 0.1967518925666809
94 201 0.14410321414470673
94 202 0.20388077199459076
94 203 0.1732281744480133
94 204 0.09981867671012878
94 205 0.15961578488349915
94 206 0.16200898587703705
94 207 0.21380627155303955
94 208 0.21958604454994202
94 211 0.08075728267431259
94 212 0.21447546780109406
94 213 0.12949976325035095
94 214 0.24031801521778107
94 216 0.21314330399036407
94 217 0.20440992712974548
94 218 0.1966477632522583
94 219 0.21799233555793762
94 220 0.20346041023731232
94 221 0.19520710408687592
94 222 0.209490567445755
94 223 0.21901287138462067
94 224 0.16525402665138245
94 225 0.20905503630638123
94 226 0.20219431817531586
94 227 0.21583291888237
94 228 0.07372097671031952
94 229 0.17585891485214233
94 230 0.1831670105457306
94 231 0.20526520907878876
94 232 0.2049432247877121
94 233 0.1696806102991104
94 235 0.2181050330400467
94 236 0.20624034106731415
94 237 0.20862220227718353
94 238 0.171133890748024
94 239 0.209490567445755
94 240 0.15962441265583038
94 241 0.2009132355451584
94 242 0.08343982696533203
94 243 0.21436350047588348
94 244 0.1997600793838501
94 245 0.22086307406425476
94 247 0.21844415366649628
94 248 0.1923610419034958
94 250 0.21503795683383942
94 252 0.22027984261512756
94 253 0.2002817839384079
94 254 0.1304347664117813
94 255 0.17498140037059784
95 96 0.07621312141418457
95 98 0.47839978337287903
95 99 0.4726237654685974
95 100 0.486832857131958
95 101 0.4760701656341553
95 102 0.45718684792518616
95 103 0.1242828443646431
95 104 0.4725501239299774
95 105 0.16062314808368683
95 106 0.4619070887565613
95 107 0.4721316993236542
95 108 0.4695070683956146
95 109 0.05735393241047859
95 110 0.46877744793891907
95 111 0.46697115898132324
95 112 0.4723062217235565
95 113 0.47354480624198914
95 114 0.18480710685253143
95 115 0.4693301320075989
95 116 0.31141775846481323
95 117 0.08175191283226013
95 118 0.13652966916561127
95 120 0.47714972496032715
95 121 0.44268378615379333
95 122 0.46989741921424866
95 123 0.4716411828994751
95 124 0.4616902470588684
95 125 0.17099639773368835
95 126 0.05523681640625
95 127 0.4695723354816437
95 129 0.31717202067375183
95 130 0.472303181886673
95 131 0.45230546593666077
95 132 0.47181957960128784
95 133 0.47133439779281616
95 134 0.15328483283519745
95 135 0.4583606719970703
95 136 0.31706076860427856
95 137 0.46877744793891907
95 138 0.47893592715263367
95 139 0.4583606719970703
95 140 0.4690808951854706
95 141 0.476134330034256
95 142 0.4620662331581116
95 143 0.2527379095554352
95 144 0.46813300251960754
95 145 0.45930424332618713
95 146 0.4270138442516327
95 147 0.4585983455181122
95 148 0.47451499104499817
95 149 0.4631046950817108
95 151 0.45772719383239746
95 152 0.4645158350467682
95 153 0.2429729700088501
95 154 0.4689050316810608
95 155 0.47006532549858093
95 156 0.4721316993236542
95 157 0.4557567536830902
95 158 0.13112200796604156
95 159 0.4588364362716675
95 160 0.42713701725006104
95 161 0.4273430407047272
95 162 0.17660431563854218
95 163 0.4526691436767578
95 164 0.45575907826423645
95 165 0.46403568983078003
95 166 0.4743581712245941
95 167 0.465204119682312
95 168 0.47600483894348145
95 169 0.46798989176750183
95 170 0.22041550278663635
95 171 0.4823671281337738
95 172 0.4654805362224579
95 173 0.45173099637031555
95 174 0.08031157404184341
95 175 0.4500140845775604
95 176 0.4633182883262634
95 177 0.4676157832145691
95 178 0.4607542157173157
95 179 0.46941784024238586
95 180 0.4691525399684906
95 181 0.23578837513923645
95 182 0.47625452280044556
95 183 0.4489036500453949
95 184 0.46650809049606323
95 185 0.46898558735847473
95 186 0.4659236967563629
95 187 0.47868871688842773
95 188 0.47352948784828186
95 189 0.47550666332244873
95 190 0.45006629824638367
95 191 0.44672805070877075
95 192 0.4688357710838318
95 193 0.4557567536830902
95 194 0.46307989954948425
95 195 0.4726237654685974
95 196 0.4607313871383667
95 197 0.45225057005882263
95 199 0.46558642387390137
95 200 0.11707323044538498
95 201 0.19418084621429443
95 202 0.4642755389213562
95 203 0.22823984920978546
95 204 0.24455799162387848
95 205 0.42323029041290283
95 206 0.2910788059234619
95 207 0.4695070683956146
95 208 0.443842351436615
95 210 0.12227899581193924
95 211 0.10882143676280975
95 212 0.4538501501083374
95 213 0.20681780576705933
95 214 0.22616803646087646
95 215 0.06839855760335922
95 216 0.4680512249469757
95 217 0.4569396376609802
95 218 0.467494398355484
95 219 0.4725501239299774
95 220 0.4633182883262634
95 221 0.46834659576416016
95 222 0.4640694558620453
95 223 0.4662080407142639
95 224 0.4477580785751343
95 225 0.4631046950817108
95 226 0.4627484083175659
95 227 0.4567226469516754
95 228 0.06622661650180817
95 229 0.4541964530944824
95 230 0.17629987001419067
95 231 0.4717164933681488
95 232 0.4752581715583801
95 233 0.36793723702430725
95 234 0.10761824995279312
95 235 0.4664052724838257
95 236 0.4545682668685913
95 237 0.4664052724838257
95 238 0.4633452892303467
95 239 0.4576537609100342
95 240 0.26415279507637024
95 241 0.4555191397666931
95 242 0.20345598459243774
95 243 0.45147350430488586
95 244 0.4614499807357788
95 245 0.4701465368270874
95 247 0.475662499666214
95 248 0.46873605251312256
95 250 0.45718684792518616
95 251 0.06988826394081116
95 252 0.4473956227302551
95 253 0.45408743619918823
95 254 0.2245853990316391
95 255 0.1847018599510193
96 98 0.19171461462974548
96 99 0.19642265141010284
96 100 0.1749143898487091
96 101 0.16882605850696564
96 102 0.19714346528053284
96 104 0.19550737738609314
96 106 0.19022341072559357
96 107 0.18030858039855957
96 108 0.1695258766412735
96 110 0.1904202401638031
96 111 0.1876792460680008
96 112 0.17956271767616272
96 113 0.18530263006687164
96 115 0.1510251760482788
96 116 0.15226826071739197
96 120 0.19121365249156952
96 121 0.18049649894237518
96 122 0.18727558851242065
96 123 0.19601428508758545
96 124 0.1963203251361847
96 127 0.1650010347366333
96 129 0.12669813632965088
96 130 0.18202130496501923
96 131 0.174906924366951
96 132 0.19520513713359833
96 133 0.195004403591156
96 135 0.19051888585090637
96 136 0.10950431227684021
96 137 0.185130774974823
96 138 0.19022341072559357
96 139 0.19581106305122375
96 140 0.1967305988073349
96 141 0.18778513371944427
96 142 0.18847736716270447
96 143 0.05086938291788101
96 144 0.16912893950939178
96 145 0.19002720713615417
96 146 0.1927284449338913
96 147 0.1906176656484604
96 148 0.1963203251361847
96 149 0.19601428508758545
96 151 0.1921192705631256
96 152 0.19570967555046082
96 153 0.09279213100671768
96 154 0.19221951067447662
96 155 0.1811588704586029
96 156 0.185611754655838
96 157 0.19032174348831177
96 159 0.18541891872882843
96 160 0.19181527197360992
96 161 0.19541485607624054
96 162 0.10959932953119278
96 163 0.18551526963710785
96 164 0.17610836029052734
96 165 0.17965543270111084
96 166 0.1811588704586029
96 167 0.1951046884059906
96 168 0.18629147112369537
96 169 0.18202130496501923
96 170 0.06079476699233055
96 171 0.18338771164417267
96 172 0.16961395740509033
96 173 0.185130774974823
96 175 0.1611204296350479
96 176 0.18465350568294525
96 177 0.19081571698188782
96 178 0.18619392812252045
96 179 0.1972942054271698
96 180 0.1816364824771881
96 181 0.06327719986438751
96 182 0.19171461462974548
96 183 0.184843972325325
96 184 0.18144498765468597
96 185 0.19850344955921173
96 186 0.184843972325325
96 187 0.184843972325325
96 188 0.1694379299879074
96 189 0.17546242475509644
96 190 0.1906176656484604
96 191 0.1963203251361847
96 192 0.1753707379102707
96 193 0.1797483116388321
96 194 0.17928540706634521
96 195 0.18580520153045654
96 196 0.1906176656484604
96 197 0.1798425167798996
96 199 0.18192486464977264
96 200 0.05812381953001022
96 201 0.10042266547679901
96 202 0.18503502011299133
96 203 0.0901370644569397
96 204 0.0910625234246254
96 205 0.1894550323486328
96 206 0.10458183288574219
96 207 0.18541891872882843
96 208 0.19161410629749298
96 209 0.09491580724716187
96 212 0.18599925935268402
96 213 0.06417479366064072
96 214 0.15311802923679352
96 216 0.184843972325325
96 217 0.19081571698188782
96 218 0.1818285882472992
96 219 0.19550737738609314
96 220 0.18465350568294525
96 221 0.1911139339208603
96 222 0.18580520153045654
96 223 0.18580520153045654
96 224 0.17237187922000885
96 225 0.19601428508758545
96 226 0.182505801320076
96 227 0.19252438843250275
96 228 0.0616496205329895
96 229 0.1634034365415573
96 231 0.1969367116689682
96 232 0.19131353497505188
96 233 0.15005142986774445
96 235 0.195608451962471
96 236 0.19252438843250275
96 237 0.1797483116388321
96 238 0.1961161345243454
96 239 0.17518776655197144
96 240 0.14051252603530884
96 241 0.1920170783996582
96 243 0.18590214848518372
96 244 0.1697021871805191
96 245 0.176667720079422
96 246 0.07352146506309509
96 247 0.18532273173332214
96 248 0.1876736283302307
96 250 0.1811588704586029
96 252 0.19221951067447662
96 253 0.19141356647014618
96 254 0.07271792739629745
96 255 0.058531709015369415
97 98 0.09351105988025665
97 99 0.10253987461328506
97 100 0.10237986594438553
97 101 0.11116830259561539
97 102 0.11227217316627502
97 103 0.06019292399287224
97 104 0.07422696053981781
97 106 0.10206207633018494
97 107 0.10243312269449234
97 108 0.11162911355495453
97 110 0.11145563423633575
97 111 0.10662039369344711
97 112 0.11128297448158264
97 113 0.09151333570480347
97 115 0.11365348845720291
97 116 0.061701755970716476
97 120 0.11192003637552261
97 121 0.10253987461328506
97 122 0.11274690181016922
97 123 0.10232669115066528
97 124 0.10248646140098572
97 127 0.10280823707580566
97 128 0.05270463228225708
97 129 0.09534625709056854
97 130 0.10340611636638641
97 131 0.10898036509752274
97 132 0.11116830259561539
97 133 0.11105399578809738
97 135 0.11151337623596191
97 136 0.08412391692399979
97 137 0.09287970513105392
97 138 0.11134044080972672
97 139 0.11151337623596191
97 140 0.10270064324140549
97 141 0.10668054223060608
97 142 0.1134704202413559
97 144 0.09580021351575851
97 145 0.11122559756040573
97 146 0.11280666291713715
97 147 0.1022736057639122
97 148 0.10248646140098572
97 149 0.11162911355495453
97 151 0.07710865885019302
97 152 0.11145563423633575
97 153 0.10862509161233902
97 154 0.10313306003808975
97 155 0.1029161661863327
97 156 0.10243312269449234
97 157 0.11139799654483795
97 159 0.11162911355495453
97 160 0.11227217316627502
97 161 0.11764705181121826
97 163 0.09307260066270828
97 164 0.10307870805263519
97 165 0.11134044080972672
97 166 0.09356015175580978
97 167 0.1111111119389534
97 168 0.11215443164110184
97 169 0.11280666291713715
97 171 0.10418237000703812
97 172 0.10237986594438553
97 173 0.11145563423633575
97 175 0.10373666137456894
97 176 0.11116830259561539
97 177 0.10237986594438553
97 178 0.1027543917298317
97 179 0.05413081869482994
97 180 0.10318750143051147
97 181 0.0555555559694767
97 182 0.1028621643781662
97 183 0.11128297448158264
97 184 0.11244949698448181
97 185 0.10362612456083298
97 186 0.10200940072536469
97 187 0.11128297448158264
97 188 0.11157120019197464
97 189 0.1120370551943779
97 190 0.11157120019197464
97 191 0.11180340498685837
97 192 0.11197850108146667
97 193 0.11139799654483795
97 194 0.1111111119389534
97 195 0.09321806579828262
97 196 0.11157120019197464
97 197 0.11483385413885117
97 199 0.11274690181016922
97 200 0.05103103443980217
97 201 0.10580184310674667
97 202 0.11139799654483795
97 204 0.05330017954111099
97 205 0.0705668106675148
97 206 0.08347257226705551
97 207 0.11162911355495453
97 208 0.11215443164110184
97 212 0.11197850108146667
97 216 0.11128297448158264
97 217 0.10237986594438553
97 218 0.11268723011016846
97 219 0.11134044080972672
97 220 0.10190428793430328
97 221 0.11186166852712631
97 222 0.09321806579828262
97 223 0.11186166852712631
97 224 0.07305949926376343
97 225 0.11162911355495453
97 226 0.09425577521324158
97 227 0.11268723011016846
97 229 0.08607810735702515
97 231 0.11215443164110184
97 232 0.11197850108146667
97 233 0.06873433291912079
97 235 0.11139799654483795
97 236 0.10329663008451462
97 237 0.11139799654483795
97 238 0.11168711632490158
97 239 0.11186166852712631
97 241 0.1030244380235672
97 243 0.11192003637552261
97 244 0.10243312269449234
97 245 0.08460500091314316
97 247 0.1022736057639122
97 248 0.094155453145504
97 250 0.1029161661863327
97 251 0.08703882992267609
97 252 0.11250878125429153
97 253 0.1120370551943779
97 255 0.05138915404677391
98 99 0.9592097401618958
98 100 0.9577129483222961
98 101 0.9615805149078369
98 102 0.9564306139945984
98 103 0.14859777688980103
98 104 0.9641105532646179
98 105 0.13356049358844757
98 106 0.9630694389343262
98 107 0.9561212062835693
98 108 0.9561716914176941
98 109 0.11221326142549515
98 110 0.9588547348976135
98 111 0.9179820418357849
98 112 0.9646536111831665
98 113 0.8762887120246887
98 114 0.3148205280303955
98 115 0.9395025968551636
98 116 0.4292728006839752
98 117 0.1849398910999298
98 118 0.24355147778987885
98 120 0.9576170444488525
98 121 0.9539795517921448
98 122 0.9488772749900818
98 123 0.9582594037055969
98 124 0.9566190242767334
98 125 0.2383706420660019
98 126 0.15535221993923187
98 127 0.9533299803733826
98 128 0.17151057720184326
98 129 0.5492212176322937
98 130 0.953599750995636
98 131 0.8982785940170288
98 132 0.9626200795173645
98 133 0.9647456407546997
98 134 0.20493340492248535
98 135 0.9572658538818359
98 136 0.7457457184791565
98 137 0.9609392285346985
98 138 0.9599459767341614
98 139 0.9572658538818359
98 140 0.9544275999069214
98 141 0.9206764698028564
98 142 0.9464777708053589
98 143 0.3006990849971771
98 144 0.9298796653747559
98 145 0.9620760679244995
98 146 0.9504351615905762
98 147 0.958805501461029
98 148 0.9576645493507385
98 149 0.9582594037055969
98 151 0.9269112348556519
98 152 0.9588547348976135
98 153 0.31996583938598633
98 154 0.9510816335678101
98 155 0.9532809853553772
98 156 0.9561212062835693
98 157 0.9594005346298218
98 158 0.2061489224433899
98 159 0.9613909721374512
98 160 0.951181173324585
98 161 0.9098075032234192
98 162 0.1835613250732422
98 163 0.9556241035461426
98 164 0.9505804181098938
98 165 0.9589048027992249
98 166 0.9564306139945984
98 167 0.962124764919281
98 168 0.9512324333190918
98 169 0.9472705721855164
98 170 0.3294225335121155
98 171 0.9395025968551636
98 172 0.9556241035461426
98 173 0.9588547348976135
98 174 0.2356949895620346
98 175 0.9471238851547241
98 176 0.9605409502983093
98 177 0.9566685557365417
98 178 0.9559754133224487
98 179 0.8321648240089417
98 180 0.9515836834907532
98 181 0.333522766828537
98 182 0.9559286832809448
98 183 0.9604911208152771
98 184 0.9495289325714111
98 185 0.9482288360595703
98 186 0.9615316987037659
98 187 0.9625723958015442
98 188 0.958805501461029
98 189 0.9575705528259277
98 190 0.9577622413635254
98 191 0.9555734992027283
98 192 0.9560230374336243
98 193 0.961483895778656
98 194 0.962124764919281
98 195 0.9560716152191162
98 196 0.9577622413635254
98 197 0.9310048818588257
98 198 0.12147441506385803
98 199 0.9478229284286499
98 200 0.18324348330497742
98 201 0.24931974709033966
98 202 0.9604421854019165
98 203 0.38819611072540283
98 204 0.5083839297294617
98 205 0.8868755102157593
98 206 0.5432702898979187
98 207 0.9572155475616455
98 208 0.9522812366485596
98 209 0.056106630712747574
98 210 0.259176105260849
98 211 0.16559642553329468
98 212 0.9549759030342102
98 213 0.3129638135433197
98 214 0.4098142981529236
98 215 0.10873046517372131
98 216 0.9604911208152771
98 217 0.9577129483222961
98 218 0.9494287967681885
98 219 0.9599459767341614
98 220 0.9646991491317749
98 221 0.9550256133079529
98 222 0.9602557420730591
98 223 0.9550256133079529
98 224 0.8584733605384827
98 225 0.9593032002449036
98 226 0.9434458017349243
98 227 0.9504826068878174
98 228 0.23485052585601807
98 229 0.9283472895622253
98 230 0.32481056451797485
98 231 0.9554275274276733
98 232 0.9539288282394409
98 233 0.772575855255127
98 234 0.24699798226356506
98 235 0.9594005346298218
98 236 0.9525901079177856
98 237 0.9583587646484375
98 238 0.9587572813034058
98 239 0.9571176171302795
98 240 0.5555775165557861
98 241 0.9490290284156799
98 242 0.3823496699333191
98 243 0.9565705060958862
98 244 0.9603009819984436
98 245 0.951490044593811
98 246 0.1448667049407959
98 247 0.9577622413635254
98 248 0.953007161617279
98 249 0.14859777688980103
98 250 0.9522311091423035
98 251 0.16603748500347137
98 252 0.9489774703979492
98 253 0.9523321986198425
98 254 0.21970121562480927
98 255 0.5209112167358398
99 100 0.9630413055419922
99 101 0.9647854566574097
99 102 0.9544805288314819
99 103 0.14813220500946045
99 104 0.9652414917945862
99 105 0.11747825890779495
99 106 0.9662793874740601
99 107 0.9604172110557556
99 108 0.9604598879814148
99 109 0.11186166852712631
99 110 0.9610453844070435
99 111 0.9226955771446228
99 112 0.9668179750442505
99 113 0.8792303204536438
99 114 0.3076196014881134
99 115 0.9482129216194153
99 116 0.4463333189487457
99 117 0.1893431693315506
99 118 0.2623681128025055
99 120 0.9587898850440979
99 121 0.9582898616790771
99 122 0.9522103071212769
99 123 0.959419310092926
99 124 0.9609172344207764
99 125 0.23345494270324707
99 126 0.15486548840999603
99 127 0.9566159248352051
99 128 0.17097321152687073
99 129 0.5617212057113647
99 130 0.9516635537147522
99 131 0.9010053873062134
99 132 0.9647854566574097
99 133 0.9710399508476257
99 134 0.1993086040019989
99 135 0.9625826478004456
99 136 0.7460978031158447
99 137 0.9631232619285583
99 138 0.9642035365104675
99 139 0.9615431427955627
99 140 0.956659197807312
99 141 0.9232161045074463
99 142 0.94774329662323
99 143 0.2697812616825104
99 144 0.9366108179092407
99 145 0.9632090330123901
99 146 0.9527150988578796
99 147 0.9630818367004395
99 148 0.9630016088485718
99 149 0.9625411033630371
99 151 0.930476188659668
99 152 0.9620842933654785
99 153 0.31592559814453125
99 154 0.9533457159996033
99 155 0.9534339308738708
99 156 0.9645838737487793
99 157 0.9636635780334473
99 158 0.20093630254268646
99 159 0.9625411033630371
99 160 0.9534339308738708
99 161 0.912440299987793
99 162 0.19375009834766388
99 163 0.9640824198722839
99 164 0.9570361971855164
99 165 0.9621278047561646
99 166 0.9555270671844482
99 167 0.9663605690002441
99 168 0.9576614499092102
99 169 0.9506120085716248
99 170 0.3433172404766083
99 171 0.9450345635414124
99 172 0.9609590172767639
99 173 0.9610453844070435
99 174 0.2623681128025055
99 175 0.9483760595321655
99 176 0.9637491703033447
99 177 0.9620001316070557
99 178 0.9571599364280701
99 179 0.831979513168335
99 180 0.9527995586395264
99 181 0.32315593957901
99 182 0.9581636786460876
99 183 0.963705837726593
99 184 0.9528432488441467
99 185 0.9547421336174011
99 186 0.9657806158065796
99 187 0.963705837726593
99 188 0.9610016942024231
99 189 0.9577035307884216
99 190 0.9610016942024231
99 191 0.9588328003883362
99 192 0.9603345394134521
99 193 0.9626251459121704
99 194 0.9663605690002441
99 195 0.9593325853347778
99 196 0.9610016942024231
99 197 0.9323697090148926
99 198 0.1130208894610405
99 199 0.9501083493232727
99 200 0.15412726998329163
99 201 0.2445935606956482
99 202 0.9636635780334473
99 203 0.39203837513923645
99 204 0.49486657977104187
99 205 0.8942459225654602
99 206 0.5228933691978455
99 207 0.9615004658699036
99 208 0.9545249342918396
99 209 0.055930834263563156
99 210 0.24246475100517273
99 211 0.17097321152687073
99 212 0.9582468867301941
99 213 0.3245886266231537
99 214 0.40853026509284973
99 215 0.1000521183013916
99 216 0.9647432565689087
99 217 0.9630413055419922
99 218 0.9517063498497009
99 219 0.9642035365104675
99 220 0.9658217430114746
99 221 0.9614181518554688
99 222 0.9603754281997681
99 223 0.9582898616790771
99 224 0.8604536056518555
99 225 0.9635816812515259
99 226 0.946816086769104
99 227 0.9506559371948242
99 228 0.2542969882488251
99 229 0.9350674152374268
99 230 0.3524470925331116
99 231 0.9576614499092102
99 232 0.9572030305862427
99 233 0.78425133228302
99 234 0.2381511777639389
99 235 0.9626251459121704
99 236 0.9559081792831421
99 237 0.9636635780334473
99 238 0.9620001316070557
99 239 0.9635035991668701
99 240 0.5483168363571167
99 241 0.9544370770454407
99 242 0.37593042850494385
99 243 0.9598332047462463
99 244 0.9593755602836609
99 245 0.9537667036056519
99 246 0.1444128006696701
99 247 0.9620417952537537
99 248 0.9489679336547852
99 249 0.15486548840999603
99 250 0.9555270671844482
99 251 0.18012170493602753
99 252 0.9512481689453125
99 253 0.9556147456169128
99 254 0.21901287138462067
99 255 0.5116144418716431
100 101 0.9663839340209961
100 102 0.9561258554458618
100 103 0.15462380647659302
100 104 0.9647715091705322
100 105 0.13293425738811493
100 106 0.9637352228164673
100 107 0.9620386362075806
100 108 0.9631170034408569
100 109 0.11168711632490158
100 110 0.9657697081565857
100 111 0.9223383069038391
100 112 0.9653093218803406
100 113 0.8778583407402039
100 114 0.3257540762424469
100 115 0.9551957249641418
100 116 0.4341513514518738
100 117 0.20894746482372284
100 118 0.26195868849754333
100 120 0.9604187607765198
100 121 0.9588767886161804
100 122 0.9528231620788574
100 123 0.9631170034408569
100 124 0.9614989161491394
100 125 0.24557766318321228
100 126 0.15462380647659302
100 127 0.9561669826507568
100 128 0.14716069400310516
100 129 0.5679439306259155
100 130 0.9533282518386841
100 131 0.9018124341964722
100 132 0.9674186110496521
100 133 0.9684910774230957
100 134 0.20894746482372284
100 135 0.9652321338653564
100 136 0.7583557367324829
100 137 0.9647324085235596
100 138 0.9647715091705322
100 139 0.9631562829017639
100 140 0.9572518467903137
100 141 0.9217754602432251
100 142 0.950488805770874
100 143 0.29928919672966003
100 144 0.9351493120193481
100 145 0.9648115634918213
100 146 0.9512283802032471
100 147 0.9646941423416138
100 148 0.9646207094192505
100 149 0.9620780944824219
100 151 0.930100679397583
100 152 0.9636949896812439
100 153 0.33363062143325806
100 154 0.9549994468688965
100 155 0.9550809264183044
100 156 0.9620386362075806
100 157 0.9642333984375
100 158 0.2188611477613449
100 159 0.961039125919342
100 160 0.9550809264183044
100 161 0.9099214673042297
100 162 0.18807420134544373
100 163 0.9636174440383911
100 164 0.9555427432060242
100 165 0.9647715091705322
100 166 0.9561258554458618
100 167 0.9658867120742798
100 168 0.9592984914779663
100 169 0.9533282518386841
100 170 0.33980080485343933
100 171 0.9456754922866821
100 172 0.9615384936332703
100 173 0.9626576900482178
100 174 0.26195868849754333
100 175 0.9490026831626892
100 176 0.9653492569923401
100 177 0.9604989290237427
100 178 0.9577528834342957
100 179 0.828262984752655
100 180 0.9565512537956238
100 181 0.33195894956588745
100 182 0.9566685557365417
100 183 0.9642735719680786
100 184 0.9555427432060242
100 185 0.9500958323478699
100 186 0.9653093218803406
100 187 0.9642735719680786
100 188 0.9615789651870728
100 189 0.9582945704460144
100 190 0.9626173377037048
100 191 0.9604583382606506
100 192 0.9619625806808472
100 193 0.9683805704116821
100 194 0.9669209122657776
100 195 0.9588767886161804
100 196 0.9626173377037048
100 197 0.9319835901260376
100 198 0.12896516919136047
100 199 0.9528231620788574
100 200 0.17668478190898895
100 201 0.25602856278419495
100 202 0.9631965160369873
100 203 0.4015279710292816
100 204 0.5020316243171692
100 205 0.8883467316627502
100 206 0.5388584733009338
100 207 0.9631170034408569
100 208 0.9582546949386597
100 209 0.05584355816245079
100 210 0.25796088576316833
100 211 0.17070640623569489
100 212 0.9598782062530518
100 213 0.30205708742141724
100 214 0.41289758682250977
100 215 0.11654532700777054
100 216 0.9642735719680786
100 217 0.9604989290237427
100 218 0.9544165134429932
100 219 0.9658077955245972
100 220 0.9653492569923401
100 221 0.9599179029464722
100 222 0.9599179029464722
100 223 0.9599179029464722
100 224 0.8567795157432556
100 225 0.9631170034408569
100 226 0.9495494961738586
100 227 0.9554653167724609
100 228 0.23777954280376434
100 229 0.9368128776550293
100 230 0.354758083820343
100 231 0.9582546949386597
100 232 0.9588359594345093
100 233 0.7907041907310486
100 234 0.22971922159194946
100 235 0.9631965160369873
100 236 0.9533677101135254
100 237 0.9652701616287231
100 238 0.9615384936332703
100 239 0.9620001316070557
100 240 0.5548096895217896
100 241 0.9539936780929565
100 242 0.37534379959106445
100 243 0.9583353996276855
100 244 0.96099853515625
100 245 0.9533282518386841
100 246 0.12976869940757751
100 247 0.9657326340675354
100 248 0.950641930103302
100 249 0.14117825031280518
100 250 0.9561258554458618
100 251 0.19928286969661713
100 252 0.9570937156677246
100 253 0.9593372941017151
100 254 0.20916365087032318
100 255 0.5242083072662354
101 102 0.9600052237510681
101 103 0.15390555560588837
101 104 0.9695731401443481
101 105 0.12453342229127884
101 106 0.9726674556732178
101 107 0.9668866395950317
101 108 0.9658820629119873
101 109 0.11116830259561539
101 110 0.9705763459205627
101 111 0.9245190620422363
101 112 0.9701035618782043
101 113 0.887345016002655
101 114 0.3273289203643799
101 115 0.9486528635025024
101 116 0.42984819412231445
101 117 0.20797687768936157
101 118 0.26074185967445374
101 120 0.963215172290802
101 121 0.9658217430114746
101 122 0.9577975273132324
101 123 0.9658820629119873
101 124 0.9673900604248047
101 125 0.24443690478801727
101 126 0.13383091986179352
101 127 0.9621154069900513
101 128 0.16405436396598816
101 129 0.5723720192909241
101 130 0.9562151432037354
101 131 0.9075357913970947
101 132 0.9701338410377502
101 133 0.9711939096450806
101 134 0.20302504301071167
101 135 0.9669467806816101
101 136 0.7534970641136169
101 137 0.9674786925315857
101 138 0.9706045985221863
101 139 0.9669467806816101
101 140 0.9631842970848083
101 141 0.9304313063621521
101 142 0.9502783417701721
101 143 0.3045189380645752
101 144 0.937195360660553
101 145 0.9706338047981262
101 146 0.9572601914405823
101 147 0.9664146304130554
101 148 0.9653186202049255
101 149 0.9669162631034851
101 151 0.9354237914085388
101 152 0.9674786925315857
101 153 0.3320808708667755
101 154 0.9578592777252197
101 155 0.9610453248023987
101 156 0.9668866395950317
101 157 0.9690423011779785
101 158 0.20876766741275787
101 159 0.9658820629119873
101 160 0.9620854258537292
101 161 0.917683482170105
101 162 0.19254916906356812
101 163 0.9663839340209961
101 164 0.9594379663467407
101 165 0.9706045985221863
101 166 0.9641656279563904
101 167 0.9716933965682983
101 168 0.9631544351577759
101 169 0.9593502879142761
101 170 0.34415605664253235
101 171 0.950758695602417
101 172 0.9674186110496521
101 173 0.9695438146591187
101 174 0.26074185967445374
101 175 0.9550782442092896
101 176 0.9701338410377502
101 177 0.9674186110496521
101 178 0.9626500606536865
101 179 0.8316366672515869
101 180 0.9594076871871948
101 181 0.3304169178009033
101 182 0.9615805149078369
101 183 0.9731963872909546
101 184 0.960479736328125
101 185 0.9530133008956909
101 186 0.9711344838142395
101 187 0.9721654057502747
101 188 0.9684817790985107
101 189 0.9652601480484009
101 190 0.9664146304130554
101 191 0.9663543701171875
101 192 0.9637182950973511
101 193 0.9690423011779785
101 194 0.9706640243530273
101 195 0.9668580293655396
101 196 0.9674481749534607
101 197 0.9393563866615295
101 198 0.1283661127090454
101 199 0.9588419795036316
101 200 0.18153709173202515
101 201 0.26268044114112854
101 202 0.9690423011779785
101 203 0.4046899974346161
101 204 0.4878489673137665
101 205 0.8909443020820618
101 206 0.5382112860679626
101 207 0.9669162631034851
101 208 0.9610764384269714
101 209 0.055584151297807693
101 210 0.25676262378692627
101 211 0.1757725328207016
101 212 0.9647557139396667
101 213 0.319444864988327
101 214 0.4035072326660156
101 215 0.12428995221853256
101 216 0.969072699546814
101 217 0.9663839340209961
101 218 0.9562467336654663
101 219 0.96854168176651
101 220 0.9721935987472534
101 221 0.9637491703033447
101 222 0.9637491703033447
101 223 0.9647854566574097
101 224 0.8562804460525513
101 225 0.9658820629119873
101 226 0.9566647410392761
101 227 0.9583345651626587
101 228 0.24870933592319489
101 229 0.9399039149284363
101 230 0.3531101644039154
101 231 0.9621154069900513
101 232 0.9647557139396667
101 233 0.7857577800750732
101 234 0.25272077322006226
101 235 0.9690423011779785
101 236 0.9572906494140625
101 237 0.9700742959976196
101 238 0.9653492569923401
101 239 0.9647854566574097
101 240 0.5430895686149597
101 241 0.9599740505218506
101 242 0.3917613625526428
101 243 0.9652888774871826
101 244 0.9689571261405945
101 245 0.9572601914405823
101 246 0.12199001759290695
101 247 0.9674481749534607
101 248 0.9545996785163879
101 249 0.14721401035785675
101 250 0.9600052237510681
101 251 0.20803311467170715
101 252 0.9578592777252197
101 253 0.9652601480484009
101 254 0.20346041023731232
101 255 0.5293903946876526
102 103 0.148675799369812
102 104 0.9604499936103821
102 105 0.11790937185287476
102 106 0.9583665728569031
102 107 0.9555777311325073
102 108 0.9577181935310364
102 109 0.1029161661863327
102 110 0.9593581557273865
102 111 0.915199339389801
102 112 0.9651601910591125
102 113 0.8744657039642334
102 114 0.3305791914463043
102 115 0.9421225190162659
102 116 0.42487993836402893
102 117 0.20004001259803772
102 118 0.26333093643188477
102 120 0.9549785256385803
102 121 0.9555270671844482
102 122 0.9483206868171692
102 123 0.956673800945282
102 124 0.9560753703117371
102 125 0.2384958267211914
102 126 0.155433788895607
102 127 0.9559292197227478
102 128 0.16568337380886078
102 129 0.5709190964698792
102 130 0.9456571340560913
102 131 0.8931887149810791
102 132 0.9662457704544067
102 133 0.9642132520675659
102 134 0.20004001259803772
102 135 0.9588118195533752
102 136 0.7542328834533691
102 137 0.9624865651130676
102 138 0.9635751247406006
102 139 0.9577685594558716
102 140 0.9559770226478577
102 141 0.9233375787734985
102 142 0.9416666030883789
102 143 0.3008570075035095
102 144 0.9303679466247559
102 145 0.9615405797958374
102 146 0.9498788118362427
102 147 0.9593090415000916
102 148 0.9602594971656799
102 149 0.9598069190979004
102 151 0.9219872355461121
102 152 0.9593581557273865
102 153 0.3140360713005066
102 154 0.9484230875968933
102 155 0.9548319578170776
102 156 0.9566232562065125
102 157 0.9609465003013611
102 158 0.22000762820243835
102 159 0.9598069190979004
102 160 0.950630247592926
102 161 0.9091845154762268
102 162 0.18905940651893616
102 163 0.9582157731056213
102 164 0.9479233026504517
102 165 0.9625334143638611
102 166 0.9537815451622009
102 167 0.9615904092788696
102 168 0.950682520866394
102 169 0.9467125535011292
102 170 0.33558812737464905
102 171 0.936805784702301
102 172 0.9582157731056213
102 173 0.9614437818527222
102 174 0.26333093643188477
102 175 0.9412685036659241
102 176 0.9620854258537292
102 177 0.9582157731056213
102 178 0.9564773440361023
102 179 0.8240934014320374
102 180 0.9489237666130066
102 181 0.31810450553894043
102 182 0.950131356716156
102 183 0.962036669254303
102 184 0.9489754438400269
102 185 0.9434384107589722
102 186 0.9589132070541382
102 187 0.9589132070541382
102 188 0.9572213292121887
102 189 0.9517841339111328
102 190 0.9572213292121887
102 191 0.9571213722229004
102 192 0.9544297456741333
102 193 0.9609465003013611
102 194 0.9615904092788696
102 195 0.9576202034950256
102 196 0.9561774730682373
102 197 0.9325680732727051
102 198 0.12964074313640594
102 199 0.9472658038139343
102 200 0.1776103377342224
102 201 0.2454911321401596
102 202 0.9588619470596313
102 203 0.39093855023384094
102 204 0.5086508989334106
102 205 0.8839457631111145
102 206 0.5304352641105652
102 207 0.9577181935310364
102 208 0.9548798203468323
102 210 0.2593122124671936
102 211 0.16568337380886078
102 212 0.9544297456741333
102 213 0.30680230259895325
102 214 0.39745190739631653
102 215 0.11715584248304367
102 216 0.9609954953193665
102 217 0.9582157731056213
102 218 0.9509817361831665
102 219 0.9614917039871216
102 220 0.9620854258537292
102 221 0.9544805288314819
102 222 0.9565736651420593
102 223 0.9565736651420593
102 224 0.8483779430389404
102 225 0.9577181935310364
102 226 0.9428830146789551
102 227 0.9488730430603027
102 228 0.23902513086795807
102 229 0.9299085736274719
102 230 0.34223672747612
102 231 0.9538305401802063
102 232 0.9554774165153503
102 233 0.7794122695922852
102 234 0.24712766706943512
102 235 0.9578197598457336
102 236 0.9467644691467285
102 237 0.9588619470596313
102 238 0.9561258554458618
102 239 0.9544805288314819
102 240 0.5503290295600891
102 241 0.9547849893569946
102 242 0.3825504183769226
102 243 0.9528842568397522
102 244 0.9576687812805176
102 245 0.9488233923912048
102 246 0.13044849038124084
102 247 0.9593090415000916
102 248 0.946107804775238
102 249 0.148675799369812
102 250 0.950630247592926
102 251 0.21498484909534454
102 252 0.9505284428596497
102 253 0.9549288153648376
102 254 0.21503795683383942
102 255 0.5192615389823914
103 104 0.12733623385429382
103 106 0.15414386987686157
103 107 0.1547042578458786
103 108 0.1478242129087448
103 110 0.15430335700511932
103 111 0.1260221153497696
103 112 0.13396896421909332
103 113 0.161581352353096
103 115 0.15734612941741943
103 116 0.07428018003702164
103 120 0.15494629740715027
103 121 0.14139892160892487
103 122 0.14930444955825806
103 123 0.14110493659973145
103 124 0.12786570191383362
103 125 0.05383818969130516
103 127 0.1552707850933075
103 129 0.10330506414175034
103 130 0.15617378056049347
103 131 0.13596773147583008
103 132 0.15390555560588837
103 133 0.1537472903728485
103 135 0.15438328683376312
103 136 0.09548625349998474
103 137 0.15430335700511932
103 138 0.15414386987686157
103 139 0.15438328683376312
103 140 0.14162059128284454
103 141 0.1471087485551834
103 142 0.15026256442070007
103 144 0.14531567692756653
103 145 0.13389988243579865
103 146 0.12222295254468918
103 147 0.14774754643440247
103 148 0.1480550318956375
103 149 0.14110493659973145
103 151 0.13924187421798706
103 152 0.14759451150894165
103 153 0.21576926112174988
103 154 0.14221689105033875
103 155 0.14191780984401703
103 156 0.14797797799110413
103 157 0.13410744071006775
103 159 0.15454350411891937
103 160 0.14191780984401703
103 161 0.14163042604923248
103 163 0.14117825031280518
103 164 0.14891061186790466
103 165 0.13403813540935516
103 166 0.148675799369812
103 167 0.14713826775550842
103 168 0.1552707850933075
103 169 0.14259344339370728
103 170 0.09638582170009613
103 171 0.15734612941741943
103 172 0.15462380647659302
103 173 0.15430335700511932
103 174 0.050572171807289124
103 175 0.14986112713813782
103 176 0.14052246510982513
103 177 0.13445548713207245
103 178 0.12145262211561203
103 179 0.1251184195280075
103 180 0.14229196310043335
103 182 0.14184333384037018
103 183 0.15406429767608643
103 184 0.14214195311069489
103 185 0.13609221577644348
103 186 0.15406429767608643
103 187 0.15406429767608643
103 188 0.15446335077285767
103 189 0.14836443960666656
103 190 0.13431595265865326
103 191 0.15478479862213135
103 192 0.14828690886497498
103 193 0.15422354638576508
103 194 0.14713826775550842
103 195 0.14813220500946045
103 196 0.13431595265865326
103 197 0.15206807851791382
103 199 0.14930444955825806
103 201 0.10189636051654816
103 202 0.15422354638576508
103 203 0.1306568831205368
103 204 0.0641658753156662
103 205 0.12378786504268646
103 207 0.14110493659973145
103 208 0.14176897704601288
103 209 0.12038584798574448
103 212 0.1415465921163559
103 216 0.1406674087047577
103 217 0.15462380647659302
103 218 0.1424424648284912
103 219 0.14744195342063904
103 220 0.15390555560588837
103 221 0.14139892160892487
103 222 0.10099922120571136
103 223 0.15486548840999603
103 224 0.1658547967672348
103 225 0.1478242129087448
103 226 0.12254826724529266
103 227 0.1424424648284912
103 229 0.13816781342029572
103 230 0.12951862812042236
103 231 0.1485198736190796
103 232 0.14828690886497498
103 233 0.09929569810628891
103 235 0.14751817286014557
103 236 0.13565948605537415
103 237 0.12740206718444824
103 238 0.15462380647659302
103 239 0.15486548840999603
103 240 0.09504968672990799
103 241 0.14883221685886383
103 242 0.050572168081998825
103 243 0.14820949733257294
103 244 0.12107289582490921
103 245 0.14938360452651978
103 247 0.14774754643440247
103 248 0.10881584882736206
103 250 0.148675799369812
103 251 0.06286945939064026
103 252 0.12867243587970734
103 253 0.1551082730293274
103 254 0.06148754432797432
103 255 0.13610360026359558
104 105 0.1325216293334961
104 106 0.969008207321167
104 107 0.9663101434707642
104 108 0.9653061628341675
104 109 0.11134044080972672
104 110 0.9679425954818726
104 111 0.9291881918907166
104 112 0.9695407152175903
104 113 0.8807940483093262
104 114 0.3247429430484772
104 115 0.9480127096176147
104 116 0.43967363238334656
104 117 0.19342041015625
104 118 0.2572478652000427
104 120 0.9626297950744629
104 121 0.9621278047561646
104 122 0.9540500640869141
104 123 0.9653061628341675
104 124 0.9637011885643005
104 125 0.2406659722328186
104 126 0.15414386987686157
104 127 0.9615238904953003
104 128 0.17017653584480286
104 129 0.5679503679275513
104 130 0.9545558094978333
104 131 0.9056317806243896
104 132 0.96854168176651
104 133 0.9706369042396545
104 134 0.20333939790725708
104 135 0.9674093723297119
104 136 0.7452974319458008
104 137 0.9679425954818726
104 138 0.969008207321167
104 139 0.9674093723297119
104 140 0.9636362195014954
104 141 0.9297124147415161
104 142 0.9485912919044495
104 143 0.3049904406070709
104 144 0.9365131855010986
104 145 0.9680087566375732
104 146 0.9566490650177002
104 147 0.9689461588859558
104 148 0.9668132662773132
104 149 0.9653061628341675
104 151 0.931506335735321
104 152 0.9700108170509338
104 153 0.3114299178123474
104 154 0.9582985639572144
104 155 0.9594083428382874
104 156 0.9683837294578552
104 157 0.9674419164657593
104 158 0.2136363536119461
104 159 0.9663418531417847
104 160 0.9583665728569031
104 161 0.9136465191841125
104 162 0.18749041855335236
104 163 0.9647715091705322
104 164 0.9588368535041809
104 165 0.9669421315193176
104 166 0.9604499936103821
104 167 0.9701051115989685
104 168 0.9594427347183228
104 169 0.9535091519355774
104 170 0.3387460708618164
104 171 0.9480127096176147
104 172 0.9658077955245972
104 173 0.9658743143081665
104 174 0.26114556193351746
104 175 0.9513070583343506
104 176 0.96854168176651
104 177 0.9658077955245972
104 178 0.9641405940055847
104 179 0.8389512896537781
104 180 0.9577599763870239
104 181 0.3309285342693329
104 182 0.9651517271995544
104 183 0.9685081243515015
104 184 0.9577935338020325
104 185 0.9544889330863953
104 186 0.9685081243515015
104 187 0.9685081243515015
104 188 0.9658405184745789
104 189 0.9625967144966125
104 190 0.9658405184745789
104 191 0.9637011885643005
104 192 0.9610546827316284
104 193 0.9674419164657593
104 194 0.9690742492675781
104 195 0.9704309701919556
104 196 0.9679110050201416
104 197 0.9397454261779785
104 198 0.11249425262212753
104 199 0.9540500640869141
104 200 0.1818181723356247
104 201 0.23952716588974
104 202 0.966408371925354
104 203 0.4027990996837616
104 204 0.5103640556335449
104 205 0.8945687413215637
104 206 0.5297507643699646
104 207 0.9642704129219055
104 208 0.9615238904953003
104 209 0.05567022040486336
104 210 0.2532038688659668
104 211 0.1584402322769165
104 212 0.9620936512947083
104 213 0.31366613507270813
104 214 0.4066266715526581
104 215 0.12448239326477051
104 216 0.9674755930900574
104 217 0.9658077955245972
104 218 0.9545906782150269
104 219 0.9669421315193176
104 220 0.9695731401443481
104 221 0.9642035365104675
104 222 0.9631656408309937
104 223 0.9621278047561646
104 224 0.8610925674438477
104 225 0.9642704129219055
104 226 0.9528987407684326
104 227 0.9587728977203369
104 228 0.2571297287940979
104 229 0.9392294883728027
104 230 0.3422486186027527
104 231 0.9604833126068115
104 232 0.9631326198577881
104 233 0.7856989502906799
104 234 0.2571297287940979
104 235 0.9684755206108093
104 236 0.9598184823989868
104 237 0.9674419164657593
104 238 0.9658077955245972
104 239 0.9662793874740601
104 240 0.5512561798095703
104 241 0.9583321213722229
104 242 0.3845725357532501
104 243 0.9626297950744629
104 244 0.9683837294578552
104 245 0.957695722579956
104 246 0.13655290007591248
104 247 0.9658405184745789
104 248 0.9592227935791016
104 249 0.1407400518655777
104 250 0.9594083428382874
104 251 0.17928242683410645
104 252 0.9572546482086182
104 253 0.9605176448822021
104 254 0.21799233555793762
104 255 0.5244883298873901
105 106 0.1325216293334961
105 107 0.11735595017671585
105 108 0.13286522030830383
105 109 0.07001400738954544
105 110 0.13265874981880188
105 111 0.10586614161729813
105 112 0.11687050759792328
105 113 0.11960133910179138
105 115 0.1273173689842224
105 118 0.05882352963089943
105 120 0.13321149349212646
105 121 0.13314202427864075
105 122 0.12630179524421692
105 123 0.13286522030830383
105 124 0.13307267427444458
105 127 0.13349047303199768
105 129 0.0667557343840599
105 130 0.12636874616146088
105 131 0.13318082690238953
105 132 0.13231676816940308
105 133 0.11663001775741577
105 134 0.11227216571569443
105 135 0.10930497199296951
105 136 0.10096889734268188
105 137 0.13265874981880188
105 138 0.1325216293334961
105 139 0.1327274739742279
105 140 0.12550660967826843
105 141 0.09777771681547165
105 142 0.1112232580780983
105 143 0.050031278282403946
105 144 0.12878122925758362
105 145 0.13238495588302612
105 146 0.12636874616146088
105 147 0.09373856335878372
105 148 0.1252448707818985
105 149 0.13286522030830383
105 151 0.1376664936542511
105 152 0.13265874981880188
105 154 0.11815785616636276
105 155 0.12577000260353088
105 156 0.11735595017671585
105 157 0.11699129641056061
105 158 0.10289914906024933
105 159 0.12504960596561432
105 160 0.12577000260353088
105 161 0.10708023607730865
105 163 0.11729493737220764
105 164 0.13384167850017548
105 165 0.11693084985017776
105 166 0.12577000260353088
105 167 0.1322486698627472
105 168 0.10993333160877228
105 169 0.1184707060456276
105 171 0.11936003714799881
105 172 0.13293425738811493
105 173 0.11705183237791061
105 175 0.1267726868391037
105 176 0.10896674543619156
105 177 0.11729493737220764
105 178 0.13342057168483734
105 179 0.11824534833431244
105 180 0.11033888161182404
105 181 0.1166900098323822
105 182 0.13356049358844757
105 183 0.11687050759792328
105 184 0.12596863508224487
105 185 0.11872276663780212
105 186 0.13245323300361633
105 187 0.13245323300361633
105 188 0.1327963024377823
105 189 0.13335075974464417
105 190 0.1249847486615181
105 191 0.10958925634622574
105 192 0.1176009550690651
105 193 0.1325901299715042
105 194 0.1244693398475647
105 195 0.13314202427864075
105 196 0.1327963024377823
105 197 0.120599664747715
105 199 0.13419567048549652
105 200 0.12862393260002136
105 201 0.05926088988780975
105 202 0.11699129641056061
105 204 0.11941629648208618
105 205 0.08469711244106293
105 206 0.08415718376636505
105 207 0.13286522030830383
105 208 0.11778571456670761
105 210 0.08956221491098404
105 211 0.08856149017810822
105 212 0.1176009550690651
105 213 0.0710071548819542
105 214 0.05647324398159981
105 216 0.13245323300361633
105 217 0.11729493737220764
105 218 0.11045558005571365
105 219 0.1325216293334961
105 220 0.12453342229127884
105 221 0.13314202427864075
105 222 0.10964637249708176
105 223 0.10964637249708176
105 224 0.12276451289653778
105 225 0.12504960596561432
105 226 0.1346241682767868
105 227 0.12623494863510132
105 229 0.13660457730293274
105 231 0.13349047303199768
105 232 0.12544101476669312
105 233 0.11549677699804306
105 234 0.060633908957242966
105 235 0.12479071319103241
105 236 0.12623494863510132
105 237 0.1325901299715042
105 238 0.10165560990571976
105 239 0.09398259967565536
105 240 0.055278997868299484
105 241 0.11016452312469482
105 242 0.05882352590560913
105 243 0.11753954738378525
105 244 0.12517967820167542
105 245 0.1184707060456276
105 247 0.1327963024377823
105 248 0.12657023966312408
105 250 0.13363061845302582
105 252 0.13391223549842834
105 253 0.10981827974319458
106 107 0.9631996750831604
106 108 0.9642704129219055
106 109 0.11134044080972672
106 110 0.9669085144996643
106 111 0.9237922430038452
106 112 0.9685081243515015
106 113 0.8841903805732727
106 114 0.3061862289905548
106 115 0.9501217007637024
106 116 0.42822378873825073
106 117 0.20829890668392181
106 118 0.24945247173309326
106 120 0.961591362953186
106 121 0.9652414917945862
106 122 0.9592806100845337
106 123 0.9642704129219055
106 124 0.9626638889312744
106 125 0.24896478652954102
106 126 0.15414386987686157
106 127 0.9604833126068115
106 128 0.17604470252990723
106 129 0.5679503679275513
106 130 0.9587424397468567
106 131 0.906734824180603
106 132 0.96854168176651
106 133 0.9696065187454224
106 134 0.17854191362857819
106 135 0.9663746953010559
106 136 0.7493115067481995
106 137 0.9710450172424316
106 138 0.9669421315193176
106 139 0.9684440493583679
106 140 0.9636362195014954
106 141 0.9307921528816223
106 142 0.9506970047950745
106 143 0.2983601987361908
106 144 0.9386464953422546
106 145 0.9700728058815002
106 146 0.9566490650177002
106 147 0.9658405184745789
106 148 0.9626638889312744
106 149 0.9684134125709534
106 151 0.934725821018219
106 152 0.9658743143081665
106 153 0.3386422395706177
106 154 0.9582985639572144
106 155 0.9594083428382874
106 156 0.9652733206748962
106 157 0.9674419164657593
106 158 0.20000000298023224
106 159 0.9684134125709534
106 160 0.9604499936103821
106 161 0.9136465191841125
106 162 0.1767766773700714
106 163 0.9637352228164673
106 164 0.9598802328109741
106 165 0.9721074104309082
106 166 0.9604499936103821
106 167 0.9701051115989685
106 168 0.9604833126068115
106 169 0.9566490650177002
106 170 0.34468895196914673
106 171 0.9480127096176147
106 172 0.9658077955245972
106 173 0.9679425954818726
106 174 0.26114556193351746
106 175 0.9513070583343506
106 176 0.9695731401443481
106 177 0.9647715091705322
106 178 0.9610204100608826
106 179 0.8317189812660217
106 180 0.9608932733535767
106 181 0.315464586019516
106 182 0.9609870910644531
106 183 0.9695407152175903
106 184 0.9588368535041809
106 185 0.9523911476135254
106 186 0.9716057181358337
106 187 0.9695407152175903
106 188 0.9648053646087646
106 189 0.9636362195014954
106 190 0.9668757319450378
106 191 0.9657759666442871
106 192 0.9610546827316284
106 193 0.9695091247558594
106 194 0.9711360335350037
106 195 0.9621278047561646
106 196 0.9648053646087646
106 197 0.9386799931526184
106 198 0.12052956223487854
106 199 0.9582344889640808
106 200 0.17613635957241058
106 201 0.2630872130393982
106 202 0.9674419164657593
106 203 0.3851766586303711
106 204 0.49849510192871094
106 205 0.8889566659927368
106 206 0.5148805379867554
106 207 0.9642704129219055
106 208 0.9615238904953003
106 209 0.05567022040486336
106 210 0.26111647486686707
106 211 0.16430838406085968
106 212 0.9641715884208679
106 213 0.3168027997016907
106 214 0.4091213345527649
106 215 0.12448239326477051
106 216 0.9705731868743896
106 217 0.9637352228164673
106 218 0.9566817879676819
106 219 0.9700413346290588
106 220 0.96854168176651
106 221 0.9662793874740601
106 222 0.9631656408309937
106 223 0.9642035365104675
106 224 0.8645787239074707
106 225 0.9653061628341675
106 226 0.9518492817878723
106 227 0.9566817879676819
106 228 0.2490944266319275
106 229 0.9370997548103333
106 230 0.3451007008552551
106 231 0.9636051654815674
106 232 0.9610546827316284
106 233 0.7780460119247437
106 234 0.24507677555084229
106 235 0.9674419164657593
106 236 0.9545906782150269
106 237 0.966408371925354
106 238 0.9647715091705322
106 239 0.9652414917945862
106 240 0.5494247078895569
106 241 0.9593749046325684
106 242 0.37158024311065674
106 243 0.9626297950744629
106 244 0.9652733206748962
106 245 0.9566490650177002
106 246 0.14373990893363953
106 247 0.9668757319450378
106 248 0.9518845081329346
106 249 0.14744195342063904
106 250 0.9625334143638611
106 251 0.19866430759429932
106 252 0.9562107920646667
106 253 0.9605176448822021
106 254 0.20377543568611145
106 255 0.5359317064285278
107 108 0.9656969308853149
107 109 0.11174521595239639
107 110 0.9641962647438049
107 111 0.9282337427139282
107 112 0.9647751450538635
107 113 0.8794512152671814
107 114 0.3228195011615753
107 115 0.944050669670105
107 116 0.4435703456401825
107 117 0.19910110533237457
107 118 0.2620949447154999
107 120 0.9598761200904846
107 121 0.9614588618278503
107 122 0.9543687701225281
107 123 0.9615389704704285
107 124 0.9640814065933228
107 125 0.24154090881347656
107 126 0.14125171303749084
107 127 0.9577087163925171
107 128 0.17668470740318298
107 129 0.5629120469093323
107 130 0.9527737498283386
107 131 0.907817006111145
107 132 0.9648162722587585
107 133 0.966926634311676
107 134 0.20407862961292267
107 135 0.9636573195457458
107 136 0.7493497729301453
107 137 0.9641962647438049
107 138 0.9652733206748962
107 139 0.9615805149078369
107 140 0.958793044090271
107 141 0.9222549796104431
107 142 0.9488699436187744
107 143 0.30277204513549805
107 144 0.939917802810669
107 145 0.9663492441177368
107 146 0.9496223330497742
107 147 0.9620791673660278
107 148 0.959916889667511
107 149 0.9604994654655457
107 151 0.9262762665748596
107 152 0.9641962647438049
107 153 0.333804190158844
107 154 0.9565439224243164
107 155 0.9555777311325073
107 156 0.9604578614234924
107 157 0.9636975526809692
107 158 0.20985107123851776
107 159 0.9667364954948425
107 160 0.9576687812805176
107 161 0.9246369004249573
107 162 0.17741934955120087
107 163 0.9620386362075806
107 164 0.9549926519393921
107 165 0.9663101434707642
107 166 0.9555777311325073
107 167 0.9653544425964355
107 168 0.9566643834114075
107 169 0.9548746347427368
107 170 0.34295979142189026
107 171 0.9461674094200134
107 172 0.96099853515625
107 173 0.962120532989502
107 174 0.2620949447154999
107 175 0.9526578187942505
107 176 0.9648162722587585
107 177 0.9641186594963074
107 178 0.9582510590553284
107 179 0.8274840116500854
107 180 0.9560006260871887
107 181 0.30729934573173523
107 182 0.9561212062835693
107 183 0.9658114314079285
107 184 0.9560397863388062
107 185 0.9548008441925049
107 186 0.9637388586997986
107 187 0.9647751450538635
107 188 0.961040198802948
107 189 0.9567064642906189
107 190 0.9620791673660278
107 191 0.963040292263031
107 192 0.9593347311019897
107 193 0.9636975526809692
107 194 0.9705278277397156
107 195 0.9604172110557556
107 196 0.9641570448875427
107 197 0.9356763958930969
107 198 0.12096773833036423
107 199 0.9596182703971863
107 200 0.15966926515102386
107 201 0.24827983975410461
107 202 0.9647349715232849
107 203 0.3916302025318146
107 204 0.5082487463951111
107 205 0.8865559101104736
107 206 0.5279455780982971
107 207 0.9625784754753113
107 208 0.9577087163925171
107 209 0.055872607976198196
107 210 0.25809505581855774
107 211 0.17079521715641022
107 212 0.9572492837905884
107 213 0.31165844202041626
107 214 0.398090124130249
107 215 0.12493494898080826
107 216 0.9647751450538635
107 217 0.9630786776542664
107 218 0.9507155418395996
107 219 0.9652733206748962
107 220 0.9658514261245728
107 221 0.9583338499069214
107 222 0.9583338499069214
107 223 0.9593755602836609
107 224 0.8548926711082458
107 225 0.9625784754753113
107 226 0.9479368925094604
107 227 0.9528142809867859
107 228 0.25806450843811035
107 229 0.9373001456260681
107 230 0.3549426198005676
107 231 0.9577087163925171
107 232 0.9593347311019897
107 233 0.7949559688568115
107 234 0.2540322542190552
107 235 0.9626602530479431
107 236 0.9528142809867859
107 237 0.9636975526809692
107 238 0.9599584937095642
107 239 0.9635422229766846
107 240 0.5275271534919739
107 241 0.9544899463653564
107 242 0.3781469464302063
107 243 0.96196049451828
107 244 0.9625390768051147
107 245 0.9517232179641724
107 246 0.14426246285438538
107 247 0.9620791673660278
107 248 0.9479799270629883
107 249 0.1547042578458786
107 250 0.9597597122192383
107 251 0.20424962043762207
107 252 0.9544485807418823
107 253 0.958793044090271
107 254 0.20927245914936066
107 255 0.5225667357444763
108 109 0.11162911355495453
108 110 0.9642313718795776
108 111 0.9272693395614624
108 112 0.965843141078949
108 113 0.885347843170166
108 114 0.32558491826057434
108 115 0.9462416172027588
108 116 0.42933404445648193
108 117 0.19889423251152039
108 118 0.2618226110935211
108 120 0.9640844464302063
108 121 0.9656628370285034
108 122 0.955474853515625
108 123 0.9657320976257324
108 124 0.9661998152732849
108 125 0.24545012414455414
108 126 0.15454350411891937
108 127 0.9608869552612305
108 128 0.17061775922775269
108 129 0.5623272657394409
108 130 0.9559813141822815
108 131 0.9035559892654419
108 132 0.9669162631034851
108 133 0.9669550657272339
108 134 0.19889423251152039
108 135 0.9636934399604797
108 136 0.74454665184021
108 137 0.9652681350708008
108 138 0.9653061628341675
108 139 0.9626561403274536
108 140 0.9598813652992249
108 141 0.9234619736671448
108 142 0.9478840827941895
108 143 0.3024574816226959
108 144 0.9357330799102783
108 145 0.9674144983291626
108 146 0.9538825154304504
108 147 0.9641931653022766
108 148 0.9620397090911865
108 149 0.9626168012619019
108 151 0.9274657964706421
108 152 0.9652681350708008
108 153 0.3304259181022644
108 154 0.9576432704925537
108 155 0.9598069190979004
108 156 0.9604994654655457
108 157 0.9647688865661621
108 158 0.22330474853515625
108 159 0.9657320976257324
108 160 0.9577181935310364
108 161 0.9182041883468628
108 162 0.1826057732105255
108 163 0.9631170034408569
108 164 0.9581846594810486
108 165 0.9653061628341675
108 166 0.958762526512146
108 167 0.9684858918190002
108 168 0.9588003158569336
108 169 0.9538825154304504
108 170 0.34558263421058655
108 171 0.9451843500137329
108 172 0.961039125919342
108 173 0.9631944894790649
108 174 0.25009921193122864
108 175 0.9474570751190186
108 176 0.9658820629119873
108 177 0.9620780944824219
108 178 0.9593409299850464
108 179 0.8242073059082031
108 180 0.9550073146820068
108 181 0.30077844858169556
108 182 0.9572155475616455
108 183 0.9648079872131348
108 184 0.9581846594810486
108 185 0.9506540298461914
108 186 0.9648079872131348
108 187 0.966878354549408
108 188 0.9631552696228027
108 189 0.9630079865455627
108 190 0.9641931653022766
108 191 0.9599595665931702
108 192 0.9593797326087952
108 193 0.9647688865661621
108 194 0.9684858918190002
108 195 0.959419310092926
108 196 0.9652311205863953
108 197 0.9368407130241394
108 198 0.12084205448627472
108 199 0.9533771872520447
108 200 0.17659303545951843
108 201 0.24408504366874695
108 202 0.9668413996696472
108 203 0.38869935274124146
108 204 0.5057374238967896
108 205 0.8878854513168335
108 206 0.5367149710655212
108 207 0.9626168012619019
108 208 0.9619302749633789
108 209 0.055814556777477264
108 210 0.25386032462120056
108 211 0.1647343933582306
108 212 0.9593797326087952
108 213 0.31762418150901794
108 214 0.38517096638679504
108 215 0.12480514496564865
108 216 0.965843141078949
108 217 0.9631170034408569
108 218 0.9549691081047058
108 219 0.9642704129219055
108 220 0.9679503440856934
108 221 0.9625411033630371
108 222 0.9615004658699036
108 223 0.9615004658699036
108 224 0.8668202757835388
108 225 0.9626168012619019
108 226 0.9490562677383423
108 227 0.9528725743293762
108 228 0.24974025785923004
108 229 0.9416645765304565
108 230 0.3488548994064331
108 231 0.959843635559082
108 232 0.9593797326087952
108 233 0.7775056958198547
108 234 0.24571219086647034
108 235 0.9637326002120972
108 236 0.9528725743293762
108 237 0.9637326002120972
108 238 0.9631170034408569
108 239 0.959419310092926
108 240 0.5545215606689453
108 241 0.9566347002983093
108 242 0.3803592622280121
108 243 0.9599199295043945
108 244 0.9615389704704285
108 245 0.9507343769073486
108 246 0.1369069367647171
108 247 0.9621174335479736
108 248 0.9533013701438904
108 249 0.1478242129087448
108 250 0.9577181935310364
108 251 0.2040373980998993
108 252 0.9545035362243652
108 253 0.9577968716621399
108 254 0.19480127096176147
108 255 0.5124629139900208
109 110 0.11145563423633575
109 111 0.10662039369344711
109 112 0.11128297448158264
109 113 0.09151333570480347
109 115 0.10418237000703812
109 116 0.061701755970716476
109 120 0.10259337723255157
109 121 0.11186166852712631
109 122 0.09395576268434525
109 123 0.11162911355495453
109 124 0.11180340498685837
109 127 0.11215443164110184
109 130 0.11280666291713715
109 131 0.10898036509752274
109 132 0.10190428793430328
109 133 0.11105399578809738
109 135 0.10222060233354568
109 136 0.09614162147045135
109 137 0.11145563423633575
109 138 0.11134044080972672
109 139 0.10222060233354568
109 140 0.10270064324140549
109 141 0.10668054223060608
109 142 0.1040145605802536
109 143 0.11909826844930649
109 144 0.11496024578809738
109 145 0.11122559756040573
109 146 0.09400556236505508
109 147 0.1022736057639122
109 148 0.10248646140098572
109 149 0.11162911355495453
109 151 0.09638582915067673
109 152 0.11145563423633575
109 153 0.05431254580616951
109 154 0.09375732392072678
109 155 0.11227217316627502
109 156 0.11174521595239639
109 157 0.10211484134197235
109 159 0.09302426874637604
109 160 0.11227217316627502
109 161 0.10784313827753067
109 163 0.11168711632490158
109 164 0.09370791912078857
109 165 0.11134044080972672
109 166 0.1029161661863327
109 167 0.1111111119389534
109 168 0.11215443164110184
109 169 0.07520444691181183
109 171 0.09471124410629272
109 172 0.11168711632490158
109 173 0.11145563423633575
109 175 0.11316726356744766
109 176 0.09264025837182999
109 177 0.10237986594438553
109 178 0.1027543917298317
109 179 0.0757831484079361
109 180 0.08442613482475281
109 181 0.1111111119389534
109 182 0.1028621643781662
109 183 0.11128297448158264
109 184 0.11244949698448181
109 185 0.11304667592048645
109 186 0.11128297448158264
109 187 0.10200940072536469
109 188 0.08367840200662613
109 189 0.1120370551943779
109 190 0.11157120019197464
109 191 0.10248646140098572
109 192 0.10264696925878525
109 193 0.11139799654483795
109 194 0.1111111119389534
109 195 0.09321806579828262
109 196 0.1022736057639122
109 197 0.11483385413885117
109 199 0.10335133969783783
109 200 0.05103103443980217
109 201 0.10580184310674667
109 202 0.09283167123794556
109 204 0.07106690853834152
109 205 0.0806477889418602
109 206 0.06677805632352829
109 207 0.11162911355495453
109 208 0.07476962357759476
109 210 0.1776672750711441
109 212 0.11197850108146667
109 216 0.10200940072536469
109 217 0.10237986594438553
109 218 0.10329663008451462
109 219 0.10206207633018494
109 220 0.11116830259561539
109 221 0.11186166852712631
109 222 0.10253987461328506
109 223 0.11186166852712631
109 224 0.10437072068452835
109 225 0.11162911355495453
109 226 0.10368135571479797
109 227 0.11268723011016846
109 228 0.14433757960796356
109 229 0.1147707998752594
109 231 0.11215443164110184
109 232 0.11197850108146667
109 233 0.06873433291912079
109 235 0.08354850113391876
109 236 0.11268723011016846
109 237 0.11139799654483795
109 238 0.08376534283161163
109 239 0.11186166852712631
109 240 0.08224396407604218
109 241 0.08429272472858429
109 243 0.10259337723255157
109 244 0.11174521595239639
109 245 0.11280666291713715
109 246 0.06454972177743912
109 247 0.11157120019197464
109 248 0.11298653483390808
109 250 0.11227217316627502
109 252 0.11250878125429153
109 253 0.10270064324140549
109 255 0.05138915404677391
110 111 0.9269086122512817
110 112 0.96744304895401
110 113 0.8862386345863342
110 114 0.31888699531555176
110 115 0.9479380249977112
110 116 0.41720518469810486
110 117 0.19362053275108337
110 118 0.2497105747461319
110 120 0.9625862836837769
110 121 0.9641622304916382
110 122 0.9560843706130981
110 123 0.9642313718795776
110 124 0.964698314666748
110 125 0.23676128685474396
110 126 0.15430335700511932
110 127 0.9635604619979858
110 128 0.15860415995121002
110 129 0.5667668581008911
110 130 0.9534479379653931
110 131 0.9154025912284851
110 132 0.9695438146591187
110 133 0.9695783257484436
110 134 0.1985851675271988
110 135 0.9673745632171631
110 136 0.7420502305030823
110 137 0.9648033380508423
110 138 0.9669085144996643
110 139 0.968410313129425
110 140 0.9604708552360535
110 141 0.9285125136375427
110 142 0.9485188722610474
110 143 0.30530601739883423
110 144 0.9364144802093506
110 145 0.9690102934837341
110 146 0.9534479379653931
110 147 0.9637311697006226
110 148 0.9615830779075623
110 149 0.9704521894454956
110 151 0.933544397354126
110 152 0.9658384919166565
110 153 0.3359659016132355
110 154 0.959290087223053
110 155 0.9583154320716858
110 156 0.9641962647438049
110 157 0.968442976474762
110 158 0.22295773029327393
110 159 0.9673417210578918
110 160 0.9583154320716858
110 161 0.9124065041542053
110 162 0.18768441677093506
110 163 0.9636949896812439
110 164 0.9566956758499146
110 165 0.9658743143081665
110 166 0.9604009985923767
110 167 0.9690449237823486
110 168 0.9593937397003174
110 169 0.9544957280158997
110 170 0.3450455963611603
110 171 0.9479380249977112
110 172 0.9678444266319275
110 173 0.9699792861938477
110 174 0.26531749963760376
110 175 0.9501891732215881
110 176 0.9685112237930298
110 177 0.9647324085235596
110 178 0.9609736204147339
110 179 0.8277530074119568
110 180 0.9577054381370544
110 181 0.3126949965953827
110 182 0.9588547348976135
110 183 0.96744304895401
110 184 0.9587845206260681
110 185 0.9544265866279602
110 186 0.9695102572441101
110 187 0.9705438613891602
110 188 0.9647673964500427
110 189 0.9625520706176758
110 190 0.9658036828041077
110 191 0.964698314666748
110 192 0.9620490670204163
110 193 0.96637362241745
110 194 0.9690449237823486
110 195 0.9620842933654785
110 196 0.9647673964500427
110 197 0.9396511912345886
110 198 0.12065427005290985
110 199 0.9539900422096252
110 200 0.18200629949569702
110 201 0.25549793243408203
110 202 0.96637362241745
110 203 0.3956555724143982
110 204 0.49703067541122437
110 205 0.8898764252662659
110 206 0.5396023988723755
110 207 0.9683785438537598
110 208 0.9593937397003174
110 209 0.05572781711816788
110 210 0.25346583127975464
110 211 0.17035260796546936
110 212 0.9620490670204163
110 213 0.2857315242290497
110 214 0.39705851674079895
110 215 0.12461119890213013
110 216 0.96744304895401
110 217 0.9636949896812439
110 218 0.9545317888259888
110 219 0.9689767360687256
110 220 0.9674786925315857
110 221 0.9631232619285583
110 222 0.9610453844070435
110 223 0.9631232619285583
110 224 0.8631467223167419
110 225 0.9631944894790649
110 226 0.9517835974693298
110 227 0.9618582129478455
110 228 0.22522130608558655
110 229 0.9348713159561157
110 230 0.3483127951622009
110 231 0.9604353904724121
110 232 0.9599689245223999
110 233 0.7801278233528137
110 234 0.2533739507198334
110 235 0.96637362241745
110 236 0.9576716423034668
110 237 0.965338945388794
110 238 0.9636949896812439
110 239 0.9610453844070435
110 240 0.5371600389480591
110 241 0.9582797884941101
110 242 0.38757163286209106
110 243 0.9625862836837769
110 244 0.962120532989502
110 245 0.9524002075195312
110 246 0.12949976325035095
110 247 0.9668399095535278
110 248 0.9518199563026428
110 249 0.14759451150894165
110 250 0.9614437818527222
110 251 0.18916887044906616
110 252 0.9561551213264465
110 253 0.9625520706176758
110 254 0.19924242794513702
110 255 0.5269402265548706
111 112 0.9287086129188538
111 113 0.8326132893562317
111 114 0.31986117362976074
111 115 0.9088334441184998
111 116 0.4377802610397339
111 117 0.17097297310829163
111 118 0.24430648982524872
111 120 0.9220921993255615
111 121 0.9270325899124146
111 122 0.9212548136711121
111 123 0.9240233302116394
111 124 0.9232986569404602
111 125 0.2254062294960022
111 126 0.1400245726108551
111 127 0.9251103401184082
111 128 0.1777769923210144
111 129 0.5064443945884705
111 130 0.9140892624855042
111 131 0.8723288178443909
111 132 0.9288291335105896
111 133 0.9278740882873535
111 134 0.1813349723815918
111 135 0.9252270460128784
111 136 0.6821346879005432
111 137 0.9279889464378357
111 138 0.9291881918907166
111 139 0.9209035038948059
111 140 0.9230562448501587
111 141 0.8866329789161682
111 142 0.9106690883636475
111 143 0.280517041683197
111 144 0.896997332572937
111 145 0.9293078184127808
111 146 0.9097156524658203
111 147 0.9278696775436401
111 148 0.9211312532424927
111 149 0.9240233302116394
111 151 0.8923907279968262
111 152 0.9247480034828186
111 153 0.31586313247680664
111 154 0.9182186722755432
111 155 0.915199339389801
111 156 0.9239012598991394
111 157 0.9285887479782104
111 158 0.1994355171918869
111 159 0.929433286190033
111 160 0.9239051342010498
111 161 0.8689275979995728
111 162 0.15669132769107819
111 163 0.9245033860206604
111 164 0.9166447520256042
111 165 0.9227129817008972
111 166 0.9206404685974121
111 167 0.9261972904205322
111 168 0.9261974692344666
111 169 0.9119024872779846
111 170 0.32283350825309753
111 171 0.9099349975585938
111 172 0.9266685843467712
111 173 0.9247480034828186
111 174 0.236162930727005
111 175 0.9115267395973206
111 176 0.9309841990470886
111 177 0.9212557077407837
111 178 0.9213663935661316
111 179 0.7945711612701416
111 180 0.9241588711738586
111 181 0.28432103991508484
111 182 0.9245079755783081
111 183 0.9265512824058533
111 184 0.9231845140457153
111 185 0.9226085543632507
111 186 0.9276299476623535
111 187 0.9243940711021423
111 188 0.9278696775436401
111 189 0.9252281785011292
111 190 0.9289510846138
111 191 0.9222148656845093
111 192 0.9214885234832764
111 193 0.9242697358131409
111 194 0.9305052161216736
111 195 0.9194428324699402
111 196 0.9311139583587646
111 197 0.9038025140762329
111 198 0.11751849949359894
111 199 0.9157906770706177
111 200 0.14838950335979462
111 201 0.22971472144126892
111 202 0.9296685457229614
111 203 0.40237951278686523
111 204 0.49182790517807007
111 205 0.8583064079284668
111 206 0.5456434488296509
111 207 0.9251052737236023
111 208 0.918587863445282
111 209 0.0581565760076046
111 210 0.21904942393302917
111 211 0.16551651060581207
111 212 0.9214885234832764
111 213 0.29818442463874817
111 214 0.36484816670417786
111 215 0.13004206120967865
111 216 0.9233154058456421
111 217 0.925585925579071
111 218 0.915306031703949
111 219 0.9270297884941101
111 220 0.9255965352058411
111 221 0.9216113090515137
111 222 0.9226955771446228
111 223 0.9237798452377319
111 224 0.8267126679420471
111 225 0.9240233302116394
111 226 0.9077518582344055
111 227 0.9163982272148132
111 228 0.25602245330810547
111 229 0.9021938443183899
111 230 0.3515752851963043
111 231 0.9218491315841675
111 232 0.925830066204071
111 233 0.7594972252845764
111 234 0.24343116581439972
111 235 0.9264292120933533
111 236 0.9174904823303223
111 237 0.9318280220031738
111 238 0.9245033860206604
111 239 0.9205271005630493
111 240 0.49552157521247864
111 241 0.9183409810066223
111 242 0.3528871536254883
111 243 0.9275162220001221
111 244 0.924984335899353
111 245 0.9184629321098328
111 246 0.15015962719917297
111 247 0.9202995896339417
111 248 0.9177371263504028
111 249 0.14702579379081726
111 250 0.9217287302017212
111 251 0.17716579139232635
111 252 0.9160376191139221
111 253 0.9252281785011292
111 254 0.188123419880867
111 255 0.4881408214569092
112 113 0.8871287107467651
112 114 0.315301775932312
112 115 0.9527932405471802
112 116 0.4486018419265747
112 117 0.18836364150047302
112 118 0.26490646600723267
112 120 0.964208722114563
112 121 0.9626684784889221
112 122 0.9566943049430847
112 123 0.966878354549408
112 124 0.9663142561912537
112 125 0.24883629381656647
112 126 0.14736585319042206
112 127 0.9620677828788757
112 128 0.17595383524894714
112 129 0.5711939930915833
112 130 0.9592937231063843
112 131 0.9084718823432922
112 132 0.9711344838142395
112 133 0.9701359272003174
112 134 0.2032344490289688
112 135 0.9658758640289307
112 136 0.7569490671157837
112 137 0.96744304895401
112 138 0.9695407152175903
112 139 0.9658758640289307
112 140 0.9652168154716492
112 141 0.9324702620506287
112 142 0.9502062797546387
112 143 0.294892817735672
112 144 0.9370959997177124
112 145 0.9706035852432251
112 146 0.9572014808654785
112 147 0.9663767218589783
112 148 0.9663142561912537
112 149 0.965843141078949
112 151 0.9363886117935181
112 152 0.96744304895401
112 153 0.33544543385505676
112 154 0.9578039050102234
112 155 0.9609954953193665
112 156 0.9637388586997986
112 157 0.9700418710708618
112 158 0.20443987846374512
112 159 0.965843141078949
112 160 0.9599543213844299
112 161 0.9208120703697205
112 162 0.19274777173995972
112 163 0.9663450121879578
112 164 0.9593847990036011
112 165 0.9705731868743896
112 166 0.964119017124176
112 167 0.9716652035713196
112 168 0.9599875807762146
112 169 0.9551092386245728
112 170 0.3415411412715912
112 171 0.9464694261550903
112 172 0.9663450121879578
112 173 0.96744304895401
112 174 0.2493237406015396
112 175 0.951865553855896
112 176 0.9711344838142395
112 177 0.9653093218803406
112 178 0.9636430144309998
112 179 0.8361087441444397
112 180 0.9593534469604492
112 181 0.32148414850234985
112 182 0.9625723958015442
112 183 0.9690402746200562
112 184 0.9572991728782654
112 185 0.9560930132865906
112 186 0.9700722694396973
112 187 0.9690402746200562
112 188 0.9663767218589783
112 189 0.9652168154716492
112 190 0.9674113988876343
112 191 0.9642406702041626
112 192 0.964712381362915
112 193 0.9721079468727112
112 194 0.9706348180770874
112 195 0.963705837726593
112 196 0.9663767218589783
112 197 0.9381954669952393
112 198 0.12849850952625275
112 199 0.9546031951904297
112 200 0.17604544758796692
112 201 0.25902676582336426
112 202 0.9679757356643677
112 203 0.3673644959926605
112 204 0.4962606728076935
112 205 0.8929851651191711
112 206 0.5443398952484131
112 207 0.9648079872131348
112 208 0.9620677828788757
112 210 0.2609816789627075
112 211 0.17595383524894714
112 212 0.9626355171203613
112 213 0.31036922335624695
112 214 0.4089101552963257
112 215 0.12441814690828323
112 216 0.9711042642593384
112 217 0.9684165716171265
112 218 0.9624581336975098
112 219 0.9674755930900574
112 220 0.9711344838142395
112 221 0.9657806158065796
112 222 0.9657806158065796
112 223 0.963705837726593
112 224 0.8629710078239441
112 225 0.9689487814903259
112 226 0.9566025733947754
112 227 0.9561880230903625
112 228 0.23691913485527039
112 229 0.940873384475708
112 230 0.3477731943130493
112 231 0.9641479253768921
112 232 0.9636739492416382
112 233 0.7903926968574524
112 234 0.22085683047771454
112 235 0.9679757356643677
112 236 0.9551430344581604
112 237 0.9679757356643677
112 238 0.9653093218803406
112 239 0.9668179750442505
112 240 0.5509716868400574
112 241 0.9599219560623169
112 242 0.38177695870399475
112 243 0.9631708264350891
112 244 0.9689202904701233
112 245 0.9551092386245728
112 246 0.14366571605205536
112 247 0.9663767218589783
112 248 0.9597755074501038
112 249 0.1406674087047577
112 250 0.9609954953193665
112 251 0.1840328723192215
112 252 0.9578039050102234
112 253 0.9620998501777649
112 254 0.21314330399036407
112 255 0.5223114490509033
113 114 0.2914868891239166
113 115 0.8667341470718384
113 116 0.4291365146636963
113 117 0.17935840785503387
113 118 0.18367348611354828
113 120 0.8910692930221558
113 121 0.8746806383132935
113 122 0.865552544593811
113 123 0.8796725273132324
113 124 0.8787723183631897
113 125 0.2364613562822342
113 126 0.14689213037490845
113 127 0.8781101703643799
113 128 0.16720342636108398
113 129 0.5545510649681091
113 130 0.8843639492988586
113 131 0.8268651962280273
113 132 0.8828235268592834
113 133 0.8864325284957886
113 134 0.20653393864631653
113 135 0.8889654278755188
113 136 0.6745317578315735
113 137 0.8817054629325867
113 138 0.8819261789321899
113 139 0.8787604570388794
113 140 0.8794695734977722
113 141 0.8626669049263
113 142 0.8572614789009094
113 143 0.2724769711494446
113 144 0.845138430595398
113 145 0.8810166120529175
113 146 0.8740406036376953
113 147 0.8860229849815369
113 148 0.8764985799789429
113 149 0.8785374760627747
113 151 0.8538329005241394
113 152 0.8805720806121826
113 153 0.3346683382987976
113 154 0.8785966038703918
113 155 0.8744657039642334
113 156 0.8805874586105347
113 157 0.8812494277954102
113 158 0.20423553884029388
113 159 0.8785374760627747
113 160 0.8733240962028503
113 161 0.838573157787323
113 162 0.16437631845474243
113 163 0.8801295757293701
113 164 0.8712731599807739
113 165 0.8875868320465088
113 166 0.8858816623687744
113 167 0.8823692202568054
113 168 0.8803909420967102
113 169 0.8763347268104553
113 170 0.3061028718948364
113 171 0.8690454363822937
113 172 0.8824008703231812
113 173 0.8794388175010681
113 174 0.2605600655078888
113 175 0.8699303865432739
113 176 0.8805627822875977
113 177 0.875586986541748
113 178 0.8799299001693726
113 179 0.7886276245117188
113 180 0.8721927404403687
113 181 0.31521257758140564
113 182 0.870583713054657
113 183 0.89278644323349
113 184 0.8747034072875977
113 185 0.8667044639587402
113 186 0.8826025724411011
113 187 0.8848657011985779
113 188 0.881485104560852
113 189 0.8851656317710876
113 190 0.878081738948822
113 191 0.8776354193687439
113 192 0.8801486492156982
113 193 0.8789839744567871
113 194 0.8846288919448853
113 195 0.878092885017395
113 196 0.8826196193695068
113 197 0.8558856844902039
113 198 0.12328223884105682
113 199 0.87816321849823
113 200 0.1307605654001236
113 201 0.24098116159439087
113 202 0.8835148215293884
113 203 0.36417704820632935
113 204 0.4140605926513672
113 205 0.7946173548698425
113 206 0.5072198510169983
113 207 0.8785374760627747
113 208 0.8906545639038086
113 209 0.06100888550281525
113 210 0.1690928041934967
113 211 0.16720342636108398
113 212 0.8755941987037659
113 213 0.28187182545661926
113 214 0.38547614216804504
113 215 0.1182306781411171
113 216 0.8893917798995972
113 217 0.8801295757293701
113 218 0.8719694018363953
113 219 0.886454701423645
113 220 0.8839539289474487
113 221 0.8712683320045471
113 222 0.8792303204536438
113 223 0.8883296847343445
113 224 0.76665198802948
113 225 0.8762673139572144
113 226 0.8694665431976318
113 227 0.8742610216140747
113 228 0.12768517434597015
113 229 0.8554157614707947
113 230 0.3469393849372864
113 231 0.8781101703643799
113 232 0.8778713941574097
113 233 0.694707453250885
113 234 0.24656447768211365
113 235 0.8835148215293884
113 236 0.8650944828987122
113 237 0.8778512477874756
113 238 0.8767226338386536
113 239 0.8837800025939941
113 240 0.5198246240615845
113 241 0.8708144426345825
113 242 0.3160892724990845
113 243 0.88310307264328
113 244 0.8817237019538879
113 245 0.8648643493652344
113 246 0.1338956356048584
113 247 0.880350649356842
113 248 0.8696898221969604
113 249 0.1248583123087883
113 250 0.8767488598823547
113 251 0.20709553360939026
113 252 0.8705886006355286
113 253 0.8737735152244568
113 254 0.21812370419502258
113 255 0.45982861518859863
114 115 0.3030759394168854
114 116 0.061701759696006775
114 117 0.059391386806964874
114 120 0.31399789452552795
114 121 0.3262631893157959
114 122 0.3194495737552643
114 123 0.3162824809551239
114 124 0.31988197565078735
114 125 0.06211300194263458
114 126 0.08025723695755005
114 127 0.3177708685398102
114 129 0.1800984889268875
114 130 0.30395132303237915
114 131 0.2939167022705078
114 132 0.32115286588668823
114 133 0.3239074945449829
114 134 0.10393492877483368
114 135 0.3159545660018921
114 136 0.2964366674423218
114 137 0.3281749486923218
114 138 0.3216501474380493
114 139 0.31905215978622437
114 140 0.3267747163772583
114 141 0.28124868869781494
114 142 0.3183475732803345
114 143 0.2084219753742218
114 144 0.2969806492328644
114 145 0.32749760150909424
114 146 0.33215299248695374
114 147 0.3316144049167633
114 148 0.32609325647354126
114 149 0.3224841058254242
114 151 0.3116474747657776
114 152 0.3312709629535675
114 153 0.08146882057189941
114 154 0.31877490878105164
114 155 0.32746052742004395
114 156 0.2979872226715088
114 157 0.31872206926345825
114 158 0.08164965361356735
114 159 0.33178654313087463
114 160 0.3212231993675232
114 161 0.3006536066532135
114 162 0.09622504562139511
114 163 0.3257540762424469
114 164 0.2998653054237366
114 165 0.3247429430484772
114 166 0.31810450553894043
114 167 0.327160507440567
114 168 0.31154006719589233
114 169 0.28828373551368713
114 170 0.05337604880332947
114 171 0.3157041072845459
114 172 0.3257540762424469
114 173 0.3312709629535675
114 174 0.12835901975631714
114 175 0.31749704480171204
114 176 0.33350491523742676
114 177 0.3257540762424469
114 178 0.32694578170776367
114 179 0.2634366452693939
114 180 0.32207009196281433
114 181 0.0555555559694767
114 182 0.32417163252830505
114 183 0.32457536458969116
114 184 0.31548330187797546
114 185 0.31087836623191833
114 186 0.3183929920196533
114 187 0.3183929920196533
114 188 0.31611838936805725
114 189 0.3174383044242859
114 190 0.33471357822418213
114 191 0.31988197565078735
114 192 0.3266039788722992
114 193 0.31253328919410706
114 194 0.31481483578681946
114 195 0.3200486898422241
114 196 0.31611838936805725
114 197 0.306223601102829
114 198 0.09622504562139511
114 199 0.31318584084510803
114 200 0.1530931144952774
114 202 0.32181644439697266
114 203 0.21857088804244995
114 204 0.2901898920536041
114 205 0.309149831533432
114 206 0.25598254799842834
114 207 0.33178654313087463
114 208 0.3364632725715637
114 210 0.14213381707668304
114 212 0.32349345088005066
114 213 0.06573421508073807
114 214 0.12696470320224762
114 216 0.32457536458969116
114 217 0.3195492625236511
114 218 0.30675968527793884
114 219 0.3247429430484772
114 220 0.3088008463382721
114 221 0.3200486898422241
114 222 0.32315593957901
114 223 0.3076196014881134
114 224 0.23309458792209625
114 225 0.30077844858169556
114 226 0.3361789286136627
114 227 0.32867109775543213
114 228 0.08419691026210785
114 229 0.30286741256713867
114 230 0.07684732973575592
114 231 0.32711708545684814
114 232 0.3203829526901245
114 233 0.27111876010894775
114 234 0.2285344898700714
114 235 0.32491084933280945
114 236 0.30988991260528564
114 237 0.33109962940216064
114 238 0.3226516544818878
114 239 0.31383413076400757
114 240 0.18093670904636383
114 241 0.32156115770339966
114 242 0.15558667480945587
114 243 0.31710678339004517
114 244 0.32592353224754333
114 245 0.31961891055107117
114 247 0.31921759247779846
114 248 0.3326825797557831
114 250 0.3212231993675232
114 252 0.3219001591205597
114 253 0.3174383044242859
114 255 0.1370377391576767
115 116 0.42776980996131897
115 117 0.18731354176998138
115 118 0.2546347379684448
115 120 0.9487076997756958
115 121 0.9418562054634094
115 122 0.9407669305801392
115 123 0.9441271424293518
115 124 0.942424476146698
115 125 0.2329588532447815
115 126 0.15050499141216278
115 127 0.9453834295272827
115 128 0.15574169158935547
115 129 0.5689128637313843
115 130 0.9401972889900208
115 131 0.8850358128547668
115 132 0.9518115520477295
115 133 0.9497810006141663
115 134 0.17718848586082458
115 135 0.946316659450531
115 136 0.7389269471168518
115 137 0.9511048197746277
115 138 0.9490671753883362
115 139 0.9473727941513062
115 140 0.9433329105377197
115 141 0.9093461632728577
115 142 0.9317583441734314
115 143 0.27410265803337097
115 144 0.917860746383667
115 145 0.9480882883071899
115 146 0.9337868094444275
115 147 0.9510341882705688
115 148 0.9487778544425964
115 149 0.9472988247871399
115 151 0.9168987274169922
115 152 0.9468823671340942
115 153 0.33641815185546875
115 154 0.9409112930297852
115 155 0.938932478427887
115 156 0.9504008293151855
115 157 0.9495577812194824
115 158 0.20879480242729187
115 159 0.9462416172027588
115 160 0.936805784702301
115 161 0.8980854153633118
115 162 0.1749809831380844
115 163 0.9467332363128662
115 164 0.9446755051612854
115 165 0.9490671753883362
115 166 0.9442492127418518
115 167 0.9513218402862549
115 168 0.9453834295272827
115 169 0.9359236359596252
115 170 0.3366837799549103
115 171 0.9278794527053833
115 172 0.9488488435745239
115 173 0.9489936232566833
115 174 0.24667741358280182
115 175 0.9346281290054321
115 176 0.9486528635025024
115 177 0.9446176886558533
115 178 0.939579963684082
115 179 0.8120846152305603
115 180 0.9424741268157959
115 181 0.3157041072845459
115 182 0.941628098487854
115 183 0.948577344417572
115 184 0.9436104893684387
115 185 0.9336321949958801
115 186 0.9517393112182617
115 187 0.9475234150886536
115 188 0.9489208459854126
115 189 0.9433329105377197
115 190 0.9468073844909668
115 191 0.9477189779281616
115 192 0.9449610114097595
115 193 0.9506128430366516
115 194 0.9513218402862549
115 195 0.9407967925071716
115 196 0.9436373114585876
115 197 0.9222896099090576
115 198 0.10662904381752014
115 199 0.937563419342041
115 200 0.16819579899311066
115 201 0.26053622364997864
115 202 0.9453375339508057
115 203 0.3700503706932068
115 204 0.4826008379459381
115 205 0.8707607388496399
115 206 0.5198847651481628
115 207 0.9441271424293518
115 208 0.9411344528198242
115 210 0.2423100471496582
115 211 0.1737118810415268
115 212 0.943900465965271
115 213 0.3105769455432892
115 214 0.37433066964149475
115 215 0.11012599617242813
115 216 0.9506853222846985
115 217 0.9467332363128662
115 218 0.9402690529823303
115 219 0.9480127096176147
115 220 0.9486528635025024
115 221 0.9482129216194153
115 222 0.9418562054634094
115 223 0.9460940361022949
115 224 0.8493260145187378
115 225 0.9472988247871399
115 226 0.9341298341751099
115 227 0.9370672106742859
115 228 0.2337636798620224
115 229 0.9239572286605835
115 230 0.34353604912757874
115 231 0.946445643901825
115 232 0.9449610114097595
115 233 0.7707738876342773
115 234 0.20915697515010834
115 235 0.9474477171897888
115 236 0.9370672106742859
115 237 0.9506128430366516
115 238 0.9446176886558533
115 239 0.9503318071365356
115 240 0.5290579199790955
115 241 0.9388558268547058
115 242 0.3792996406555176
115 243 0.9423476457595825
115 244 0.9451090693473816
115 245 0.938060462474823
115 246 0.12471712380647659
115 247 0.9489208459854126
115 248 0.9342055320739746
115 249 0.13682271540164948
115 250 0.938932478427887
115 251 0.18795305490493774
115 252 0.9398456811904907
115 253 0.9454551339149475
115 254 0.18865911662578583
115 255 0.5237032771110535
116 117 0.05496829003095627
116 118 0.13823957741260529
116 119 0.05037927255034447
116 120 0.43966054916381836
116 121 0.41182300448417664
116 122 0.41740089654922485
116 123 0.4224463701248169
116 124 0.4231058955192566
116 125 0.11957339942455292
116 127 0.43135446310043335
116 128 0.19511808454990387
116 129 0.2706194818019867
116 130 0.4338630437850952
116 131 0.40345674753189087
116 132 0.42984819412231445
116 133 0.44082656502723694
116 135 0.4334760010242462
116 136 0.2995714247226715
116 137 0.44012853503227234
116 138 0.4442535638809204
116 139 0.4220083951950073
116 140 0.4470330476760864
116 141 0.4260592460632324
116 142 0.45041850209236145
116 143 0.10288000851869583
116 144 0.413772851228714
116 145 0.4277821183204651
116 146 0.4083417057991028
116 147 0.4337007701396942
116 148 0.44380128383636475
116 149 0.40867090225219727
116 151 0.40202900767326355
116 152 0.437836229801178
116 153 0.12064245343208313
116 154 0.43040335178375244
116 155 0.4225708246231079
116 156 0.4435703456401825
116 157 0.43760979175567627
116 158 0.08060683310031891
116 159 0.4247422516345978
116 160 0.40871602296829224
116 161 0.42344343662261963
116 162 0.1306196004152298
116 163 0.4295571446418762
116 164 0.42323821783065796
116 165 0.4442535638809204
116 166 0.42949819564819336
116 167 0.44105327129364014
116 168 0.4428879916667938
116 169 0.4361831545829773
116 170 0.17125658690929413
116 171 0.4067319333553314
116 172 0.4203687608242035
116 173 0.4286668598651886
116 174 0.0777597650885582
116 175 0.435249924659729
116 176 0.4344210624694824
116 177 0.4295571446418762
116 178 0.431128591299057
116 179 0.366060346364975
116 180 0.42831531167030334
116 181 0.2399512678384781
116 182 0.41773319244384766
116 183 0.4325803518295288
116 184 0.42555099725723267
116 185 0.43943625688552856
116 186 0.43715792894363403
116 187 0.44173547625541687
116 188 0.42452189326286316
116 189 0.43320730328559875
116 190 0.41993248462677
116 191 0.43230384588241577
116 192 0.43758711218833923
116 193 0.43531864881515503
116 194 0.4364827871322632
116 195 0.4371306002140045
116 196 0.4359954595565796
116 197 0.4204033613204956
116 199 0.4359520375728607
116 201 0.09574633836746216
116 202 0.4284451901912689
116 203 0.16741499304771423
116 204 0.21486268937587738
116 205 0.4055529236793518
116 206 0.22249744832515717
116 207 0.4316299557685852
116 208 0.41751420497894287
116 210 0.10523886233568192
116 211 0.13007871806621552
116 212 0.419162392616272
116 213 0.18077799677848816
116 214 0.32073092460632324
116 215 0.07358363270759583
116 216 0.42571398615837097
116 217 0.4456368088722229
116 218 0.44499197602272034
116 219 0.43051376938819885
116 220 0.438993901014328
116 221 0.4187251031398773
116 222 0.4256271421909332
116 223 0.4302285313606262
116 224 0.38123947381973267
116 225 0.43622177839279175
116 226 0.4140811562538147
116 227 0.4125446379184723
116 228 0.24045880138874054
116 229 0.43197518587112427
116 230 0.19598674774169922
116 231 0.43596789240837097
116 232 0.44219326972961426
116 233 0.3336276113986969
116 234 0.07124704867601395
116 235 0.44219207763671875
116 236 0.4334036409854889
116 237 0.4330274760723114
116 238 0.4341513514518738
116 239 0.4509347081184387
116 240 0.24764032661914825
116 241 0.4299500584602356
116 242 0.21311935782432556
116 243 0.43966054916381836
116 244 0.4435703456401825
116 245 0.43154290318489075
116 246 0.1752445548772812
116 247 0.4359954595565796
116 248 0.4299071431159973
116 249 0.1188482865691185
116 250 0.40871602296829224
116 251 0.08592717349529266
116 252 0.4257753789424896
116 253 0.442424476146698
116 254 0.18908646702766418
116 255 0.25789183378219604
117 120 0.1944272667169571
117 121 0.1993086040019989
117 122 0.18581940233707428
117 123 0.20883893966674805
117 124 0.2041848748922348
117 127 0.189838707447052
117 128 0.08451542258262634
117 129 0.11042355000972748
117 130 0.20099233090877533
117 131 0.14298327267169952
117 132 0.20797687768936157
117 133 0.20281624794006348
117 135 0.19868803024291992
117 136 0.17986451089382172
117 137 0.1985851675271988
117 138 0.18350140750408173
117 139 0.20862242579460144
117 140 0.19463054835796356
117 141 0.20217296481132507
117 142 0.1920662224292755
117 143 0.15915176272392273
117 144 0.18946723639965057
117 145 0.19322088360786438
117 146 0.19596751034259796
117 147 0.1938212662935257
117 148 0.17928428947925568
117 149 0.18894952535629272
117 151 0.16486524045467377
117 152 0.20354978740215302
117 153 0.10160946100950241
117 154 0.1954500377178192
117 155 0.20504100620746613
117 156 0.19412356615066528
117 157 0.19352038204669952
117 158 0.06546536833047867
117 159 0.19392186403274536
117 160 0.20504100620746613
117 161 0.19913582503795624
117 162 0.07715167105197906
117 163 0.19899757206439972
117 164 0.18532924354076385
117 165 0.20333939790725708
117 166 0.20504100620746613
117 167 0.1930219829082489
117 168 0.2048259675502777
117 169 0.2060171365737915
117 171 0.19743859767913818
117 172 0.19899757206439972
117 173 0.19362053275108337
117 174 0.13098420202732086
117 175 0.21171657741069794
117 176 0.19807320833206177
117 177 0.19402262568473816
117 178 0.19972556829452515
117 179 0.11573655158281326
117 180 0.19555321335792542
117 181 0.13363061845302582
117 182 0.17994153499603271
117 183 0.1982775181531906
117 184 0.18532924354076385
117 185 0.18127799034118652
117 186 0.1982775181531906
117 187 0.19332057237625122
117 188 0.20376081764698029
117 189 0.20461159944534302
117 190 0.20873060822486877
117 191 0.19920477271080017
117 192 0.20450466871261597
117 193 0.20344451069831848
117 194 0.2029205560684204
117 195 0.1893431693315506
117 196 0.20873060822486877
117 197 0.18925891816616058
117 198 0.115727499127388
117 199 0.18581940233707428
117 201 0.09425577521324158
117 202 0.1736721396446228
117 203 0.0725158229470253
117 204 0.05698028579354286
117 205 0.16165520250797272
117 206 0.08923593163490295
117 207 0.1839771568775177
117 208 0.19483445584774017
117 210 0.05698028579354286
117 211 0.08451542258262634
117 212 0.18954092264175415
117 213 0.09035078436136246
117 214 0.09581010043621063
117 216 0.18836364150047302
117 217 0.18407274782657623
117 218 0.20077954232692719
117 219 0.20333939790725708
117 220 0.20302504301071167
117 221 0.1893431693315506
117 222 0.20429129898548126
117 223 0.20429129898548126
117 224 0.18410202860832214
117 225 0.19889423251152039
117 226 0.20152732729911804
117 227 0.19576004147529602
117 229 0.19426731765270233
117 230 0.09584545344114304
117 231 0.15486842393875122
117 232 0.19951675832271576
117 233 0.1285901814699173
117 235 0.1984824538230896
117 236 0.18572105467319489
117 237 0.1984824538230896
117 238 0.17909781634807587
117 239 0.19432587921619415
117 240 0.18463723361492157
117 241 0.20525673031806946
117 242 0.08732280135154724
117 243 0.1894419640302658
117 244 0.1891460418701172
117 245 0.19596751034259796
117 246 0.0690065547823906
117 247 0.20873060822486877
117 248 0.18621434271335602
117 250 0.19503900408744812
117 251 0.23262104392051697
117 252 0.2054731249809265
117 253 0.20461159944534302
117 255 0.05493731051683426
118 120 0.2585870027542114
118 121 0.2584521472454071
118 122 0.24470974504947662
118 123 0.25791481137275696
118 124 0.26614534854888916
118 125 0.07827804237604141
118 126 0.07585825771093369
118 127 0.24734999239444733
118 129 0.17356491088867188
118 130 0.22509433329105377
118 131 0.2455521523952484
118 132 0.2529585361480713
118 133 0.2526983916759491
118 134 0.056136082857847214
118 135 0.25764742493629456
118 136 0.19688934087753296
118 137 0.25751402974128723
118 138 0.24945247173309326
118 139 0.25764742493629456
118 140 0.23924696445465088
118 141 0.24851837754249573
118 142 0.24230782687664032
118 143 0.07504691183567047
118 144 0.245489239692688
118 145 0.24919520318508148
118 146 0.22904334962368011
118 147 0.2616868317127228
118 148 0.2583175301551819
118 149 0.25009921193122864
118 151 0.2388918548822403
118 152 0.2614157497882843
118 153 0.07985541224479675
118 154 0.259947270154953
118 155 0.2476096749305725
118 156 0.24644748866558075
118 157 0.2651802599430084
118 158 0.051449574530124664
118 159 0.24619141221046448
118 160 0.2476096749305725
118 161 0.22239741683006287
118 162 0.08084520697593689
118 163 0.24240954220294952
118 164 0.25587379932403564
118 165 0.24555477499961853
118 166 0.26726123690605164
118 167 0.2489386796951294
118 168 0.24342381954193115
118 169 0.2487884759902954
118 170 0.1121121272444725
118 171 0.23872007429599762
118 172 0.2580488622188568
118 173 0.25361230969429016
118 174 0.13235294818878174
118 175 0.2416604459285736
118 176 0.24906684458255768
118 177 0.2580488622188568
118 178 0.25899285078048706
118 179 0.24558649957180023
118 180 0.25614383816719055
118 181 0.12835901975631714
118 182 0.2553362548351288
118 183 0.2532194256782532
118 184 0.24012771248817444
118 185 0.2611900866031647
118 186 0.25711509585380554
118 187 0.2532194256782532
118 188 0.2499694973230362
118 189 0.24316903948783875
118 190 0.2616868317127228
118 191 0.2622314393520355
118 192 0.2391219437122345
118 193 0.24568171799182892
118 194 0.2644973397254944
118 195 0.2662840485572815
118 196 0.2499694973230362
118 197 0.2612992823123932
118 199 0.26049745082855225
118 201 0.0740761086344719
118 202 0.2612805664539337
118 203 0.05699056759476662
118 204 0.17166092991828918
118 205 0.22021248936653137
118 206 0.12623578310012817
118 207 0.25791481137275696
118 208 0.25520238280296326
118 212 0.2352019101381302
118 213 0.10651074349880219
118 214 0.08470986783504486
118 216 0.2610107958316803
118 217 0.26586851477622986
118 218 0.25246989727020264
118 219 0.2572478652000427
118 220 0.2568501830101013
118 221 0.2467043399810791
118 222 0.2467043399810791
118 223 0.2662840485572815
118 224 0.24552902579307556
118 225 0.2618226110935211
118 226 0.2336125373840332
118 227 0.26035958528518677
118 228 0.16674324870109558
118 229 0.2611558139324188
118 230 0.0860862284898758
118 231 0.2159404754638672
118 232 0.25088202953338623
118 233 0.22136884927749634
118 234 0.07579238712787628
118 235 0.2651802599430084
118 236 0.25246989727020264
118 237 0.2573808431625366
118 238 0.238499715924263
118 239 0.2662840485572815
118 240 0.11055799573659897
118 241 0.24787016212940216
118 242 0.0784313753247261
118 243 0.2507510185241699
118 244 0.2620949447154999
118 245 0.24483945965766907
118 247 0.2499694973230362
118 248 0.25314047932624817
118 249 0.050572171807289124
118 250 0.2594006061553955
118 252 0.2520700991153717
118 253 0.25493529438972473
118 255 0.17989800870418549
119 211 0.12909944355487823
119 215 0.18257418274879456
119 224 0.0511309988796711
119 230 0.1254911571741104
119 233 0.056121353060007095
120 121 0.9577466249465942
120 122 0.9506040811538696
120 123 0.9599199295043945
120 124 0.9582903981208801
120 125 0.24191880226135254
120 126 0.15494629740715027
120 127 0.9560690522193909
120 128 0.15926501154899597
120 129 0.570906937122345
120 130 0.9511079788208008
120 131 0.8992578983306885
120 132 0.9673624634742737
120 133 0.9642963409423828
120 134 0.19941259920597076
120 135 0.9610047936439514
120 136 0.7330368757247925
120 137 0.9625862836837769
120 138 0.961591362953186
120 139 0.962044894695282
120 140 0.956113338470459
120 141 0.92803955078125
120 142 0.9440045952796936
120 143 0.3032457232475281
120 144 0.9295942187309265
120 145 0.9626742005348206
120 146 0.9490038156509399
120 147 0.9667060375213623
120 148 0.9582903981208801
120 149 0.9588788151741028
120 151 0.9298829436302185
120 152 0.961546778678894
120 153 0.3373657464981079
120 154 0.9559417963027954
120 155 0.9549785256385803
120 156 0.9588338732719421
120 157 0.961049497127533
120 158 0.21931760013103485
120 159 0.9609610438346863
120 160 0.953931450843811
120 161 0.9118191599845886
120 162 0.1723121702671051
120 163 0.9583353996276855
120 164 0.9522916078567505
120 165 0.9626297950744629
120 166 0.9581198692321777
120 167 0.9637559056282043
120 168 0.9571150541305542
120 169 0.94795161485672
120 170 0.34050944447517395
120 171 0.9476476907730103
120 172 0.959377110004425
120 173 0.9646652936935425
120 174 0.2546690106391907
120 175 0.9446490406990051
120 176 0.9652888774871826
120 177 0.9583353996276855
120 178 0.9545229077339172
120 179 0.8408952355384827
120 180 0.9532967209815979
120 181 0.3202156722545624
120 182 0.9555239081382751
120 183 0.9631708264350891
120 184 0.9533404111862183
120 185 0.9457511305809021
120 186 0.9631708264350891
120 187 0.9652466773986816
120 188 0.9625437259674072
120 189 0.9582032561302185
120 190 0.9625437259674072
120 191 0.960375964641571
120 192 0.956658124923706
120 193 0.9641663432121277
120 194 0.9658284783363342
120 195 0.9587898850440979
120 196 0.9594219326972961
120 197 0.9403533339500427
120 198 0.10500272363424301
120 199 0.9548103213310242
120 200 0.1713418811559677
120 201 0.24866826832294464
120 202 0.9652053117752075
120 203 0.39477354288101196
120 204 0.49114784598350525
120 205 0.8845580816268921
120 206 0.5343769192695618
120 207 0.9609610438346863
120 208 0.9602531790733337
120 209 0.05596001818776131
120 210 0.2266836315393448
120 211 0.1710624247789383
120 212 0.956658124923706
120 213 0.30584001541137695
120 214 0.3962053060531616
120 215 0.12513041496276855
120 216 0.9652466773986816
120 217 0.9604187607765198
120 218 0.9543049931526184
120 219 0.961591362953186
120 220 0.9652888774871826
120 221 0.9577466249465942
120 222 0.9587898850440979
120 223 0.9587898850440979
120 224 0.8644068837165833
120 225 0.9588788151741028
120 226 0.9452002048492432
120 227 0.9522029757499695
120 228 0.21000544726848602
120 229 0.9323440790176392
120 230 0.3497640788555145
120 231 0.9539769887924194
120 232 0.9629244208335876
120 233 0.7756856679916382
120 234 0.23423685133457184
120 235 0.9641663432121277
120 236 0.951151967048645
120 237 0.962088406085968
120 238 0.9604187607765198
120 239 0.9598332047462463
120 240 0.552284836769104
120 241 0.9570314884185791
120 242 0.3630666434764862
120 243 0.9592901468276978
120 244 0.9598761200904846
120 245 0.952160120010376
120 246 0.1444881558418274
120 247 0.9615030884742737
120 248 0.9515706896781921
120 249 0.1414726972579956
120 250 0.953931450843811
120 251 0.20456917583942413
120 252 0.9506950974464417
120 253 0.9571583271026611
120 254 0.20959988236427307
120 255 0.511881411075592
121 122 0.9564143419265747
121 123 0.9625411033630371
121 124 0.9619594216346741
121 125 0.2292861044406891
121 126 0.15486548840999603
121 127 0.9545249342918396
121 128 0.17097321152687073
121 129 0.5546107888221741
121 130 0.9506120085716248
121 131 0.9043301343917847
121 132 0.9647854566574097
121 133 0.964828610420227
121 134 0.1893431693315506
121 135 0.9636221528053284
121 136 0.7407205104827881
121 137 0.9620842933654785
121 138 0.9652414917945862
121 139 0.9625826478004456
121 140 0.9577035307884216
121 141 0.9232161045074463
121 142 0.9445701241493225
121 143 0.29309573769569397
121 144 0.934467613697052
121 145 0.9694300293922424
121 146 0.9537667036056519
121 147 0.9610016942024231
121 148 0.9577906131744385
121 149 0.9635816812515259
121 151 0.9250852465629578
121 152 0.9620842933654785
121 153 0.3250388503074646
121 154 0.9522969126701355
121 155 0.9586668610572815
121 156 0.9593755602836609
121 157 0.965740442276001
121 158 0.21920321881771088
121 159 0.967743992805481
121 160 0.9618065357208252
121 161 0.9146336913108826
121 162 0.18298621475696564
121 163 0.9588767886161804
121 164 0.9528432488441467
121 165 0.9642035365104675
121 166 0.9544805288314819
121 167 0.9663605690002441
121 168 0.9587069153785706
121 169 0.9495604634284973
121 170 0.33734652400016785
121 171 0.9460940361022949
121 172 0.9609590172767639
121 173 0.9620842933654785
121 174 0.2506202757358551
121 175 0.9473211765289307
121 176 0.9668580293655396
121 177 0.9609590172767639
121 178 0.9582048654556274
121 179 0.821080207824707
121 180 0.9517502188682556
121 181 0.30140504240989685
121 182 0.9571176171302795
121 183 0.9657806158065796
121 184 0.9570361971855164
121 185 0.9494731426239014
121 186 0.9657806158065796
121 187 0.9657806158065796
121 188 0.9610016942024231
121 189 0.956659197807312
121 190 0.9620417952537537
121 191 0.9598750472068787
121 192 0.9582468867301941
121 193 0.9615867137908936
121 194 0.9673963189125061
121 195 0.9603754281997681
121 196 0.9610016942024231
121 197 0.9345105886459351
121 198 0.12109380960464478
121 199 0.9543123841285706
121 200 0.18266935646533966
121 201 0.25248366594314575
121 202 0.9636635780334473
121 203 0.3869798481464386
121 204 0.50877845287323
121 205 0.885224461555481
121 206 0.5397006273269653
121 207 0.9604598879814148
121 208 0.9576614499092102
121 209 0.055930834263563156
121 210 0.2504144012928009
121 211 0.17097321152687073
121 212 0.962422251701355
121 213 0.31198325753211975
121 214 0.38597339391708374
121 215 0.1250651478767395
121 216 0.9647432565689087
121 217 0.9620001316070557
121 218 0.9527568221092224
121 219 0.9642035365104675
121 220 0.9637491703033447
121 221 0.9582898616790771
121 222 0.9582898616790771
121 223 0.9572471380233765
121 224 0.8487785458564758
121 225 0.9625411033630371
121 226 0.9499791264533997
121 227 0.9527568221092224
121 228 0.24218761920928955
121 229 0.9393469095230103
121 230 0.34958168864250183
121 231 0.9566159248352051
121 232 0.962422251701355
121 233 0.7791255116462708
121 234 0.25026053190231323
121 235 0.9636635780334473
121 236 0.9517063498497009
121 237 0.9647020101547241
121 238 0.9599179029464722
121 239 0.9572471380233765
121 240 0.5446368455886841
121 241 0.9554847478866577
121 242 0.3863728940486908
121 243 0.9587898850440979
121 244 0.9593755602836609
121 245 0.9485089182853699
121 246 0.1444128006696701
121 247 0.9610016942024231
121 248 0.947914719581604
121 249 0.14813220500946045
121 250 0.9544805288314819
121 251 0.21419879794120789
121 252 0.9522969126701355
121 253 0.9597923159599304
121 254 0.18568481504917145
121 255 0.5231113433837891
122 123 0.9544259905815125
122 124 0.9538151621818542
122 125 0.23950424790382385
122 126 0.1289447546005249
122 127 0.9515411257743835
122 128 0.16638393700122833
122 129 0.5536247491836548
122 130 0.9432963728904724
122 131 0.8958484530448914
122 132 0.9577975273132324
122 133 0.9599428772926331
122 134 0.17577511072158813
122 135 0.9534364342689514
122 136 0.7289679050445557
122 137 0.9560843706130981
122 138 0.956142246723175
122 139 0.9576273560523987
122 140 0.9537032246589661
122 141 0.9130269289016724
122 142 0.9381855130195618
122 143 0.29205816984176636
122 144 0.9267409443855286
122 145 0.9603812098503113
122 146 0.9432963728904724
122 147 0.9528825283050537
122 148 0.9538151621818542
122 149 0.9596700668334961
122 151 0.9204521179199219
122 152 0.9550371766090393
122 153 0.3214874863624573
122 154 0.9513763189315796
122 155 0.9504303932189941
122 156 0.9522689580917358
122 157 0.9545432329177856
122 158 0.22093789279460907
122 159 0.9575724601745605
122 160 0.9493755102157593
122 161 0.904185950756073
122 162 0.15188705921173096
122 163 0.9528231620788574
122 164 0.9455922842025757
122 165 0.9571883082389832
122 166 0.9483206868171692
122 167 0.9583486318588257
122 168 0.9525948762893677
122 169 0.9454160928726196
122 170 0.34603407979011536
122 171 0.937563419342041
122 172 0.9549218416213989
122 173 0.9560843706130981
122 174 0.2210281491279602
122 175 0.9388687610626221
122 176 0.9588419795036316
122 177 0.9549218416213989
122 178 0.9499896168708801
122 179 0.8275779485702515
122 180 0.9518784880638123
122 181 0.29126283526420593
122 182 0.953094482421875
122 183 0.9566943049430847
122 184 0.9487618803977966
122 185 0.9431791305541992
122 186 0.9587854743003845
122 187 0.9556487202644348
122 188 0.9528825283050537
122 189 0.9515979290008545
122 190 0.9539307951927185
122 191 0.9527647495269775
122 192 0.9532048106193542
122 193 0.9555898308753967
122 194 0.9593926072120667
122 195 0.9490573406219482
122 196 0.9560273289680481
122 197 0.9224851727485657
122 198 0.08950487524271011
122 199 0.9470338821411133
122 200 0.18411493301391602
122 201 0.254481703042984
122 202 0.9555898308753967
122 203 0.3798450529575348
122 204 0.49277326464653015
122 205 0.8808638453483582
122 206 0.5364426374435425
122 207 0.9544259905815125
122 208 0.9483798146247864
122 209 0.05637345090508461
122 210 0.2523960769176483
122 211 0.1723262220621109
122 212 0.9532048106193542
122 213 0.3144521415233612
122 214 0.36376628279685974
122 215 0.11765120923519135
122 216 0.9556487202644348
122 217 0.95702064037323
122 218 0.9475914239883423
122 219 0.956142246723175
122 220 0.9577975273132324
122 221 0.9511592984199524
122 222 0.9532613754272461
122 223 0.9553633332252502
122 224 0.8590255975723267
122 225 0.9533771872520447
122 226 0.940493643283844
122 227 0.9444151520729065
122 228 0.22376218438148499
122 229 0.9252138137817383
122 230 0.35812434554100037
122 231 0.9525948762893677
122 232 0.9542570114135742
122 233 0.7710835337638855
122 234 0.2481726109981537
122 235 0.9545432329177856
122 236 0.9454739689826965
122 237 0.9566364884376526
122 238 0.9591193199157715
122 239 0.9511592984199524
122 240 0.5285468697547913
122 241 0.9472063779830933
122 242 0.3894304931163788
122 243 0.9495525360107422
122 244 0.9543687701225281
122 245 0.9411765933036804
122 246 0.13827785849571228
122 247 0.9528825283050537
122 248 0.941615641117096
122 249 0.13573132455348969
122 250 0.9493755102157593
122 251 0.1913604885339737
122 252 0.9450337886810303
122 253 0.9526505470275879
122 254 0.16795893013477325
122 255 0.5060065984725952
123 124 0.9630797505378723
123 125 0.24128994345664978
123 126 0.15454350411891937
123 127 0.9577570557594299
123 128 0.1647343933582306
123 129 0.5605533719062805
123 130 0.954931914806366
123 131 0.9046619534492493
123 132 0.9700186252593994
123 133 0.967988133430481
123 134 0.20386658608913422
123 135 0.9647308588027954
123 136 0.7499127984046936
123 137 0.9663049578666687
123 138 0.9653061628341675
123 139 0.9636934399604797
123 140 0.9598813652992249
123 141 0.9245445728302002
123 142 0.9447174072265625
123 143 0.30910488963127136
123 144 0.9357330799102783
123 145 0.9674144983291626
123 146 0.9507343769073486
123 147 0.9641931653022766
123 148 0.960999608039856
123 149 0.9626168012619019
123 151 0.9296176433563232
123 152 0.9652681350708008
123 153 0.3304259181022644
123 154 0.9555500745773315
123 155 0.9577181935310364
123 156 0.9615389704704285
123 157 0.9637326002120972
123 158 0.21874749660491943
123 159 0.9615784287452698
123 160 0.958762526512146
123 161 0.9127321839332581
123 162 0.1933472901582718
123 163 0.9631170034408569
123 164 0.9581846594810486
123 165 0.9642704129219055
123 166 0.956673800945282
123 167 0.9664187431335449
123 168 0.9577570557594299
123 169 0.9528331756591797
123 170 0.3366451561450958
123 171 0.9451843500137329
123 172 0.9631170034408569
123 173 0.9642313718795776
123 174 0.2422836273908615
123 175 0.9485098123550415
123 176 0.9669162631034851
123 177 0.9631170034408569
123 178 0.9582982063293457
123 179 0.8362924456596375
123 180 0.9550073146820068
123 181 0.32558491826057434
123 182 0.9645224809646606
123 183 0.965843141078949
123 184 0.9550464749336243
123 185 0.9538088440895081
123 186 0.9648079872131348
123 187 0.966878354549408
123 188 0.9621174335479736
123 189 0.9588391184806824
123 190 0.9631552696228027
123 191 0.9599595665931702
123 192 0.9593797326087952
123 193 0.9668413996696472
123 194 0.9674522876739502
123 195 0.9635816812515259
123 196 0.9641931653022766
123 197 0.933635950088501
123 198 0.12084205448627472
123 199 0.9544259905815125
123 200 0.18228958547115326
123 201 0.25589561462402344
123 202 0.9637326002120972
123 203 0.39627137780189514
123 204 0.49978750944137573
123 205 0.8890107870101929
123 206 0.5460329651832581
123 207 0.9646936058998108
123 208 0.9567137360572815
123 209 0.055814556777477264
123 210 0.25782689452171326
123 211 0.17650113999843597
123 212 0.9614630341529846
123 213 0.3239137828350067
123 214 0.39517539739608765
123 215 0.09984411299228668
123 216 0.965843141078949
123 217 0.9620780944824219
123 218 0.953920841217041
123 219 0.9663418531417847
123 220 0.9669162631034851
123 221 0.9635816812515259
123 222 0.9625411033630371
123 223 0.9604598879814148
123 224 0.8633250594139099
123 225 0.9636552333831787
123 226 0.9511606097221375
123 227 0.9528725743293762
123 228 0.23765605688095093
123 229 0.9405969977378845
123 230 0.3545738160610199
123 231 0.9577570557594299
123 232 0.9604213833808899
123 233 0.7838996648788452
123 234 0.23765605688095093
123 235 0.9637326002120972
123 236 0.9549691081047058
123 237 0.965805172920227
123 238 0.961039125919342
123 239 0.9604598879814148
123 240 0.5416684150695801
123 241 0.9545437097549438
123 242 0.38556963205337524
123 243 0.9609610438346863
123 244 0.9615389704704285
123 245 0.9538825154304504
123 246 0.1369069367647171
123 247 0.9641931653022766
123 248 0.9554034471511841
123 249 0.15454350411891937
123 250 0.958762526512146
123 251 0.19917936623096466
123 252 0.9555500745773315
123 253 0.9588391184806824
123 254 0.21855753660202026
123 255 0.5124629139900208
124 125 0.23750001192092896
124 126 0.15478479862213135
124 127 0.9582074284553528
124 128 0.1649915874004364
124 129 0.5614285469055176
124 130 0.9532697796821594
124 131 0.9049667119979858
124 132 0.9642828702926636
124 133 0.9674301147460938
124 134 0.2041848748922348
124 135 0.962081253528595
124 136 0.7578017115592957
124 137 0.963659942150116
124 138 0.9626638889312744
124 139 0.9610422849655151
124 140 0.9572045803070068
124 141 0.9303252696990967
124 142 0.9461923837661743
124 143 0.30625858902931213
124 144 0.9318386316299438
124 145 0.9668523073196411
124 146 0.9511677026748657
124 147 0.9615405201911926
124 148 0.9583333134651184
124 149 0.9620397090911865
124 151 0.9310690760612488
124 152 0.963659942150116
124 153 0.3309418559074402
124 154 0.95389723777771
124 155 0.9571213722229004
124 156 0.9609580039978027
124 157 0.9631614685058594
124 158 0.21452467143535614
124 159 0.9630797505378723
124 160 0.9592134952545166
124 161 0.922926127910614
124 162 0.18827001750469208
124 163 0.962539553642273
124 164 0.956537663936615
124 165 0.9657759666442871
124 166 0.9571213722229004
124 167 0.9648219347000122
124 168 0.9550725817680359
124 169 0.9522187113761902
124 170 0.31031644344329834
124 171 0.9413655400276184
124 172 0.9594177603721619
124 173 0.9615830779075623
124 174 0.250489741563797
124 175 0.9510450959205627
124 176 0.9642828702926636
124 177 0.9646207094192505
124 178 0.9577056169509888
124 179 0.8303356766700745
124 180 0.955449640750885
124 181 0.3291988968849182
124 182 0.9587100148200989
124 183 0.9652774333953857
124 184 0.955489993095398
124 185 0.9510850310325623
124 186 0.9642406702041626
124 187 0.9652774333953857
124 188 0.9605010151863098
124 189 0.9582484364509583
124 190 0.9615405201911926
124 191 0.9604166746139526
124 192 0.9587909579277039
124 193 0.9631614685058594
124 194 0.9679275751113892
124 195 0.9598750472068787
124 196 0.9615405201911926
124 197 0.936163604259491
124 198 0.12909944355487823
124 199 0.9517142176628113
124 200 0.1654578596353531
124 201 0.2562951445579529
124 202 0.9631614685058594
124 203 0.37413838505744934
124 204 0.4846768081188202
124 205 0.8847633004188538
124 206 0.5412859916687012
124 207 0.960999608039856
124 208 0.9571624994277954
124 209 0.055901702493429184
124 210 0.2502839267253876
124 211 0.1767767071723938
124 212 0.9598342776298523
124 213 0.3149704039096832
124 214 0.38577234745025635
124 215 0.125
124 216 0.9642406702041626
124 217 0.9677424430847168
124 218 0.9522604942321777
124 219 0.9657759666442871
124 220 0.9694616198539734
124 221 0.9598750472068787
124 222 0.9609172344207764
124 223 0.9577906131744385
124 224 0.8600053787231445
124 225 0.9620397090911865
124 226 0.9505380988121033
124 227 0.9533103704452515
124 228 0.24609582126140594
124 229 0.9367189407348633
124 230 0.3493995666503906
124 231 0.9561175107955933
124 232 0.9577476978302002
124 233 0.773596465587616
124 234 0.24206145107746124
124 235 0.9631614685058594
124 236 0.9512105584144592
124 237 0.9631614685058594
124 238 0.9614989161491394
124 239 0.9598750472068787
124 240 0.5388360023498535
124 241 0.9549869298934937
124 242 0.3783438503742218
124 243 0.960375964641571
124 244 0.9588757753372192
124 245 0.9511677026748657
124 246 0.13712067902088165
124 247 0.9615405201911926
124 248 0.9505789875984192
124 249 0.14132525026798248
124 250 0.9581674337387085
124 251 0.19949035346508026
124 252 0.9591383934020996
124 253 0.9582484364509583
124 254 0.20938143134117126
124 255 0.5132630467414856
125 126 0.13459548354148865
125 127 0.22988618910312653
125 128 0.0707106813788414
125 129 0.19188062846660614
125 130 0.2354271560907364
125 131 0.2082420289516449
125 132 0.23615090548992157
125 133 0.24418556690216064
125 135 0.24103978276252747
125 136 0.09674064815044403
125 137 0.240914985537529
125 138 0.232367143034935
125 139 0.23688392341136932
125 140 0.24217170476913452
125 141 0.25155648589134216
125 142 0.24949878454208374
125 143 0.14647150039672852
125 144 0.2356373518705368
125 145 0.24456287920475006
125 146 0.2354271560907364
125 147 0.24532277882099152
125 148 0.25
125 149 0.23296959698200226
125 151 0.2241462618112564
125 152 0.215992733836174
125 153 0.17002516984939575
125 154 0.22641955316066742
125 155 0.2384958267211914
125 156 0.24154090881347656
125 157 0.24494193494319916
125 159 0.24128994345664978
125 160 0.23012755811214447
125 161 0.19730010628700256
125 163 0.23309065401554108
125 164 0.24306324124336243
125 165 0.244815394282341
125 166 0.24267995357513428
125 167 0.2194659262895584
125 168 0.24660518765449524
125 169 0.24803932011127472
125 170 0.13128772377967834
125 171 0.25413691997528076
125 172 0.24973997473716736
125 173 0.23260757327079773
125 174 0.09393364191055298
125 175 0.2277447134256363
125 176 0.24443690478801727
125 177 0.24141532182693481
125 178 0.24647603929042816
125 179 0.25176358222961426
125 180 0.2349294275045395
125 182 0.24255257844924927
125 183 0.23224720358848572
125 184 0.24306324124336243
125 185 0.24014107882976532
125 186 0.2405417412519455
125 187 0.24468903243541718
125 188 0.24116475880146027
125 189 0.2505224645137787
125 190 0.21621666848659515
125 191 0.23750001192092896
125 192 0.23787197470664978
125 193 0.24494193494319916
125 194 0.2318885177373886
125 195 0.24596147239208221
125 196 0.2370067536830902
125 197 0.21825985610485077
125 198 0.06454972177743912
125 199 0.24370607733726501
125 201 0.11040405184030533
125 202 0.24079036712646484
125 203 0.09100664407014847
125 204 0.08740074187517166
125 205 0.21640069782733917
125 206 0.20904837548732758
125 207 0.24128994345664978
125 208 0.24660518765449524
125 210 0.09534625709056854
125 211 0.0707106813788414
125 212 0.23787197470664978
125 213 0.050395265221595764
125 214 0.09018054604530334
125 216 0.2363944798707962
125 217 0.24141532182693481
125 218 0.24777670204639435
125 219 0.244815394282341
125 220 0.23200790584087372
125 221 0.24179261922836304
125 222 0.24179261922836304
125 223 0.2292861044406891
125 224 0.2240447998046875
125 225 0.24128994345664978
125 226 0.18968608975410461
125 227 0.23937749862670898
125 229 0.24380356073379517
125 230 0.12601295113563538
125 231 0.2340659201145172
125 232 0.25039154291152954
125 233 0.11783257871866226
125 234 0.08068715035915375
125 235 0.2324872612953186
125 236 0.20998024940490723
125 237 0.24079036712646484
125 238 0.24141532182693481
125 239 0.24596147239208221
125 240 0.2133275717496872
125 241 0.23455819487571716
125 242 0.052185360342264175
125 243 0.2210637331008911
125 244 0.23321190476417542
125 245 0.23122310638427734
125 247 0.24948078393936157
125 248 0.2358025312423706
125 250 0.2384958267211914
125 252 0.2222266048192978
125 253 0.23799633979797363
125 255 0.17619478702545166
126 127 0.1485198736190796
126 129 0.08034837990999222
126 130 0.15617378056049347
126 131 0.15028011798858643
126 132 0.13383091986179352
126 133 0.14706262946128845
126 134 0.06434894353151321
126 135 0.14767096936702728
126 136 0.11284738779067993
126 137 0.15430335700511932
126 138 0.12733623385429382
126 139 0.14095865190029144
126 140 0.14162059128284454
126 141 0.15411393344402313
126 142 0.12294210493564606
126 144 0.14531567692756653
126 145 0.15398487448692322
126 146 0.14259344339370728
126 147 0.15446335077285767
126 148 0.14132525026798248
126 149 0.1478242129087448
126 151 0.15316607058048248
126 152 0.1341768205165863
126 153 0.11769231408834457
126 154 0.14221689105033875
126 155 0.148675799369812
126 156 0.1547042578458786
126 157 0.15422354638576508
126 159 0.1478242129087448
126 160 0.1148858442902565
126 161 0.13454890251159668
126 163 0.15462380647659302
126 164 0.14891061186790466
126 165 0.14744195342063904
126 166 0.148675799369812
126 167 0.14045016467571259
126 168 0.1485198736190796
126 169 0.12222295254468918
126 171 0.12314044684171677
126 172 0.15462380647659302
126 173 0.15430335700511932
126 174 0.1264304369688034
126 175 0.14304925501346588
126 176 0.15390555560588837
126 177 0.1479010283946991
126 178 0.15518946945667267
126 179 0.140758216381073
126 180 0.14229196310043335
126 181 0.08025723695755005
126 182 0.14184333384037018
126 183 0.1406674087047577
126 184 0.14891061186790466
126 185 0.15650604665279388
126 186 0.15406429767608643
126 187 0.13396896421909332
126 188 0.15446335077285767
126 189 0.1551082730293274
126 190 0.14103174209594727
126 191 0.12786570191383362
126 192 0.1415465921163559
126 193 0.14751817286014557
126 194 0.14713826775550842
126 195 0.14139892160892487
126 196 0.12088435143232346
126 197 0.1451558917760849
126 198 0.05212860554456711
126 199 0.15609101951122284
126 201 0.07642226666212082
126 202 0.14751817286014557
126 203 0.0653284415602684
126 204 0.11549857258796692
126 205 0.13106951117515564
126 206 0.15676309168338776
126 207 0.1478242129087448
126 208 0.1552707850933075
126 212 0.15502721071243286
126 214 0.09710314124822617
126 216 0.14736585319042206
126 217 0.15462380647659302
126 218 0.12887650728225708
126 219 0.15414386987686157
126 220 0.14052246510982513
126 221 0.14813220500946045
126 222 0.15486548840999603
126 223 0.12119907140731812
126 224 0.10554395616054535
126 225 0.1478242129087448
126 226 0.1497812122106552
126 227 0.14922542870044708
126 229 0.15889298915863037
126 230 0.05550798401236534
126 231 0.12151626497507095
126 232 0.14828690886497498
126 233 0.12411962449550629
126 235 0.14081279933452606
126 236 0.15600840747356415
126 237 0.15422354638576508
126 238 0.14117825031280518
126 239 0.14813220500946045
126 240 0.07128725945949554
126 241 0.13530202209949493
126 243 0.14820949733257294
126 244 0.14797797799110413
126 245 0.14938360452651978
126 247 0.15446335077285767
126 248 0.15642277896404266
126 250 0.148675799369812
126 252 0.14221689105033875
126 253 0.1281329244375229
126 254 0.09223131090402603
126 255 0.07423832267522812
127 128 0.17142066359519958
127 129 0.563191294670105
127 130 0.9509912133216858
127 131 0.9000300168991089
127 132 0.9621154069900513
127 133 0.9642398953437805
127 134 0.2048259675502777
127 135 0.9578062295913696
127 136 0.7453547716140747
127 137 0.9583519697189331
127 138 0.9615238904953003
127 139 0.9588484764099121
127 140 0.9539272785186768
127 141 0.9158430099487305
127 142 0.9417396187782288
127 143 0.29386278986930847
127 144 0.9336898326873779
127 145 0.9626112580299377
127 146 0.9499368667602539
127 147 0.9593456387519836
127 148 0.9561175107955933
127 149 0.9567137360572815
127 151 0.9318304061889648
127 152 0.9614771008491516
127 153 0.3197981119155884
127 154 0.9547891616821289
127 155 0.9517319202423096
127 156 0.9577087163925171
127 157 0.9588975310325623
127 158 0.22893425822257996
127 159 0.9577570557594299
127 160 0.9559292197227478
127 161 0.9115296602249146
127 162 0.1672770082950592
127 163 0.9582546949386597
127 164 0.9532350301742554
127 165 0.9615238904953003
127 166 0.9538305401802063
127 167 0.9626588821411133
127 168 0.9538784027099609
127 169 0.9467739462852478
127 170 0.3292498290538788
127 171 0.940072238445282
127 172 0.9582546949386597
127 173 0.9593937397003174
127 174 0.22771905362606049
127 175 0.9423966407775879
127 176 0.9652323722839355
127 177 0.9572108387947083
127 178 0.9533788561820984
127 179 0.8123012781143188
127 180 0.9563452005386353
127 181 0.3053092658519745
127 182 0.9543787240982056
127 183 0.9610276818275452
127 184 0.9500820636749268
127 185 0.9456186294555664
127 186 0.9599875807762146
127 187 0.9620677828788757
127 188 0.9572601318359375
127 189 0.9560214877128601
127 190 0.958302915096283
127 191 0.9571624994277954
127 192 0.9565684199333191
127 193 0.9641032814979553
127 194 0.9616204500198364
127 195 0.9607978463172913
127 196 0.9593456387519836
127 197 0.9348098635673523
127 198 0.12141072750091553
127 199 0.947326123714447
127 200 0.165977343916893
127 201 0.26105520129203796
127 202 0.9588975310325623
127 203 0.3930644094944
127 204 0.5081173777580261
127 205 0.893194317817688
127 206 0.5448578000068665
127 207 0.9588003158569336
127 208 0.957023024559021
127 210 0.23911406099796295
127 211 0.16550961136817932
127 212 0.9565684199333191
127 213 0.3191189169883728
127 214 0.3543160855770111
127 215 0.1170329600572586
127 216 0.9631078243255615
127 217 0.9603423476219177
127 218 0.951037585735321
127 219 0.9615238904953003
127 220 0.9641934037208557
127 221 0.9576614499092102
127 222 0.9555704593658447
127 223 0.9576614499092102
127 224 0.8650466203689575
127 225 0.9588003158569336
127 226 0.9461225867271423
127 227 0.9520907402038574
127 228 0.24686849117279053
127 229 0.9289332628250122
127 230 0.359115332365036
127 231 0.958071231842041
127 232 0.9544752836227417
127 233 0.7824493050575256
127 234 0.24686849117279053
127 235 0.9609798192977905
127 236 0.951037585735321
127 237 0.9599387049674988
127 238 0.9572108387947083
127 239 0.9545249342918396
127 240 0.5349934697151184
127 241 0.9506322741508484
127 242 0.3952364921569824
127 243 0.9581611156463623
127 244 0.9577087163925171
127 245 0.9478282332420349
127 246 0.14479075372219086
127 247 0.958302915096283
127 248 0.9451155662536621
127 249 0.1552707850933075
127 250 0.9538305401802063
127 251 0.20011669397354126
127 252 0.9537376761436462
127 253 0.954974353313446
127 254 0.21003882586956024
127 255 0.520638108253479
128 129 0.05025188997387886
128 130 0.17836301028728485
128 131 0.12531860172748566
128 132 0.16991344094276428
128 133 0.1697387397289276
128 135 0.16456358134746552
128 136 0.1444125920534134
128 137 0.17035260796546936
128 138 0.17017653584480286
128 139 0.17044085264205933
128 140 0.17714613676071167
128 141 0.15947619080543518
128 142 0.14951041340827942
128 143 0.05649326741695404
128 144 0.16359129548072815
128 145 0.175863116979599
128 146 0.17836301028728485
128 147 0.17052924633026123
128 148 0.1708841472864151
128 149 0.1588510125875473
128 151 0.15239936113357544
128 152 0.17622683942317963
128 154 0.17196227610111237
128 155 0.17160063982009888
128 156 0.16490572690963745
128 157 0.16439330577850342
128 159 0.1588510125875473
128 160 0.17751790583133698
128 161 0.17981578409671783
128 163 0.17070640623569489
128 164 0.1600184440612793
128 165 0.17604470252990723
128 166 0.17160063982009888
128 167 0.15225781500339508
128 168 0.16550961136817932
128 169 0.17836301028728485
128 170 0.06751596182584763
128 171 0.1617317497730255
128 172 0.16481997072696686
128 173 0.15272992849349976
128 175 0.17893315851688385
128 176 0.16991344094276428
128 177 0.17659282684326172
128 178 0.15951497852802277
128 179 0.12324721366167068
128 180 0.17798592150211334
128 182 0.16559642553329468
128 183 0.17595383524894714
128 184 0.17187166213989258
128 185 0.16086825728416443
128 186 0.15835843980312347
128 187 0.17595383524894714
128 188 0.15876860916614532
128 189 0.17124126851558685
128 190 0.16464892029762268
128 191 0.1708841472864151
128 192 0.1770535707473755
128 193 0.17026449739933014
128 194 0.16982601583003998
128 195 0.17686884105205536
128 196 0.1764095574617386
128 197 0.1513068675994873
128 199 0.1723262220621109
128 201 0.06691495329141617
128 202 0.17613568902015686
128 203 0.0858018770813942
128 204 0.0786566510796547
128 205 0.14026688039302826
128 206 0.0844683051109314
128 207 0.1470842808485031
128 208 0.16550961136817932
128 209 0.10540926456451416
128 212 0.1711517721414566
128 213 0.14253933727741241
128 214 0.07085252553224564
128 215 0.094280906021595
128 216 0.15835843980312347
128 217 0.16481997072696686
128 218 0.17223501205444336
128 219 0.15257206559181213
128 220 0.16991344094276428
128 221 0.1473906934261322
128 222 0.17097321152687073
128 223 0.1650775820016861
128 224 0.15842360258102417
128 225 0.17061775922775269
128 226 0.1549927145242691
128 227 0.17223501205444336
128 228 0.13693062961101532
128 229 0.18146856129169464
128 230 0.14580756425857544
128 231 0.17142066359519958
128 232 0.15934820473194122
128 233 0.1304142326116562
128 235 0.16439330577850342
128 236 0.1662958711385727
128 237 0.17026449739933014
128 238 0.17070640623569489
128 239 0.17097321152687073
128 240 0.11443442851305008
128 241 0.15993419289588928
128 242 0.08856148272752762
128 243 0.1710624247789383
128 244 0.17668470740318298
128 245 0.1724175661802292
128 246 0.1632993072271347
128 247 0.17052924633026123
128 248 0.16078266501426697
128 250 0.15976610779762268
128 251 0.22019274532794952
128 252 0.17196227610111237
128 253 0.17124126851558685
128 255 0.14083920419216156
129 130 0.5646740198135376
129 131 0.5271004438400269
129 132 0.570605456829071
129 133 0.5700187087059021
129 134 0.07644707709550858
129 135 0.5759207606315613
129 136 0.46292057633399963
129 137 0.5543688535690308
129 138 0.5661810636520386
129 139 0.5599721670150757
129 140 0.560821533203125
129 141 0.5640608668327332
129 142 0.5553743839263916
129 143 0.11923353374004364
129 144 0.5517051815986633
129 145 0.5726670622825623
129 146 0.5557108521461487
129 147 0.5638085603713989
129 148 0.5738652348518372
129 149 0.5658750534057617
129 151 0.5293455719947815
129 152 0.559682309627533
129 153 0.2589249014854431
129 154 0.5524555444717407
129 155 0.5584302544593811
129 156 0.5806695818901062
129 157 0.5540820956230164
129 158 0.10898984968662262
129 159 0.5605533719062805
129 160 0.5566460490226746
129 161 0.5627299547195435
129 162 0.14679516851902008
129 163 0.5643942952156067
129 164 0.5682468414306641
129 165 0.5714889764785767
129 166 0.5727031826972961
129 167 0.5650148391723633
129 168 0.5774492621421814
129 169 0.5467478036880493
129 170 0.1984790563583374
129 171 0.5580764412879944
129 172 0.5643942952156067
129 173 0.5685380101203918
129 174 0.16688933968544006
129 175 0.5574871897697449
129 176 0.5670722723007202
129 177 0.5803677439689636
129 178 0.5611150860786438
129 179 0.4417962431907654
129 180 0.5688466429710388
129 181 0.23836565017700195
129 182 0.5617035031318665
129 183 0.5747308135032654
129 184 0.5485905408859253
129 185 0.5568932294845581
129 186 0.5676572322845459
129 187 0.5747308135032654
129 188 0.5531706213951111
129 189 0.5679430365562439
129 190 0.5655815005302429
129 191 0.5703119039535522
129 192 0.5640872716903687
129 193 0.5717844367027283
129 194 0.5632491707801819
129 195 0.5794971585273743
129 196 0.5567166209220886
129 197 0.5565730333328247
129 199 0.5697497725486755
129 200 0.12650607526302338
129 201 0.20175619423389435
129 202 0.5700141787528992
129 203 0.14659804105758667
129 204 0.281202495098114
129 205 0.4709797203540802
129 206 0.23558039963245392
129 207 0.5623272657394409
129 208 0.561409056186676
129 209 0.06356417387723923
129 210 0.11519138514995575
129 211 0.15075567364692688
129 212 0.5551900267601013
129 213 0.17728103697299957
129 214 0.175175279378891
129 216 0.5747308135032654
129 217 0.5714936256408691
129 218 0.5569131970405579
129 219 0.5679503679275513
129 220 0.5635390877723694
129 221 0.5688316226005554
129 222 0.5617212057113647
129 223 0.5634987950325012
129 224 0.49955815076828003
129 225 0.5641011595726013
129 226 0.5643795132637024
129 227 0.567657470703125
129 228 0.08257228136062622
129 229 0.5216147303581238
129 230 0.1758505254983902
129 231 0.5471510291099548
129 232 0.5658667683601379
129 233 0.4543802738189697
129 234 0.11009637266397476
129 235 0.5629332661628723
129 236 0.555122435092926
129 237 0.5647034645080566
129 238 0.5572949647903442
129 239 0.5688316226005554
129 240 0.2352496087551117
129 241 0.5679477453231812
129 242 0.16911453008651733
129 243 0.5584572553634644
129 244 0.5558091402053833
129 245 0.5575035214424133
129 247 0.5655815005302429
129 248 0.5583924055099487
129 250 0.5441572070121765
129 251 0.1161835715174675
129 252 0.5774859189987183
129 253 0.5679430365562439
129 254 0.13797901570796967
129 255 0.39851412177085876
130 131 0.891852855682373
130 132 0.9572601914405823
130 133 0.9625397324562073
130 134 0.20099233090877533
130 135 0.9528934955596924
130 136 0.7456223964691162
130 137 0.9534479379653931
130 138 0.9545558094978333
130 139 0.9528934955596924
130 140 0.9521023631095886
130 141 0.9167931079864502
130 142 0.9333494305610657
130 143 0.28885418176651
130 144 0.9239901304244995
130 145 0.9546167850494385
130 146 0.9427359700202942
130 147 0.9533876776695251
130 148 0.9511677026748657
130 149 0.9517838358879089
130 151 0.9242019057273865
130 152 0.9586866497993469
130 153 0.34003835916519165
130 154 0.9487076997756958
130 155 0.947767972946167
130 156 0.9527737498283386
130 157 0.9560964107513428
130 158 0.2072390913963318
130 159 0.9528331756591797
130 160 0.947767972946167
130 161 0.9068772196769714
130 162 0.17910462617874146
130 163 0.9533282518386841
130 164 0.9482077360153198
130 165 0.9556024670600891
130 166 0.9488233923912048
130 167 0.9557231664657593
130 168 0.9509912133216858
130 169 0.9406150579452515
130 170 0.3432069420814514
130 171 0.9337868094444275
130 172 0.9522783756256104
130 173 0.9565911889076233
130 174 0.25273749232292175
130 175 0.9414941668510437
130 176 0.9583052396774292
130 177 0.9522783756256104
130 178 0.9483855962753296
130 179 0.8219103217124939
130 180 0.944975733757019
130 181 0.3070848286151886
130 182 0.9504351615905762
130 183 0.9551092386245728
130 184 0.9460935592651367
130 185 0.9404910206794739
130 186 0.9551092386245728
130 187 0.9540631175041199
130 188 0.9533876776695251
130 189 0.9531555771827698
130 190 0.9512900114059448
130 191 0.9511677026748657
130 192 0.9505521655082703
130 193 0.9581907987594604
130 194 0.9578121900558472
130 195 0.9527150988578796
130 196 0.9533876776695251
130 197 0.9272922277450562
130 198 0.13025791943073273
130 199 0.9464760422706604
130 200 0.1726992279291153
130 201 0.2506382167339325
130 202 0.9529548287391663
130 203 0.37239447236061096
130 204 0.4910302758216858
130 205 0.8745075464248657
130 206 0.5291939377784729
130 207 0.9517838358879089
130 208 0.9488825798034668
130 210 0.2525298595428467
130 211 0.16647213697433472
130 212 0.9505521655082703
130 213 0.32415270805358887
130 214 0.37912410497665405
130 215 0.10930546373128891
130 216 0.9561553597450256
130 217 0.9522783756256104
130 218 0.9470344185829163
130 219 0.957695722579956
130 220 0.9562151432037354
130 221 0.9527150988578796
130 222 0.9506120085716248
130 223 0.9485089182853699
130 224 0.8524168133735657
130 225 0.9507343769073486
130 226 0.9420554637908936
130 227 0.9417378306388855
130 228 0.2442336082458496
130 229 0.9224675297737122
130 230 0.3525349199771881
130 231 0.9488825798034668
130 232 0.9473941326141357
130 233 0.7689077258110046
130 234 0.22795136272907257
130 235 0.9550492167472839
130 236 0.9427971243858337
130 237 0.9540020823478699
130 238 0.9522783756256104
130 239 0.9516635537147522
130 240 0.5362491011619568
130 241 0.944538950920105
130 242 0.36067745089530945
130 243 0.9511079788208008
130 244 0.9517232179641724
130 245 0.9427359700202942
130 246 0.13106951117515564
130 247 0.9533876776695251
130 248 0.9399906396865845
130 249 0.14938360452651978
130 250 0.9467125535011292
130 251 0.19637121260166168
130 252 0.9455347657203674
130 253 0.9489427208900452
130 254 0.2112603336572647
130 255 0.5062747597694397
131 132 0.9086371064186096
131 133 0.9088030457496643
131 134 0.20123572647571564
131 135 0.903723955154419
131 136 0.6972332000732422
131 137 0.9043603539466858
131 138 0.9133533835411072
131 139 0.912562370300293
131 140 0.9001980423927307
131 141 0.8624439239501953
131 142 0.901597261428833
131 143 0.2938057482242584
131 144 0.8849611878395081
131 145 0.9091053605079651
131 146 0.8952057361602783
131 147 0.9008764624595642
131 148 0.9038590788841248
131 149 0.9135094881057739
131 151 0.8777658939361572
131 152 0.902151882648468
131 153 0.32931166887283325
131 154 0.8995296955108643
131 155 0.8987503051757812
131 156 0.9000673294067383
131 157 0.9049962162971497
131 158 0.19899629056453705
131 159 0.9057679176330566
131 160 0.8943010568618774
131 161 0.8566904664039612
131 162 0.20019946992397308
131 163 0.9084515571594238
131 164 0.8979416489601135
131 165 0.9056317806243896
131 166 0.8920764327049255
131 167 0.9092704057693481
131 168 0.8955854177474976
131 169 0.894088089466095
131 170 0.28873181343078613
131 171 0.8861618638038635
131 172 0.9029189348220825
131 173 0.9054645895957947
131 174 0.22890454530715942
131 175 0.900309681892395
131 176 0.9064343571662903
131 177 0.9106645584106445
131 178 0.9040008783340454
131 179 0.7683969736099243
131 180 0.9011197686195374
131 181 0.3137313425540924
131 182 0.9049489498138428
131 183 0.9062668085098267
131 184 0.8968275785446167
131 185 0.918390154838562
131 186 0.9073693156242371
131 187 0.9073693156242371
131 188 0.9019818305969238
131 189 0.9046379923820496
131 190 0.91303551197052
131 191 0.9049667119979858
131 192 0.8963994383811951
131 193 0.9005815982818604
131 194 0.9114720821380615
131 195 0.9021136164665222
131 196 0.9052979946136475
131 197 0.8805751204490662
131 198 0.1286996603012085
131 199 0.9059016108512878
131 200 0.1698748916387558
131 201 0.2683420479297638
131 202 0.9038925766944885
131 203 0.3628993034362793
131 204 0.4752550423145294
131 205 0.8353567719459534
131 206 0.5279492139816284
131 207 0.9057679176330566
131 208 0.9000300168991089
131 209 0.05944383144378662
131 210 0.2534693479537964
131 211 0.16291417181491852
131 212 0.9019464254379272
131 213 0.2612438499927521
131 214 0.378251314163208
131 215 0.11519771814346313
131 216 0.9106768369674683
131 217 0.9062385559082031
131 218 0.8964906930923462
131 219 0.912250280380249
131 220 0.9031302332878113
131 221 0.9032219052314758
131 222 0.8965723514556885
131 223 0.9043301343917847
131 224 0.8115087151527405
131 225 0.9046619534492493
131 226 0.9054325222969055
131 227 0.9043056964874268
131 228 0.257399320602417
131 229 0.8789545893669128
131 230 0.338039368391037
131 231 0.9000300168991089
131 232 0.8997276425361633
131 233 0.7490692138671875
131 234 0.23594939708709717
131 235 0.9049962162971497
131 236 0.8953742384910583
131 237 0.9127217531204224
131 238 0.9084515571594238
131 239 0.9021136164665222
131 240 0.47911179065704346
131 241 0.896355390548706
131 242 0.3385012745857239
131 243 0.9081284999847412
131 244 0.9022815823554993
131 245 0.891852855682373
131 246 0.10743831843137741
131 247 0.9030871987342834
131 248 0.895513653755188
131 249 0.12165533006191254
131 250 0.905424177646637
131 251 0.15004371106624603
131 252 0.8950710892677307
131 253 0.901308000087738
131 254 0.21252818405628204
131 255 0.5030184388160706
132 133 0.9742802977561951
132 134 0.20797687768936157
132 135 0.9700459837913513
132 136 0.7428092360496521
132 137 0.9674786925315857
132 138 0.9706045985221863
132 139 0.9679798483848572
132 140 0.9642221927642822
132 141 0.9271968603134155
132 142 0.9555342793464661
132 143 0.3078289031982422
132 144 0.9414553642272949
132 145 0.969603419303894
132 146 0.9551700949668884
132 147 0.9664146304130554
132 148 0.9673900604248047
132 149 0.9679503440856934
132 151 0.93113774061203
132 152 0.9674786925315857
132 153 0.33811867237091064
132 154 0.9589015245437622
132 155 0.9610453248023987
132 156 0.9679219126701355
132 157 0.9680102467536926
132 158 0.22692136466503143
132 159 0.9679503440856934
132 160 0.9610453248023987
132 161 0.919863224029541
132 162 0.19254916906356812
132 163 0.9663839340209961
132 164 0.9594379663467407
132 165 0.9695731401443481
132 166 0.9600052237510681
132 167 0.9716933965682983
132 168 0.9641934037208557
132 169 0.9562151432037354
132 170 0.3352554738521576
132 171 0.952864408493042
132 172 0.9674186110496521
132 173 0.9685112237930298
132 174 0.24128350615501404
132 175 0.9540298581123352
132 176 0.9701338410377502
132 177 0.9653492569923401
132 178 0.9616116285324097
132 179 0.8340436816215515
132 180 0.9583648443222046
132 181 0.3304169178009033
132 182 0.9636595845222473
132 183 0.9701035618782043
132 184 0.9594379663467407
132 185 0.9540606141090393
132 186 0.9711344838142395
132 187 0.9731963872909546
132 188 0.9684817790985107
132 189 0.9631842970848083
132 190 0.9664146304130554
132 191 0.9642828702926636
132 192 0.9647557139396667
132 193 0.9700742959976196
132 194 0.9706640243530273
132 195 0.9658217430114746
132 196 0.9664146304130554
132 197 0.9404202103614807
132 198 0.1283661127090454
132 199 0.9567530751228333
132 200 0.1758640557527542
132 201 0.24699804186820984
132 202 0.9690423011779785
132 203 0.4021764099597931
132 204 0.4977244436740875
132 205 0.8943063616752625
132 206 0.5382112860679626
132 207 0.9679503440856934
132 208 0.9621154069900513
132 209 0.055584151297807693
132 210 0.2528124153614044
132 211 0.1757725328207016
132 212 0.9637182950973511
132 213 0.3225766718387604
132 214 0.4035072326660156
132 215 0.11600395292043686
132 216 0.9721654057502747
132 217 0.9663839340209961
132 218 0.9572906494140625
132 219 0.96854168176651
132 220 0.9711636900901794
132 221 0.9647854566574097
132 222 0.9637491703033447
132 223 0.9658217430114746
132 224 0.8609215617179871
132 225 0.9669162631034851
132 226 0.9524734020233154
132 227 0.9583345651626587
132 228 0.24068644642829895
132 229 0.9377774000167847
132 230 0.3616531491279602
132 231 0.9610764384269714
132 232 0.9668304324150085
132 233 0.7832106947898865
132 234 0.22464068233966827
132 235 0.9680102467536926
132 236 0.9562467336654663
132 237 0.9690423011779785
132 238 0.9674186110496521
132 239 0.9668580293655396
132 240 0.5485752820968628
132 241 0.9620563983917236
132 242 0.394355833530426
132 243 0.9642520546913147
132 244 0.9668866395950317
132 245 0.9562151432037354
132 246 0.12199001759290695
132 247 0.9684817790985107
132 248 0.9556463956832886
132 249 0.14052246510982513
132 250 0.9610453248023987
132 251 0.21287110447883606
132 252 0.965155303478241
132 253 0.9642221927642822
132 254 0.21765533089637756
132 255 0.5312946438789368
133 134 0.20281624794006348
133 135 0.9721445441246033
133 136 0.744714617729187
133 137 0.9685468673706055
133 138 0.9716672897338867
133 139 0.9690485596656799
133 140 0.9673781394958496
133 141 0.9283975958824158
133 142 0.9503512978553772
133 143 0.2975926101207733
133 144 0.940487265586853
133 145 0.9706650376319885
133 146 0.9583638310432434
133 147 0.9716160893440247
133 148 0.970534086227417
133 149 0.967988133430481
133 151 0.9344618916511536
133 152 0.9706097841262817
133 153 0.32872357964515686
133 154 0.9599980115890503
133 155 0.9621351957321167
133 156 0.966926634311676
133 157 0.9690768122673035
133 158 0.22215425968170166
133 159 0.9700543284416199
133 160 0.9631742238998413
133 161 0.9167398810386658
133 162 0.1870080828666687
133 163 0.9674574732780457
133 164 0.9605327844619751
133 165 0.9716672897338867
133 166 0.9642132520675659
133 167 0.9737789630889893
133 168 0.9652778506278992
133 169 0.9562759399414062
133 170 0.3289831578731537
133 171 0.9518846273422241
133 172 0.9674574732780457
133 173 0.9685468673706055
133 174 0.2526983916759491
133 175 0.9551435112953186
133 176 0.9722226858139038
133 177 0.9695246815681458
133 178 0.9658097624778748
133 179 0.8367929458618164
133 180 0.9594630002975464
133 181 0.32699236273765564
133 182 0.9647456407546997
133 183 0.9711657762527466
133 184 0.9605327844619751
133 185 0.9572643041610718
133 186 0.9701359272003174
133 187 0.9711657762527466
133 188 0.9685184359550476
133 189 0.9642676711082458
133 190 0.9674859046936035
133 191 0.965360701084137
133 192 0.9668726325035095
133 193 0.9701077342033386
133 194 0.972750723361969
133 195 0.965863823890686
133 196 0.9685184359550476
133 197 0.94051593542099
133 198 0.1282341182231903
133 199 0.9568126797676086
133 200 0.17568323016166687
133 201 0.24282750487327576
133 202 0.9711386561393738
133 203 0.3917187452316284
133 204 0.5090510845184326
133 205 0.8933868408203125
133 206 0.543219804763794
133 207 0.967988133430481
133 208 0.962164044380188
133 209 0.05552699789404869
133 210 0.24466021358966827
133 211 0.1697387397289276
133 212 0.9658363461494446
133 213 0.3128591775894165
133 214 0.40060412883758545
133 215 0.09932971745729446
133 216 0.9711657762527466
133 217 0.9695246815681458
133 218 0.9583920240402222
133 219 0.9706369042396545
133 220 0.9711939096450806
133 221 0.964828610420227
133 222 0.9700047373771667
133 223 0.964828610420227
133 224 0.8658316731452942
133 225 0.967988133430481
133 226 0.9556809663772583
133 227 0.9573491811752319
133 228 0.25246089696884155
133 229 0.939999520778656
133 230 0.34990233182907104
133 231 0.962164044380188
133 232 0.9648000597953796
133 233 0.7785888314247131
133 234 0.24845360219478607
133 235 0.9711386561393738
133 236 0.9636063575744629
133 237 0.9701077342033386
133 238 0.9715919494628906
133 239 0.965863823890686
133 240 0.5534913539886475
133 241 0.9621073603630066
133 242 0.37839964032173157
133 243 0.9674035906791687
133 244 0.9689948558807373
133 245 0.9562759399414062
133 246 0.13620159029960632
133 247 0.9695510268211365
133 248 0.9567549824714661
133 249 0.14706262946128845
133 250 0.9652522206306458
133 251 0.2029862105846405
133 252 0.9641628861427307
133 253 0.9632307291030884
133 254 0.21270474791526794
133 255 0.5193343758583069
134 135 0.19868803024291992
134 136 0.1927119642496109
134 137 0.20354978740215302
134 138 0.19342041015625
134 139 0.20365522801876068
134 140 0.1996210813522339
134 141 0.1710694283246994
134 142 0.20217497646808624
134 143 0.11140622198581696
134 144 0.1843465119600296
134 145 0.20312964916229248
134 146 0.18089309334754944
134 147 0.19879105687141418
134 148 0.19920477271080017
134 149 0.20386658608913422
134 151 0.2060815691947937
134 152 0.1985851675271988
134 153 0.08709381520748138
134 154 0.18041543662548065
134 155 0.20504100620746613
134 156 0.19910110533237457
134 157 0.18359626829624176
134 158 0.06546536833047867
134 159 0.17900480329990387
134 160 0.20004001259803772
134 161 0.19913582503795624
134 162 0.10286889970302582
134 163 0.20894746482372284
134 164 0.1903381496667862
134 165 0.19342041015625
134 166 0.19503900408744812
134 167 0.1930219829082489
134 168 0.19483445584774017
134 169 0.2060171365737915
134 170 0.05706139653921127
134 171 0.18731354176998138
134 172 0.20397250354290009
134 173 0.1985851675271988
134 174 0.056136082857847214
134 175 0.2066757082939148
134 176 0.17826588451862335
134 177 0.20894746482372284
134 178 0.1947324126958847
134 179 0.1967521458864212
134 180 0.20558159053325653
134 181 0.17817415297031403
134 182 0.19493664801120758
134 183 0.2081913948059082
134 184 0.1903381496667862
134 185 0.19134898483753204
134 186 0.19332057237625122
134 187 0.2081913948059082
134 188 0.20376081764698029
134 189 0.19463054835796356
134 190 0.19879105687141418
134 191 0.19422464072704315
134 192 0.19452883303165436
134 193 0.1984824538230896
134 194 0.18807271122932434
134 195 0.209274023771286
134 196 0.20873060822486877
134 197 0.1790287047624588
134 199 0.20590800046920776
134 201 0.09425577521324158
134 202 0.20344451069831848
134 203 0.06042985990643501
134 204 0.13295400142669678
134 205 0.1562666893005371
134 206 0.08923593163490295
134 207 0.20883893966674805
134 208 0.18484294414520264
134 212 0.19452883303165436
134 213 0.09035078436136246
134 214 0.059881314635276794
134 216 0.2032344490289688
134 217 0.20894746482372284
134 218 0.19074055552482605
134 219 0.18350140750408173
134 220 0.19807320833206177
134 221 0.20429129898548126
134 222 0.1993086040019989
134 223 0.1993086040019989
134 224 0.15620778501033783
134 225 0.20883893966674805
134 226 0.2065655142068863
134 227 0.21081851422786713
134 228 0.057863749563694
134 229 0.20449191331863403
134 231 0.189838707447052
134 232 0.20450466871261597
134 233 0.2081936150789261
134 234 0.115727499127388
134 235 0.1984824538230896
134 236 0.19576004147529602
134 237 0.19352038204669952
134 238 0.20397250354290009
134 239 0.209274023771286
134 240 0.12309148162603378
134 241 0.1952441930770874
134 243 0.18445664644241333
134 244 0.20407862961292267
134 245 0.17586828768253326
134 247 0.19879105687141418
134 248 0.19627998769283295
134 250 0.19003801047801971
134 252 0.19043850898742676
134 253 0.1846494823694229
134 254 0.11375393718481064
135 136 0.7384141683578491
135 137 0.9663388133049011
135 138 0.9663746953010559
135 139 0.9637306332588196
135 140 0.9599272608757019
135 141 0.9235860109329224
135 142 0.9490102529525757
135 143 0.29882362484931946
135 144 0.9379677772521973
135 145 0.9664115309715271
135 146 0.9549901485443115
135 147 0.9683775305747986
135 148 0.96312016248703
135 149 0.9647308588027954
135 151 0.9297287464141846
135 152 0.9673745632171631
135 153 0.33311164379119873
135 154 0.95665043592453
135 155 0.9598551392555237
135 156 0.9636573195457458
135 157 0.9658389687538147
135 158 0.2139682024717331
135 159 0.9626561403274536
135 160 0.9577685594558716
135 161 0.915065586566925
135 162 0.18241645395755768
135 163 0.9652321338653564
135 164 0.9571912884712219
135 165 0.9663746953010559
135 166 0.9577685594558716
135 167 0.9674817323684692
135 168 0.9640596508979797
135 169 0.9528934955596924
135 170 0.3392722010612488
135 171 0.9473727941513062
135 172 0.9652321338653564
135 173 0.9663388133049011
135 174 0.2537437081336975
135 175 0.9517329931259155
135 176 0.9679798483848572
135 177 0.9641941785812378
135 178 0.959388017654419
135 179 0.828181803226471
135 180 0.9550632834434509
135 181 0.3283449411392212
135 182 0.9593513607978821
135 183 0.9669100642204285
135 184 0.9592812061309814
135 185 0.9517694115638733
135 186 0.9658758640289307
135 187 0.9679441452026367
135 188 0.9642303586006165
135 189 0.9588861465454102
135 190 0.9652671217918396
135 191 0.96312016248703
135 192 0.9604661464691162
135 193 0.9668741822242737
135 194 0.9685142636299133
135 195 0.9636221528053284
135 196 0.9652671217918396
135 197 0.9348022937774658
135 198 0.12071677297353745
135 199 0.9534364342689514
135 200 0.17640994489192963
135 201 0.25956305861473083
135 202 0.9658389687538147
135 203 0.39586055278778076
135 204 0.49728816747665405
135 205 0.8858407139778137
135 206 0.5417435169219971
135 207 0.9647308588027954
135 208 0.9588484764099121
135 209 0.05575668811798096
135 210 0.22585996985435486
135 211 0.17044085264205933
135 212 0.9625473618507385
135 213 0.32043641805648804
135 214 0.40975677967071533
135 215 0.12467575073242188
135 216 0.9720807075500488
135 217 0.9652321338653564
135 218 0.9581676721572876
135 219 0.9684440493583679
135 220 0.9669467806816101
135 221 0.9605036377906799
135 222 0.9625826478004456
135 223 0.9625826478004456
135 224 0.8589383363723755
135 225 0.9636934399604797
135 226 0.9501744508743286
135 227 0.9539790153503418
135 228 0.24948132038116455
135 229 0.9385551810264587
135 230 0.3399236798286438
135 231 0.9588484764099121
135 232 0.9604661464691162
135 233 0.7843642830848694
135 234 0.24545744061470032
135 235 0.9648038148880005
135 236 0.9581676721572876
135 237 0.9658389687538147
135 238 0.9631562829017639
135 239 0.9636221528053284
135 240 0.5502781271934509
135 241 0.9587761759757996
135 242 0.36955490708351135
135 243 0.9641249775886536
135 244 0.9636573195457458
135 245 0.953941822052002
135 246 0.12956683337688446
135 247 0.9642303586006165
135 248 0.9502130150794983
135 249 0.14767096936702728
135 250 0.9608985185623169
135 251 0.20382586121559143
135 252 0.9556049108505249
135 253 0.9620094895362854
135 254 0.21358460187911987
135 255 0.5233927965164185
136 137 0.7474079728126526
136 138 0.7412831783294678
136 139 0.7451149225234985
136 140 0.7580389976501465
136 141 0.7216804623603821
136 142 0.7350094318389893
136 143 0.20181156694889069
136 144 0.7101208567619324
136 145 0.7498753666877747
136 146 0.741555392742157
136 147 0.7414787411689758
136 148 0.7524272203445435
136 149 0.7391805648803711
136 150 0.05887448415160179
136 151 0.7325317859649658
136 152 0.7527657747268677
136 153 0.20364615321159363
136 154 0.7395972013473511
136 155 0.7528836131095886
136 156 0.7453210353851318
136 157 0.743005096912384
136 158 0.15307365357875824
136 159 0.7458882331848145
136 160 0.742089569568634
136 161 0.7578222155570984
136 162 0.15264533460140228
136 163 0.7543291449546814
136 164 0.732450544834137
136 165 0.7493115067481995
136 166 0.7366925477981567
136 167 0.746432900428772
136 168 0.7426590323448181
136 169 0.73477703332901
136 170 0.23092471063137054
136 171 0.7116098999977112
136 172 0.7422491312026978
136 173 0.762141764163971
136 174 0.19688934087753296
136 175 0.7507258653640747
136 176 0.7414731979370117
136 177 0.762382447719574
136 178 0.7449644207954407
136 179 0.5854752659797668
136 180 0.7413404583930969
136 181 0.24435997009277344
136 182 0.7430486083030701
136 183 0.76096111536026
136 184 0.7405588626861572
136 185 0.7376989126205444
136 186 0.7422379851341248
136 187 0.7556116580963135
136 188 0.7414787411689758
136 189 0.7472675442695618
136 190 0.7508645057678223
136 191 0.7416782975196838
136 192 0.7522599101066589
136 193 0.7563925981521606
136 194 0.7491035461425781
136 195 0.7514750957489014
136 196 0.7522054314613342
136 197 0.7190004587173462
136 198 0.11448400467634201
136 199 0.7479373216629028
136 200 0.14718620479106903
136 201 0.16783735156059265
136 202 0.7456826567649841
136 203 0.25759971141815186
136 204 0.35870561003685
136 205 0.6978247761726379
136 206 0.380393922328949
136 207 0.743205189704895
136 208 0.7426590323448181
136 210 0.23059646785259247
136 211 0.09120795130729675
136 212 0.7509142160415649
136 213 0.2518889605998993
136 214 0.28111064434051514
136 215 0.06449376046657562
136 216 0.7449128031730652
136 217 0.7476180195808411
136 218 0.7407702207565308
136 219 0.7493115067481995
136 220 0.7521610856056213
136 221 0.7474421858787537
136 222 0.7474421858787537
136 223 0.7434092164039612
136 224 0.6427014470100403
136 225 0.7485712766647339
136 226 0.7544034719467163
136 227 0.746187150478363
136 228 0.22376418113708496
136 229 0.7213641405105591
136 230 0.20687034726142883
136 231 0.7480503916740417
136 232 0.7320740222930908
136 233 0.6261298656463623
136 234 0.18213362991809845
136 235 0.75237637758255
136 236 0.7367075085639954
136 237 0.7403276562690735
136 238 0.7328535318374634
136 239 0.7380319237709045
136 240 0.3724229037761688
136 241 0.7307141423225403
136 242 0.3264661133289337
136 243 0.7464870810508728
136 244 0.742635190486908
136 245 0.7442666888237
136 246 0.13032421469688416
136 247 0.7481828927993774
136 248 0.7440956234931946
136 249 0.10416682064533234
136 250 0.7461373805999756
136 251 0.14434893429279327
136 252 0.7558223009109497
136 253 0.7391890287399292
136 254 0.20869502425193787
136 255 0.3656071126461029
137 138 0.9669085144996643
137 139 0.9673745632171631
137 140 0.9625520706176758
137 141 0.927431583404541
137 142 0.9474650025367737
137 143 0.30530601739883423
137 144 0.9385499954223633
137 145 0.9679772853851318
137 146 0.9524002075195312
137 147 0.9699487686157227
137 148 0.9615830779075623
137 149 0.9652681350708008
137 151 0.933544397354126
137 152 0.9648033380508423
137 153 0.32688573002815247
137 154 0.9582451581954956
137 155 0.9583154320716858
137 156 0.962120532989502
137 157 0.9694775938987732
137 158 0.19565677642822266
137 159 0.9663049578666687
137 160 0.9624865651130676
137 161 0.9113137722015381
137 162 0.15014754235744476
137 163 0.9647324085235596
137 164 0.9587845206260681
137 165 0.9679425954818726
137 166 0.9593581557273865
137 167 0.9690449237823486
137 168 0.9593937397003174
137 169 0.9555434584617615
137 170 0.3420710861682892
137 171 0.9479380249977112
137 172 0.9647324085235596
137 173 0.9679089188575745
137 174 0.25751402974128723
137 175 0.9512402415275574
137 176 0.9685112237930298
137 177 0.9647324085235596
137 178 0.9609736204147339
137 179 0.8277530074119568
137 180 0.9597964286804199
137 181 0.31579098105430603
137 182 0.959896981716156
137 183 0.9705438613891602
137 184 0.9587845206260681
137 185 0.9544265866279602
137 186 0.9684766530990601
137 187 0.9664095044136047
137 188 0.9647673964500427
137 189 0.9646332263946533
137 190 0.9668399095535278
137 191 0.964698314666748
137 192 0.9610089659690857
137 193 0.967408299446106
137 194 0.9700769186019897
137 195 0.9631232619285583
137 196 0.9647673964500427
137 197 0.9449840188026428
137 198 0.12065427005290985
137 199 0.9550371766090393
137 200 0.1592555046081543
137 201 0.25549793243408203
137 202 0.965338945388794
137 203 0.40069580078125
137 204 0.4990108609199524
137 205 0.8910000324249268
137 206 0.5247167944908142
137 207 0.9642313718795776
137 208 0.9593937397003174
137 209 0.05572781711816788
137 210 0.2613866329193115
137 211 0.17622683942317963
137 212 0.9641291499137878
137 213 0.3014310598373413
137 214 0.3945612907409668
137 215 0.12461119890213013
137 216 0.9664095044136047
137 217 0.9636949896812439
137 218 0.9555783867835999
137 219 0.9658743143081665
137 220 0.9705763459205627
137 221 0.9620842933654785
137 222 0.9620842933654785
137 223 0.965201199054718
137 224 0.8619834780693054
137 225 0.9642313718795776
137 226 0.9528341889381409
137 227 0.9534851908683777
137 228 0.24935215711593628
137 229 0.9402012228965759
137 230 0.3540228307247162
137 231 0.9604353904724121
137 232 0.9599689245223999
137 233 0.7775742411613464
137 234 0.24935215711593628
137 235 0.965338945388794
137 236 0.9545317888259888
137 237 0.965338945388794
137 238 0.9647324085235596
137 239 0.9631232619285583
137 240 0.5573264956474304
137 241 0.9582797884941101
137 242 0.36936357617378235
137 243 0.961546778678894
137 244 0.9662720561027527
137 245 0.9576389193534851
137 246 0.14388862252235413
137 247 0.9647673964500427
137 248 0.9528693556785583
137 249 0.14759451150894165
137 250 0.9635292887687683
137 251 0.1940193623304367
137 252 0.9551101922988892
137 253 0.9625520706176758
137 254 0.2039862871170044
137 255 0.5173942446708679
138 139 0.9653400182723999
138 140 0.9615572094917297
138 141 0.9243133664131165
138 142 0.9506970047950745
138 143 0.30167531967163086
138 144 0.9418463706970215
138 145 0.9690408110618591
138 146 0.9597890973091125
138 147 0.9658405184745789
138 148 0.9678506255149841
138 149 0.9673776030540466
138 151 0.9336526989936829
138 152 0.9669085144996643
138 153 0.31445351243019104
138 154 0.9572546482086182
138 155 0.9614917039871216
138 156 0.9642365574836731
138 157 0.9684755206108093
138 158 0.209090918302536
138 159 0.9663418531417847
138 160 0.9594083428382874
138 161 0.9158297181129456
138 162 0.19284729659557343
138 163 0.9637352228164673
138 164 0.9577935338020325
138 165 0.969008207321167
138 166 0.9594083428382874
138 167 0.9731979370117188
138 168 0.9646457433700562
138 169 0.957695722579956
138 170 0.3387460708618164
138 171 0.9480127096176147
138 172 0.9647715091705322
138 173 0.9679425954818726
138 174 0.23775939643383026
138 175 0.9523571133613586
138 176 0.9695731401443481
138 177 0.9647715091705322
138 178 0.9631005525588989
138 179 0.8268974423408508
138 180 0.9598488211631775
138 181 0.315464586019516
138 182 0.9651517271995544
138 183 0.9674755930900574
138 184 0.9577935338020325
138 185 0.9544889330863953
138 186 0.9705731868743896
138 187 0.9705731868743896
138 188 0.9668757319450378
138 189 0.9625967144966125
138 190 0.9658405184745789
138 191 0.9647386074066162
138 192 0.9610546827316284
138 193 0.966408371925354
138 194 0.9690742492675781
138 195 0.9631656408309937
138 196 0.9679110050201416
138 197 0.9440073370933533
138 198 0.11249425262212753
138 199 0.9571883082389832
138 200 0.17613635957241058
138 201 0.25916051864624023
138 202 0.9684755206108093
138 203 0.3902116119861603
138 204 0.5162984728813171
138 205 0.8945687413215637
138 206 0.5334682464599609
138 207 0.9653061628341675
138 208 0.9615238904953003
138 209 0.05567022040486336
138 210 0.2571601867675781
138 211 0.17017653584480286
138 212 0.9610546827316284
138 213 0.3168027997016907
138 214 0.3941534757614136
138 215 0.1161835715174675
138 216 0.9685081243515015
138 217 0.9668440222740173
138 218 0.9566817879676819
138 219 0.9679751992225647
138 220 0.96854168176651
138 221 0.9631656408309937
138 222 0.9631656408309937
138 223 0.9642035365104675
138 224 0.8587684035301208
138 225 0.9663418531417847
138 226 0.9549975991249084
138 227 0.9556362628936768
138 228 0.2571297287940979
138 229 0.9424241781234741
138 230 0.3422486186027527
138 231 0.967767596244812
138 232 0.9620936512947083
138 233 0.7908008694648743
138 234 0.2490944266319275
138 235 0.966408371925354
138 236 0.9608640074729919
138 237 0.9684755206108093
138 238 0.9647715091705322
138 239 0.9631656408309937
138 240 0.532941997051239
138 241 0.9593749046325684
138 242 0.3871710002422333
138 243 0.9657451510429382
138 244 0.9631996750831604
138 245 0.957695722579956
138 246 0.13655290007591248
138 247 0.9668757319450378
138 248 0.9550294876098633
138 249 0.14744195342063904
138 250 0.9604499936103821
138 251 0.20350979268550873
138 252 0.9582985639572144
138 253 0.9615572094917297
138 254 0.21325336396694183
138 255 0.5321172475814819
139 140 0.9588861465454102
139 141 0.9235860109329224
139 142 0.9500646591186523
139 143 0.3121046721935272
139 144 0.9390361309051514
139 145 0.9684786796569824
139 146 0.953941822052002
139 147 0.9642303586006165
139 148 0.96312016248703
139 149 0.9668055176734924
139 151 0.9329531788825989
139 152 0.9653031229972839
139 153 0.3391682207584381
139 154 0.9618780016899109
139 155 0.9567252397537231
139 156 0.9615805149078369
139 157 0.9658389687538147
139 158 0.22762572765350342
139 159 0.9668055176734924
139 160 0.9608985185623169
139 161 0.915065586566925
139 162 0.17705126106739044
139 163 0.9652321338653564
139 164 0.956146240234375
139 165 0.9674093723297119
139 166 0.9577685594558716
139 167 0.9685142636299133
139 168 0.9609329700469971
139 169 0.9549901485443115
139 170 0.34224826097488403
139 171 0.9473727941513062
139 172 0.9621184468269348
139 173 0.9663388133049011
139 174 0.25764742493629456
139 175 0.9485781192779541
139 176 0.9679798483848572
139 177 0.9641941785812378
139 178 0.9583463072776794
139 179 0.8318035006523132
139 180 0.9550632834434509
139 181 0.3128569722175598
139 182 0.9593513607978821
139 183 0.9689782857894897
139 184 0.9551013112068176
139 185 0.950718879699707
139 186 0.9658758640289307
139 187 0.9658758640289307
139 188 0.9642303586006165
139 189 0.9620094895362854
139 190 0.9663039445877075
139 191 0.9651980996131897
139 192 0.9594255685806274
139 193 0.9658389687538147
139 194 0.9674817323684692
139 195 0.9615431427955627
139 196 0.9631934762001038
139 197 0.9433392882347107
139 198 0.09657341241836548
139 199 0.9534364342689514
139 200 0.17640994489192963
139 201 0.2556303143501282
139 202 0.9648038148880005
139 203 0.38073211908340454
139 204 0.5032318234443665
139 205 0.890337347984314
139 206 0.536158561706543
139 207 0.9636934399604797
139 208 0.9578062295913696
139 209 0.05575668811798096
139 210 0.2615220546722412
139 211 0.17631812393665314
139 212 0.9625473618507385
139 213 0.2984457015991211
139 214 0.37727606296539307
139 215 0.12467575073242188
139 216 0.9658758640289307
139 217 0.9631562829017639
139 218 0.9560733437538147
139 219 0.9663746953010559
139 220 0.9679798483848572
139 221 0.9625826478004456
139 222 0.9605036377906799
139 223 0.9636221528053284
139 224 0.8682493567466736
139 225 0.9626561403274536
139 226 0.9512255191802979
139 227 0.9539790153503418
139 228 0.24545744061470032
139 229 0.935355544090271
139 230 0.35134968161582947
139 231 0.9630173444747925
139 232 0.9594255685806274
139 233 0.7805318832397461
139 234 0.24948132038116455
139 235 0.9658389687538147
139 236 0.9539790153503418
139 237 0.9658389687538147
139 238 0.9652321338653564
139 239 0.9636221528053284
139 240 0.5502781271934509
139 241 0.9608649611473083
139 242 0.3851698935031891
139 243 0.9610047936439514
139 244 0.962618887424469
139 245 0.9518452286720276
139 246 0.1367649883031845
139 247 0.9642303586006165
139 248 0.9523130059242249
139 249 0.14767096936702728
139 250 0.9629851579666138
139 251 0.20382586121559143
139 252 0.9556049108505249
139 253 0.9620094895362854
139 254 0.1993456333875656
139 255 0.5119316577911377
140 141 0.9214039444923401
140 142 0.9449915885925293
140 143 0.29021933674812317
140 144 0.9337860941886902
140 145 0.9636806845664978
140 146 0.9489427208900452
140 147 0.9614666700363159
140 148 0.9624238014221191
140 149 0.9588391184806824
140 151 0.9254557490348816
140 152 0.9625520706176758
140 153 0.31642091274261475
140 154 0.9527395367622375
140 155 0.9580734372138977
140 156 0.958793044090271
140 157 0.9599741101264954
140 158 0.21954688429832458
140 159 0.9609235525131226
140 160 0.9570252299308777
140 161 0.9083788394927979
140 162 0.17249232530593872
140 163 0.9603801369667053
140 164 0.9532873034477234
140 165 0.9636362195014954
140 166 0.9528323411941528
140 167 0.9637261033058167
140 168 0.9539272785186768
140 169 0.947889506816864
140 170 0.34385550022125244
140 171 0.9412106275558472
140 172 0.9635083675384521
140 173 0.9604708552360535
140 174 0.2470911145210266
140 175 0.9466932415962219
140 176 0.9631842970848083
140 177 0.9582945704460144
140 178 0.9555208086967468
140 179 0.8284321427345276
140 180 0.9563953280448914
140 181 0.304989755153656
140 182 0.9554752707481384
140 183 0.9652168154716492
140 184 0.9564369320869446
140 185 0.9477954506874084
140 186 0.9610608816146851
140 187 0.9641777873039246
140 188 0.9593833684921265
140 189 0.9571129679679871
140 190 0.9604250192642212
140 191 0.9582484364509583
140 192 0.9587038159370422
140 193 0.9630942940711975
140 194 0.9647635221481323
140 195 0.956659197807312
140 196 0.9625083804130554
140 197 0.9327594041824341
140 198 0.12128367274999619
140 199 0.9526505470275879
140 200 0.17723838984966278
140 201 0.2489282786846161
140 202 0.9610141515731812
140 203 0.39771953225135803
140 204 0.501613974571228
140 205 0.896777331829071
140 206 0.5199723839759827
140 207 0.9609235525131226
140 208 0.954974353313446
140 209 0.05601852759718895
140 210 0.25876912474632263
140 211 0.17124126851558685
140 212 0.9587038159370422
140 213 0.32825377583503723
140 214 0.3991297781467438
140 215 0.12526123225688934
140 216 0.9620998501777649
140 217 0.9582945704460144
140 218 0.950042188167572
140 219 0.9615572094917297
140 220 0.9642221927642822
140 221 0.9597923159599304
140 222 0.958747923374176
140 223 0.9577035307884216
140 224 0.850109338760376
140 225 0.9598813652992249
140 226 0.9483005404472351
140 227 0.9489901065826416
140 228 0.24256734549999237
140 229 0.9365334510803223
140 230 0.33578017354011536
140 231 0.954974353313446
140 232 0.9587038159370422
140 233 0.7764965891838074
140 234 0.2466101348400116
140 235 0.9599741101264954
140 236 0.950042188167572
140 237 0.9610141515731812
140 238 0.961422860622406
140 239 0.958747923374176
140 240 0.5418049693107605
140 241 0.9538347721099854
140 242 0.38436394929885864
140 243 0.956113338470459
140 244 0.96296626329422
140 245 0.9499959349632263
140 246 0.14463920891284943
140 247 0.9593833684921265
140 248 0.9504557847976685
140 249 0.14162059128284454
140 250 0.9528323411941528
140 251 0.19015568494796753
140 252 0.9495882391929626
140 253 0.9539749026298523
140 254 0.21458761394023895
140 255 0.5085782408714294
141 142 0.9078814387321472
141 143 0.30146607756614685
141 144 0.8952735662460327
141 145 0.9244387149810791
141 146 0.9113229513168335
141 147 0.9273110628128052
141 148 0.9183980226516724
141 149 0.9234619736671448
141 151 0.894015908241272
141 152 0.9252697825431824
141 153 0.34132465720176697
141 154 0.9176455736160278
141 155 0.920071005821228
141 156 0.9265899062156677
141 157 0.9280321598052979
141 158 0.17579230666160583
141 159 0.9234619736671448
141 160 0.920071005821228
141 161 0.8774046301841736
141 162 0.2015739530324936
141 163 0.9217754602432251
141 164 0.9182525277137756
141 165 0.9286325573921204
141 166 0.9178933501243591
141 167 0.925642192363739
141 168 0.9212815165519714
141 169 0.9135109782218933
141 170 0.32612156867980957
141 171 0.9115505814552307
141 172 0.9206922650337219
141 173 0.9241887927055359
141 174 0.25259244441986084
141 175 0.907650887966156
141 176 0.9271968603134155
141 177 0.9206922650337219
141 178 0.9175376892089844
141 179 0.8000591397285461
141 180 0.9159465432167053
141 181 0.3362053334712982
141 182 0.9163234233856201
141 183 0.9313910007476807
141 184 0.9138902425765991
141 185 0.916550874710083
141 186 0.9281532764434814
141 187 0.9270740151405334
141 188 0.9273110628128052
141 189 0.9268367290496826
141 190 0.9208187460899353
141 191 0.9249038100242615
141 192 0.9198364019393921
141 193 0.9258714914321899
141 194 0.9267197847366333
141 195 0.9253858923912048
141 196 0.9240649342536926
141 197 0.9043123722076416
141 198 0.08398914337158203
141 199 0.9108400940895081
141 200 0.16035108268260956
141 201 0.24626176059246063
141 202 0.924791157245636
141 203 0.3447153866291046
141 204 0.4383459985256195
141 205 0.85527104139328
141 206 0.4818359315395355
141 207 0.9212967157363892
141 208 0.9212815165519714
141 209 0.058189380913972855
141 210 0.22330833971500397
141 211 0.16560989618301392
141 212 0.9209223389625549
141 213 0.2721238434314728
141 214 0.40938201546669006
141 215 0.11276669800281525
141 216 0.923836350440979
141 217 0.9239417910575867
141 218 0.9212867021560669
141 219 0.9297124147415161
141 220 0.9293531775474548
141 221 0.9188767671585083
141 222 0.9199615716934204
141 223 0.9286404848098755
141 224 0.8296083807945251
141 225 0.9212967157363892
141 226 0.9060700535774231
141 227 0.9136366248130798
141 228 0.1931750327348709
141 229 0.8960244655609131
141 230 0.3249434530735016
141 231 0.9158430099487305
141 232 0.9241803288459778
141 233 0.7345948219299316
141 234 0.2435685098171234
141 235 0.924791157245636
141 236 0.9136366248130798
141 237 0.9269518256187439
141 238 0.9206922650337219
141 239 0.924301028251648
141 240 0.5264298319816589
141 241 0.9232190251350403
141 242 0.37753069400787354
141 243 0.923697829246521
141 244 0.9244225025177002
141 245 0.9167931079864502
141 246 0.14273212850093842
141 247 0.9273110628128052
141 248 0.9160632491111755
141 249 0.1471087485551834
141 250 0.9157156348228455
141 251 0.19752468168735504
141 252 0.9143722057342529
141 253 0.9203173518180847
141 254 0.2278568297624588
141 255 0.49838387966156006
142 143 0.31082502007484436
142 144 0.9239916801452637
142 145 0.9507681727409363
142 146 0.9354827404022217
142 147 0.9463372826576233
142 148 0.9483067989349365
142 149 0.9489396214485168
142 151 0.9132344722747803
142 152 0.9464110732078552
142 153 0.3420391380786896
142 154 0.9383318424224854
142 155 0.9427282810211182
142 156 0.9478132724761963
142 157 0.9480282664299011
142 158 0.2177232950925827
142 159 0.9457729458808899
142 160 0.9437898993492126
142 161 0.8955264091491699
142 162 0.1856178343296051
142 163 0.9473205208778381
142 164 0.9420905709266663
142 165 0.9538553953170776
142 166 0.9416666030883789
142 167 0.9518907070159912
142 168 0.9459816217422485
142 169 0.9408161640167236
142 170 0.30888673663139343
142 171 0.933907687664032
142 172 0.9462644457817078
142 173 0.9485188722610474
142 174 0.21052974462509155
142 175 0.938473105430603
142 176 0.9502783417701721
142 177 0.9462644457817078
142 178 0.942306399345398
142 179 0.8107765316963196
142 180 0.9430848360061646
142 181 0.3246515095233917
142 182 0.9401113390922546
142 183 0.9481016993522644
142 184 0.9474071264266968
142 185 0.9385420680046082
142 186 0.9502062797546387
142 187 0.9523108005523682
142 188 0.9463372826576233
142 189 0.9439321756362915
142 190 0.9484473466873169
142 191 0.9472495913505554
142 192 0.9476743340492249
142 193 0.9511883854866028
142 194 0.9550426602363586
142 195 0.9435123205184937
142 196 0.9484473466873169
142 197 0.9175464510917664
142 198 0.1146463081240654
142 199 0.9392516016960144
142 200 0.1852964162826538
142 201 0.2521129548549652
142 202 0.9501350522041321
142 203 0.3899795711040497
142 204 0.4697275161743164
142 205 0.8807970285415649
142 206 0.5323076844215393
142 207 0.9468284845352173
142 208 0.9417396187782288
142 209 0.05673521012067795
142 210 0.2580477297306061
142 211 0.1674516648054123
142 212 0.9497920274734497
142 213 0.31647005677223206
142 214 0.38643959164619446
142 215 0.12686379253864288
142 216 0.9523108005523682
142 217 0.9526010751724243
142 218 0.940885603427887
142 219 0.949644148349762
142 220 0.954483151435852
142 221 0.9445701241493225
142 222 0.9424545764923096
142 223 0.9456278681755066
142 224 0.8526951670646667
142 225 0.9457729458808899
142 226 0.9347641468048096
142 227 0.9387544989585876
142 228 0.25385966897010803
142 229 0.9235541820526123
142 230 0.3458893299102783
142 231 0.9459816217422485
142 232 0.9444977641105652
142 233 0.769532322883606
142 234 0.2415761500597
142 235 0.9501350522041321
142 236 0.940885603427887
142 237 0.9490816593170166
142 238 0.9515449404716492
142 239 0.9445701241493225
142 240 0.5450038313865662
142 241 0.9458456039428711
142 242 0.391929566860199
142 243 0.9429463148117065
142 244 0.9446433782577515
142 245 0.9365494251251221
142 246 0.13916520774364471
142 247 0.9484473466873169
142 248 0.935905933380127
142 249 0.15026256442070007
142 250 0.9384817481040955
142 251 0.19752664864063263
142 252 0.9415234327316284
142 253 0.9502885937690735
142 254 0.198014497756958
142 255 0.5286908745765686
143 144 0.2875228822231293
143 145 0.29805248975753784
143 146 0.25190770626068115
143 147 0.3023005425930023
143 148 0.2862851917743683
143 149 0.29248636960983276
143 151 0.2996119558811188
143 152 0.3019874691963196
143 153 0.20375870168209076
143 154 0.29144132137298584
143 155 0.30754271149635315
143 156 0.2828090488910675
143 157 0.30183127522468567
143 158 0.07293249666690826
143 159 0.2958100438117981
143 160 0.3008570075035095
143 161 0.26271677017211914
143 163 0.2826620042324066
143 164 0.2645026743412018
143 165 0.29504507780075073
143 166 0.30419984459877014
143 167 0.29774564504623413
143 168 0.29386278986930847
143 169 0.2955717444419861
143 170 0.09535492956638336
143 171 0.3113265037536621
143 172 0.2926383316516876
143 173 0.29203182458877563
143 175 0.28640803694725037
143 176 0.3078289031982422
143 177 0.30261465907096863
143 178 0.30372169613838196
143 179 0.25142860412597656
143 180 0.28824350237846375
143 181 0.0694739893078804
143 182 0.28399357199668884
143 183 0.30151963233947754
143 184 0.29128775000572205
143 185 0.3029324412345886
143 186 0.29820623993873596
143 187 0.31145983934402466
143 188 0.3089444935321808
143 189 0.3002268970012665
143 190 0.3023005425930023
143 191 0.2962718904018402
143 192 0.30340415239334106
143 193 0.30183127522468567
143 194 0.2845125198364258
143 195 0.29309573769569397
143 196 0.289012610912323
143 197 0.3077215552330017
143 198 0.051571059972047806
143 199 0.29541516304016113
143 200 0.14586499333381653
143 201 0.05040326714515686
143 202 0.28856396675109863
143 203 0.12118072062730789
143 204 0.17139489948749542
143 205 0.2881503403186798
143 206 0.20280534029006958
143 207 0.3024574816226959
143 208 0.2905234396457672
143 210 0.1523510217666626
143 211 0.094155453145504
143 212 0.2934018075466156
143 213 0.12078768014907837
143 215 0.07989354431629181
143 216 0.3048330545425415
143 217 0.2859874665737152
143 218 0.2986139953136444
143 219 0.2983601987361908
143 220 0.29789894819259644
143 221 0.27977320551872253
143 222 0.30308762192726135
143 223 0.29642632603645325
143 224 0.2945998013019562
143 225 0.27254408597946167
143 226 0.2862553298473358
143 227 0.3086796700954437
143 229 0.2802145779132843
143 230 0.21965719759464264
143 231 0.28718405961990356
143 232 0.2967359125614166
143 233 0.20874658226966858
143 234 0.14182041585445404
143 235 0.3051481246948242
143 236 0.27848273515701294
143 237 0.2819302976131439
143 238 0.29596376419067383
143 239 0.29309573769569397
143 240 0.27034512162208557
143 241 0.2978271245956421
143 242 0.09172401577234268
143 243 0.2899162471294403
143 244 0.29279056191444397
143 245 0.29221296310424805
143 246 0.06918983906507492
143 247 0.3122664988040924
143 248 0.28931474685668945
143 250 0.3008570075035095
143 251 0.062197040766477585
143 252 0.28809142112731934
143 253 0.3002268970012665
143 254 0.13686728477478027
143 255 0.16524969041347504
144 145 0.9398093819618225
144 146 0.9261515736579895
144 147 0.9320410490036011
144 148 0.9296964406967163
144 149 0.9378718733787537
144 151 0.899739682674408
144 152 0.9342789649963379
144 153 0.33404242992401123
144 154 0.9280173182487488
144 155 0.9368213415145874
144 156 0.9324241876602173
144 157 0.9337957501411438
144 158 0.2252751588821411
144 159 0.9325248003005981
144 160 0.9303679466247559
144 161 0.8960136771202087
144 162 0.1825239062309265
144 163 0.9404991865158081
144 164 0.9264508485794067
144 165 0.937579870223999
144 166 0.9271411895751953
144 167 0.937777578830719
144 168 0.9326154589653015
144 169 0.9283128976821899
144 170 0.3466910123825073
144 171 0.9200383424758911
144 172 0.9394291639328003
144 173 0.9353467226028442
144 174 0.2132939249277115
144 175 0.9182705879211426
144 176 0.9446502923965454
144 177 0.9351493120193481
144 178 0.9299792647361755
144 179 0.8015086054801941
144 180 0.9241935014724731
144 181 0.32252737879753113
144 182 0.93095463514328
144 183 0.9381620287895203
144 184 0.9286054372787476
144 185 0.9259560108184814
144 186 0.9402942061424255
144 187 0.936029851436615
144 188 0.9320410490036011
144 189 0.9316393733024597
144 190 0.9341787099838257
144 191 0.9371940493583679
144 192 0.9322252869606018
144 193 0.9348629713058472
144 194 0.9399064779281616
144 195 0.935539186000824
144 196 0.9373853206634521
144 197 0.9097915291786194
144 198 0.09955848753452301
144 199 0.9235005378723145
144 200 0.15253005921840668
144 201 0.2473144680261612
144 202 0.9348629713058472
144 203 0.3847024738788605
144 204 0.5024469494819641
144 205 0.861070990562439
144 206 0.5047510266304016
144 207 0.9368024468421936
144 208 0.928317666053772
144 210 0.2573508620262146
144 211 0.16965024173259735
144 212 0.936516284942627
144 213 0.3044320046901703
144 214 0.38636189699172974
144 215 0.11139219999313354
144 216 0.9381620287895203
144 217 0.936219334602356
144 218 0.9251709580421448
144 219 0.9365131855010986
144 220 0.9393253326416016
144 221 0.9323243498802185
144 222 0.9366108179092407
144 223 0.935539186000824
144 224 0.8362942934036255
144 225 0.9357330799102783
144 226 0.9264495372772217
144 227 0.9262504577636719
144 228 0.2571927607059479
144 229 0.919187605381012
144 230 0.356320321559906
144 231 0.9326154589653015
144 232 0.9375890493392944
144 233 0.7651495337486267
144 234 0.2198583483695984
144 235 0.9337957501411438
144 236 0.9251709580421448
144 237 0.9348629713058472
144 238 0.937289297580719
144 239 0.934467613697052
144 240 0.5086674690246582
144 241 0.9302699565887451
144 242 0.3675631284713745
144 243 0.9328108429908752
144 244 0.9356357455253601
144 245 0.9239901304244995
144 246 0.12615108489990234
144 247 0.9405919313430786
144 248 0.9232985973358154
144 249 0.1522354781627655
144 250 0.9292923212051392
144 251 0.21512910723686218
144 252 0.9269394278526306
144 253 0.9294927716255188
144 254 0.21529345214366913
144 255 0.5139707326889038
145 146 0.9608902931213379
145 147 0.9658784866333008
145 148 0.9637435078620911
145 149 0.9674144983291626
145 151 0.9359058737754822
145 152 0.9669442176818848
145 153 0.3231905698776245
145 154 0.9614814519882202
145 155 0.9667437672615051
145 156 0.9642777442932129
145 157 0.9695417284965515
145 158 0.20887525379657745
145 159 0.9674144983291626
145 160 0.9605000019073486
145 161 0.9170659184455872
145 162 0.18194569647312164
145 163 0.9679172039031982
145 164 0.9588900804519653
145 165 0.9700728058815002
145 166 0.9605000019073486
145 167 0.9732239842414856
145 168 0.9636507630348206
145 169 0.9546167850494385
145 170 0.33542826771736145
145 171 0.9480882883071899
145 172 0.9658467173576355
145 173 0.9669442176818848
145 174 0.2569825351238251
145 175 0.956619381904602
145 176 0.969603419303894
145 177 0.9699875712394714
145 178 0.9662631154060364
145 179 0.8296568989753723
145 180 0.9609455466270447
145 181 0.31204959750175476
145 182 0.9631161689758301
145 183 0.9716349840164185
145 184 0.9599323868751526
145 185 0.9576956629753113
145 186 0.9685406684875488
145 187 0.9685406684875488
145 188 0.9658784866333008
145 189 0.962642252445221
145 190 0.9679467678070068
145 191 0.964779794216156
145 192 0.9642149806022644
145 193 0.9695417284965515
145 194 0.9711642265319824
145 195 0.9652827382087708
145 196 0.9669126868247986
145 197 0.9377117156982422
145 198 0.1284322589635849
145 199 0.9572461247444153
145 200 0.17027872800827026
145 201 0.26281580328941345
145 202 0.9695417284965515
145 203 0.3923240602016449
145 204 0.5019331574440002
145 205 0.8970097303390503
145 206 0.542202353477478
145 207 0.9674144983291626
145 208 0.9615716934204102
145 209 0.055612798780202866
145 210 0.26084715127944946
145 211 0.17000101506710052
145 212 0.9631770849227905
145 213 0.31960949301719666
145 214 0.3987310826778412
145 215 0.11606372892856598
145 216 0.9685406684875488
145 217 0.9689523577690125
145 218 0.9567395448684692
145 219 0.9690408110618591
145 220 0.969603419303894
145 221 0.9652827382087708
145 222 0.9663195013999939
145 223 0.9632090330123901
145 224 0.8578826189041138
145 225 0.9674144983291626
145 226 0.9582059979438782
145 227 0.9577839970588684
145 228 0.2528510093688965
145 229 0.9425158500671387
145 230 0.3447447419166565
145 231 0.9615716934204102
145 232 0.9642149806022644
145 233 0.7823401689529419
145 234 0.2528510093688965
145 235 0.9674766063690186
145 236 0.9567395448684692
145 237 0.9695417284965515
145 238 0.9668819308280945
145 239 0.9632090330123901
145 240 0.5451989769935608
145 241 0.9604688286781311
145 242 0.38158008456230164
145 243 0.965786337852478
145 244 0.967384934425354
145 245 0.9567079544067383
145 246 0.14359162747859955
145 247 0.9679467678070068
145 248 0.9571861028671265
145 249 0.13389988243579865
145 250 0.9594593644142151
145 251 0.19845938682556152
145 252 0.9593957662582397
145 253 0.9636806845664978
145 254 0.17989487946033478
145 255 0.5201367735862732
146 147 0.9533876776695251
146 148 0.9553717970848083
146 149 0.9528331756591797
146 151 0.9198527336120605
146 152 0.9534479379653931
146 153 0.2910238206386566
146 154 0.9476500749588013
146 155 0.9509342312812805
146 156 0.9506727457046509
146 157 0.9571436047554016
146 158 0.22566033899784088
146 159 0.954931914806366
146 160 0.947767972946167
146 161 0.9024534225463867
146 162 0.17910462617874146
146 163 0.9575279951095581
146 164 0.952436089515686
146 165 0.9587424397468567
146 166 0.9498788118362427
146 167 0.9609456658363342
146 168 0.9457195997238159
146 169 0.9437963962554932
146 170 0.325143426656723
146 171 0.9337868094444275
146 172 0.9543781876564026
146 173 0.9534479379653931
146 174 0.26458457112312317
146 175 0.9393664598464966
146 176 0.9593502879142761
146 177 0.9533282518386841
146 178 0.953654408454895
146 179 0.8133614659309387
146 180 0.944975733757019
146 181 0.31021836400032043
146 182 0.9493802785873413
146 183 0.9572014808654785
146 184 0.9471506476402283
146 185 0.9383655786514282
146 186 0.9540631175041199
146 187 0.9561553597450256
146 188 0.9512900114059448
146 189 0.9489427208900452
146 190 0.9544364809989929
146 191 0.9490657448768616
146 192 0.9494994878768921
146 193 0.9560964107513428
146 194 0.9557231664657593
146 195 0.9516635537147522
146 196 0.9575830101966858
146 197 0.9240537881851196
146 198 0.13025791943073273
146 199 0.9422364830970764
146 200 0.16694259643554688
146 201 0.24665983021259308
146 202 0.9592380523681641
146 203 0.38259702920913696
146 204 0.523097574710846
146 205 0.8836051225662231
146 206 0.5348436832427979
146 207 0.9528331756591797
146 208 0.9509912133216858
146 209 0.05640333145856857
146 210 0.2605467140674591
146 211 0.16647213697433472
146 212 0.9516047835350037
146 213 0.32733070850372314
146 214 0.39681655168533325
146 215 0.10089734941720963
146 216 0.9572014808654785
146 217 0.9522783756256104
146 218 0.9427971243858337
146 219 0.9545558094978333
146 220 0.9572601914405823
146 221 0.9527150988578796
146 222 0.9558697938919067
146 223 0.9506120085716248
146 224 0.8394657373428345
146 225 0.9559813141822815
146 226 0.9420554637908936
146 227 0.943856418132782
146 228 0.23202192783355713
146 229 0.9300199151039124
146 230 0.3265282213687897
146 231 0.959425687789917
146 232 0.9484468102455139
146 233 0.7818305492401123
146 234 0.24830417335033417
146 235 0.9550492167472839
146 236 0.944915771484375
146 237 0.9581907987594604
146 238 0.9533282518386841
146 239 0.9516635537147522
146 240 0.549237847328186
146 241 0.9477085471153259
146 242 0.3975349962711334
146 243 0.9500558972358704
146 244 0.9548746347427368
146 245 0.9416755437850952
146 246 0.13106951117515564
146 247 0.9544364809989929
146 248 0.9399906396865845
146 249 0.14938360452651978
146 250 0.9488233923912048
146 251 0.20618976652622223
146 252 0.9497653841972351
146 253 0.9489427208900452
146 254 0.19685620069503784
146 255 0.514004111289978
147 148 0.9636195302009583
147 149 0.9641931653022766
147 151 0.9355877041816711
147 152 0.9658036828041077
147 153 0.34237393736839294
147 154 0.9623767733573914
147 155 0.9572213292121887
147 156 0.9641570448875427
147 157 0.9663398265838623
147 158 0.2049693912267685
147 159 0.9652311205863953
147 160 0.9582651853561401
147 161 0.9133524894714355
147 162 0.17177510261535645
147 163 0.9626173377037048
147 164 0.9566420316696167
147 165 0.9648053646087646
147 166 0.9593090415000916
147 167 0.9669504165649414
147 168 0.958302915096283
147 169 0.9533876776695251
147 170 0.3305152654647827
147 171 0.9478640556335449
147 172 0.9615789651870728
147 173 0.9647673964500427
147 174 0.2538752853870392
147 175 0.9490699768066406
147 176 0.9705489873886108
147 177 0.9636557698249817
147 178 0.9598855376243591
147 179 0.8346506357192993
147 180 0.9586983919143677
147 181 0.31301918625831604
147 182 0.9608922004699707
147 183 0.9674113988876343
147 184 0.9576875567436218
147 185 0.9512118101119995
147 186 0.9674113988876343
147 187 0.9653420448303223
147 188 0.9636929035186768
147 189 0.9593833684921265
147 190 0.9626556038856506
147 191 0.9605010151863098
147 192 0.9599231481552124
147 193 0.9673755764961243
147 194 0.9669504165649414
147 195 0.9599616527557373
147 196 0.9626556038856506
147 197 0.9427607655525208
147 198 0.1207793727517128
147 199 0.9539307951927185
147 200 0.17650140821933746
147 201 0.24395841360092163
147 202 0.9653041362762451
147 203 0.4036339223384857
147 204 0.4975460469722748
147 205 0.8975474834442139
147 206 0.5364365577697754
147 207 0.9631552696228027
147 208 0.96247398853302
147 209 0.05578560009598732
147 210 0.23787061870098114
147 211 0.16464892029762268
147 212 0.9609642624855042
147 213 0.3143162131309509
147 214 0.40246984362602234
147 215 0.12474039196968079
147 216 0.9653420448303223
147 217 0.9626173377037048
147 218 0.953425943851471
147 219 0.9668757319450378
147 220 0.9674481749534607
147 221 0.9641218781471252
147 222 0.9672420024871826
147 223 0.9610016942024231
147 224 0.8652061223983765
147 225 0.9631552696228027
147 226 0.9496155977249146
147 227 0.953425943851471
147 228 0.24961069226264954
147 229 0.9390419125556946
147 230 0.35153189301490784
147 231 0.958302915096283
147 232 0.9620053768157959
147 233 0.773267924785614
147 234 0.24558472633361816
147 235 0.9673755764961243
147 236 0.9544737339019775
147 237 0.9663398265838623
147 238 0.9657326340675354
147 239 0.9672420024871826
147 240 0.5542338490486145
147 241 0.9571834206581116
147 242 0.3775580823421478
147 243 0.9615030884742737
147 244 0.9672739505767822
147 245 0.9565341472625732
147 246 0.13683591783046722
147 247 0.9626556038856506
147 248 0.9538572430610657
147 249 0.15446335077285767
147 250 0.9582651853561401
147 251 0.1845095008611679
147 252 0.9540082812309265
147 253 0.9593833684921265
147 254 0.21369536221027374
147 255 0.5083746910095215
148 149 0.9620397090911865
148 151 0.9289138913154602
148 152 0.9626215100288391
148 153 0.3339780271053314
148 154 0.9528489708900452
148 155 0.9539833068847656
148 156 0.9619991183280945
148 157 0.9652373194694519
148 158 0.21908901631832123
148 159 0.9630797505378723
148 160 0.9560753703117371
148 161 0.9130610823631287
148 162 0.19364917278289795
148 163 0.9614989161491394
148 164 0.9544423222541809
148 165 0.9668132662773132
148 166 0.9592134952545166
148 167 0.9668923020362854
148 168 0.9571624994277954
148 169 0.950116753578186
148 170 0.34313836693763733
148 171 0.9434833526611328
148 172 0.9614989161491394
148 173 0.963659942150116
148 174 0.250489741563797
148 175 0.9468276500701904
148 176 0.9684258699417114
148 177 0.9646207094192505
148 178 0.9629275798797607
148 179 0.827914834022522
148 180 0.955449640750885
148 181 0.3105649948120117
148 182 0.9597554802894592
148 183 0.9632037878036499
148 184 0.9533945918083191
148 185 0.9500318169593811
148 186 0.9642406702041626
148 187 0.9652774333953857
148 188 0.9605010151863098
148 189 0.9572045803070068
148 190 0.9615405201911926
148 191 0.9604166746139526
148 192 0.9587909579277039
148 193 0.9621236324310303
148 194 0.9658570885658264
148 195 0.9609172344207764
148 196 0.9625800251960754
148 197 0.9350936412811279
148 198 0.12909944355487823
148 199 0.9548656344413757
148 200 0.176868736743927
148 201 0.24446611106395721
148 202 0.9652373194694519
148 203 0.3968900740146637
148 204 0.5124861598014832
148 205 0.8971613049507141
148 206 0.5412859916687012
148 207 0.960999608039856
148 208 0.9582074284553528
148 210 0.2542566955089569
148 211 0.1649915874004364
148 212 0.9577476978302002
148 213 0.3244195282459259
148 214 0.39078232645988464
148 215 0.10833333432674408
148 216 0.9642406702041626
148 217 0.962539553642273
148 218 0.9543602466583252
148 219 0.9626638889312744
148 220 0.9653186202049255
148 221 0.9598750472068787
148 222 0.9609172344207764
148 223 0.9588328003883362
148 224 0.8588384985923767
148 225 0.9620397090911865
148 226 0.9463227987289429
148 227 0.9501606822013855
148 228 0.25416451692581177
148 229 0.9313724040985107
148 230 0.33794382214546204
148 231 0.9592523574829102
148 232 0.9608775973320007
148 233 0.7761579751968384
148 234 0.24206145107746124
148 235 0.9631614685058594
148 236 0.9554101824760437
148 237 0.9641993641853333
148 238 0.9635801315307617
148 239 0.9619594216346741
148 240 0.5443530678749084
148 241 0.9560340642929077
148 242 0.3835623562335968
148 243 0.9593331217765808
148 244 0.959916889667511
148 245 0.9532697796821594
148 246 0.12990380823612213
148 247 0.9625800251960754
148 248 0.949526309967041
148 249 0.1480550318956375
148 250 0.9539833068847656
148 251 0.18002787232398987
148 252 0.9528489708900452
148 253 0.9603360891342163
148 254 0.20938143134117126
148 255 0.5266691446304321
149 151 0.9306936264038086
149 152 0.9631944894790649
149 153 0.3304259181022644
149 154 0.9545035362243652
149 155 0.958762526512146
149 156 0.9625784754753113
149 157 0.9668413996696472
149 158 0.2141902595758438
149 159 0.9646936058998108
149 160 0.9577181935310364
149 161 0.9160153269767761
149 162 0.1933472901582718
149 163 0.9620780944824219
149 164 0.9592307209968567
149 165 0.9653061628341675
149 166 0.956673800945282
149 167 0.9664187431335449
149 168 0.9588003158569336
149 169 0.9517838358879089
149 170 0.3396243453025818
149 171 0.9462416172027588
149 172 0.9631170034408569
149 173 0.9652681350708008
149 174 0.23837582767009735
149 175 0.9495626091957092
149 176 0.9679503440856934
149 177 0.9641559720039368
149 178 0.9582982063293457
149 179 0.8278328776359558
149 180 0.9550073146820068
149 181 0.3224841058254242
149 182 0.9624348282814026
149 183 0.9648079872131348
149 184 0.9560925364494324
149 185 0.9538088440895081
149 186 0.9710191488265991
149 187 0.9648079872131348
149 188 0.9631552696228027
149 189 0.961965799331665
149 190 0.9683446884155273
149 191 0.9620397090911865
149 192 0.9583380222320557
149 193 0.9647688865661621
149 194 0.9726203083992004
149 195 0.959419310092926
149 196 0.9631552696228027
149 197 0.9357724785804749
149 198 0.12084205448627472
149 199 0.9565236568450928
149 200 0.18228958547115326
149 201 0.2598324418067932
149 202 0.9637326002120972
149 203 0.39122334122657776
149 204 0.4978042542934418
149 205 0.892386794090271
149 206 0.5423057675361633
149 207 0.9646936058998108
149 208 0.9577570557594299
149 209 0.055814556777477264
149 210 0.25782689452171326
149 211 0.17061775922775269
149 212 0.9656297564506531
149 213 0.3050450086593628
149 214 0.4026787579059601
149 215 0.12480514496564865
149 216 0.9679136276245117
149 217 0.9672728776931763
149 218 0.9549691081047058
149 219 0.9673776030540466
149 220 0.9658820629119873
149 221 0.9656628370285034
149 222 0.959419310092926
149 223 0.9604598879814148
149 224 0.8633250594139099
149 225 0.9636552333831787
149 226 0.9532648921012878
149 227 0.9560173749923706
149 228 0.24974025785923004
149 229 0.9352587461471558
149 230 0.3488548994064331
149 231 0.9619302749633789
149 232 0.9583380222320557
149 233 0.7838996648788452
149 234 0.23362797498703003
149 235 0.9637326002120972
149 236 0.9528725743293762
149 237 0.9678776860237122
149 238 0.9662339091300964
149 239 0.9615004658699036
149 240 0.5361599326133728
149 241 0.9576802253723145
149 242 0.3907800614833832
149 243 0.962002158164978
149 244 0.9604994654655457
149 245 0.9507343769073486
149 246 0.11529004573822021
149 247 0.9621174335479736
149 248 0.9511992335319519
149 249 0.1478242129087448
149 250 0.9598069190979004
149 251 0.18460527062416077
149 252 0.9565966725349426
149 253 0.9598813652992249
149 254 0.19005002081394196
149 255 0.52776038646698
150 224 0.0511309988796711
151 152 0.9303216338157654
151 153 0.3329434096813202
151 154 0.9217613935470581
151 155 0.9209050536155701
151 156 0.928430438041687
151 157 0.9373564720153809
151 158 0.19832071661949158
151 159 0.9296176433563232
151 160 0.9306443929672241
151 161 0.8901513814926147
151 162 0.1558154672384262
151 163 0.9354832172393799
151 164 0.9223594665527344
151 165 0.929360032081604
151 166 0.9209050536155701
151 167 0.9402972459793091
151 168 0.9253443479537964
151 169 0.9187654256820679
151 170 0.2994212210178375
151 171 0.9158033132553101
151 172 0.930100679397583
151 173 0.9324701428413391
151 174 0.2388918548822403
151 175 0.9162485003471375
151 176 0.9343522787094116
151 177 0.933330237865448
151 178 0.9248597621917725
151 179 0.8164255023002625
151 180 0.9287580251693726
151 181 0.29237034916877747
151 182 0.9258297085762024
151 183 0.9331707954406738
151 184 0.919107973575592
151 185 0.9207202196121216
151 186 0.9331707954406738
151 187 0.9310255646705627
151 188 0.9312861561775208
151 189 0.9243758916854858
151 190 0.9323615431785583
151 191 0.9289138913154602
151 192 0.9238928556442261
151 193 0.936282753944397
151 194 0.9328005909919739
151 195 0.9272416234016418
151 196 0.928059995174408
151 197 0.9042845964431763
151 198 0.11686159670352936
151 199 0.921538770198822
151 200 0.17707206308841705
151 201 0.25698450207710266
151 202 0.9352090954780579
151 203 0.37920844554901123
151 204 0.4705841839313507
151 205 0.8873225450515747
151 206 0.5329387784004211
151 207 0.9285417199134827
151 208 0.9242632985115051
151 209 0.05783149227499962
151 210 0.25892403721809387
151 211 0.15849533677101135
151 212 0.9271307587623596
151 213 0.3030344843864441
151 214 0.37835773825645447
151 215 0.12931515276432037
151 216 0.9320981502532959
151 217 0.9322537183761597
151 218 0.9199650287628174
151 219 0.9304331541061401
151 220 0.9343522787094116
151 221 0.9283198118209839
151 222 0.9261634349822998
151 223 0.9250852465629578
151 224 0.8462352156639099
151 225 0.9263898730278015
151 226 0.9277520775794983
151 227 0.9221372604370117
151 228 0.2212023138999939
151 229 0.9026818871498108
151 230 0.3584984540939331
151 231 0.9329113960266113
151 232 0.9249721169471741
151 233 0.7473017573356628
151 234 0.2253759354352951
151 235 0.9298405051231384
151 236 0.9232233762741089
151 237 0.9330615997314453
151 238 0.9322537183761597
151 239 0.9250852465629578
151 240 0.5498272776603699
151 241 0.9197073578834534
151 242 0.3347185254096985
151 243 0.9255679249763489
151 244 0.9295074939727783
151 245 0.9209400415420532
151 246 0.12692223489284515
151 247 0.933436930179596
151 248 0.9202303886413574
151 249 0.11139349639415741
151 250 0.9295622110366821
151 251 0.16107472777366638
151 252 0.9228457808494568
151 253 0.9232959747314453
151 254 0.19691774249076843
151 255 0.483430951833725
152 153 0.31780558824539185
152 154 0.9582451581954956
152 155 0.9593581557273865
152 156 0.9652342200279236
152 157 0.96637362241745
152 158 0.22295773029327393
152 159 0.9631944894790649
152 160 0.9624865651130676
152 161 0.9200554490089417
152 162 0.19304683804512024
152 163 0.9636949896812439
152 164 0.9556512236595154
152 165 0.9669085144996643
152 166 0.9572726488113403
152 167 0.9700769186019897
152 168 0.9583519697189331
152 169 0.9555434584617615
152 170 0.3212493658065796
152 171 0.9447711706161499
152 172 0.9678444266319275
152 173 0.9648033380508423
152 174 0.2497105747461319
152 175 0.9533424973487854
152 176 0.9674786925315857
152 177 0.9657697081565857
152 178 0.9620147347450256
152 179 0.8325795531272888
152 180 0.9587509036064148
152 181 0.32507896423339844
152 182 0.9609392285346985
152 183 0.9664095044136047
152 184 0.9566956758499146
152 185 0.9512766003608704
152 186 0.9664095044136047
152 187 0.96744304895401
152 188 0.9637311697006226
152 189 0.9604708552360535
152 190 0.9647673964500427
152 191 0.963659942150116
152 192 0.9599689245223999
152 193 0.968442976474762
152 194 0.9700769186019897
152 195 0.9631232619285583
152 196 0.9668399095535278
152 197 0.943917453289032
152 198 0.12065427005290985
152 199 0.9560843706130981
152 200 0.17063090205192566
152 201 0.24763645231723785
152 202 0.965338945388794
152 203 0.3931354880332947
152 204 0.4990108609199524
152 205 0.8910000324249268
152 206 0.5489058494567871
152 207 0.9652681350708008
152 208 0.9593937397003174
152 209 0.05572781711816788
152 210 0.23366382718086243
152 211 0.14098146557807922
152 212 0.9610089659690857
152 213 0.31713059544563293
152 214 0.39206406474113464
152 215 0.11630378663539886
152 216 0.9664095044136047
152 217 0.9668070673942566
152 218 0.9534851908683777
152 219 0.9658743143081665
152 220 0.9685112237930298
152 221 0.9610453844070435
152 222 0.9620842933654785
152 223 0.9610453844070435
152 224 0.8631467223167419
152 225 0.9652681350708008
152 226 0.9538846611976624
152 227 0.9545317888259888
152 228 0.2533739507198334
152 229 0.9402012228965759
152 230 0.356877863407135
152 231 0.9593937397003174
152 232 0.9610089659690857
152 233 0.7814046740531921
152 234 0.25739577412605286
152 235 0.96637362241745
152 236 0.9555783867835999
152 237 0.967408299446106
152 238 0.9636949896812439
152 239 0.9631232619285583
152 240 0.5426599383354187
152 241 0.9572359323501587
152 242 0.3797681927680969
152 243 0.9646652936935425
152 244 0.9652342200279236
152 245 0.9544957280158997
152 246 0.14388862252235413
152 247 0.9647673964500427
152 248 0.9549681544303894
152 249 0.14088566601276398
152 250 0.9614437818527222
152 251 0.2037203311920166
152 252 0.9582451581954956
152 253 0.9604708552360535
152 254 0.2182179093360901
152 255 0.5193033814430237
153 154 0.3085872530937195
153 155 0.32013386487960815
153 156 0.31256210803985596
153 157 0.3357921242713928
153 159 0.3304259181022644
153 160 0.3353783190250397
153 161 0.3003164231777191
153 162 0.10975077003240585
153 163 0.324531614780426
153 164 0.3267468810081482
153 165 0.3205007016658783
153 166 0.3292805254459381
153 167 0.31380578875541687
153 168 0.3411179780960083
153 169 0.31246769428253174
153 170 0.15654541552066803
153 171 0.34567737579345703
153 172 0.324531614780426
153 173 0.3238590359687805
153 175 0.31961292028427124
153 176 0.3411376178264618
153 177 0.3214986026287079
153 178 0.3074542284011841
153 179 0.3069341480731964
153 180 0.3209778666496277
153 181 0.10862509161233902
153 182 0.31996583938598633
153 183 0.32637932896614075
153 184 0.3236931562423706
153 185 0.32234227657318115
153 186 0.3294013738632202
153 187 0.32637932896614075
153 188 0.32116493582725525
153 189 0.33467596769332886
153 190 0.32722464203834534
153 191 0.3339780271053314
153 192 0.3436238169670105
153 193 0.32671666145324707
153 194 0.33492735028266907
153 195 0.3007368743419647
153 196 0.3241947889328003
153 197 0.33367517590522766
153 199 0.3276110887527466
153 200 0.1330380141735077
153 201 0.16089828312397003
153 202 0.33276697993278503
153 203 0.16947078704833984
153 204 0.10421526432037354
153 205 0.29237741231918335
153 206 0.1958518624305725
153 207 0.32133162021636963
153 208 0.3197981119155884
153 210 0.06947683542966843
153 211 0.05152540281414986
153 212 0.32537829875946045
153 213 0.0642634704709053
153 214 0.14602820575237274
153 215 0.07286792993545532
153 216 0.3294013738632202
153 217 0.32756462693214417
153 218 0.33355802297592163
153 219 0.3295714855194092
153 220 0.32906192541122437
153 221 0.3250388503074646
153 222 0.31896334886550903
153 223 0.33415207266807556
153 224 0.31971123814582825
153 225 0.32133162021636963
153 226 0.31022781133651733
153 227 0.3304978311061859
153 228 0.058795053511857986
153 229 0.30232447385787964
153 230 0.16695095598697662
153 231 0.30456963181495667
153 232 0.3314601480960846
153 233 0.1754574328660965
153 235 0.33276697993278503
153 236 0.3060165047645569
153 237 0.32671666145324707
153 238 0.33969664573669434
153 239 0.32807657122612
153 240 0.1983294039964676
153 241 0.33267906308174133
153 242 0.0532369390130043
153 243 0.31305110454559326
153 244 0.31559666991233826
153 245 0.3247213065624237
153 246 0.06310547143220901
153 247 0.3241947889328003
153 248 0.3068293035030365
153 250 0.3140360713005066
153 251 0.07090950757265091
153 252 0.31469789147377014
153 253 0.3255484700202942
153 254 0.0970912054181099
153 255 0.24003252387046814
154 155 0.9484230875968933
154 156 0.9554962515830994
154 157 0.9587938785552979
154 158 0.2250644415616989
154 159 0.9576432704925537
154 160 0.9484230875968933
154 161 0.9055854678153992
154 162 0.15697936713695526
154 163 0.9549994468688965
154 164 0.9478124976158142
154 165 0.9614302515983582
154 166 0.9505284428596497
154 167 0.9594499468803406
154 168 0.9505830407142639
154 169 0.9444771409034729
154 170 0.3453032970428467
154 171 0.9409112930297852
154 172 0.9549994468688965
154 173 0.9561551213264465
154 174 0.25600871443748474
154 175 0.9390079975128174
154 176 0.9589015245437622
154 177 0.9549994468688965
154 178 0.9511362314224243
154 179 0.8209578990936279
154 180 0.947757363319397
154 181 0.3125244081020355
154 182 0.9510816335678101
154 183 0.9578039050102234
154 184 0.9478124976158142
154 185 0.9443668723106384
154 186 0.9609339833259583
154 187 0.956760585308075
154 188 0.9571464657783508
154 189 0.9527395367622375
154 190 0.9550543427467346
154 191 0.95389723777771
154 192 0.9511916637420654
154 193 0.9567050337791443
154 194 0.9584081768989563
154 195 0.9533457159996033
154 196 0.9561004042625427
154 197 0.9280735850334167
154 198 0.11367471516132355
154 199 0.9471479654312134
154 200 0.17224319279193878
154 201 0.23410487174987793
154 202 0.9577494859695435
154 203 0.3943063020706177
154 204 0.4937314987182617
154 205 0.8835403323173523
154 206 0.533431351184845
154 207 0.9565966725349426
154 208 0.956892192363739
154 209 0.05625439062714577
154 210 0.251863032579422
154 211 0.16010281443595886
154 212 0.9522415995597839
154 213 0.3074488639831543
154 214 0.39072704315185547
154 215 0.11740273237228394
154 216 0.9588472843170166
154 217 0.9539523124694824
154 218 0.9477031826972961
154 219 0.960386335849762
154 220 0.9609861373901367
154 221 0.9543944597244263
154 222 0.9575408697128296
154 223 0.9575408697128296
154 224 0.861908495426178
154 225 0.9545035362243652
154 226 0.9416887760162354
154 227 0.9466466903686523
154 228 0.2435886710882187
154 229 0.9286400675773621
154 230 0.3400759994983673
154 231 0.9495315551757812
154 232 0.9522415995597839
154 233 0.7720328569412231
154 234 0.2517082989215851
154 235 0.9587938785552979
154 236 0.9455901980400085
154 237 0.9577494859695435
154 238 0.9560465812683105
154 239 0.9522969126701355
154 240 0.5329824686050415
154 241 0.950474739074707
154 242 0.39385950565338135
154 243 0.9559417963027954
154 244 0.9586392641067505
154 245 0.9455347657203674
154 246 0.13072340190410614
154 247 0.9540082812309265
154 248 0.9459830522537231
154 249 0.15576136112213135
154 250 0.9515810608863831
154 251 0.20564530789852142
154 252 0.9462024569511414
154 253 0.954840362071991
154 254 0.1915476769208908
154 255 0.5068651437759399
155 156 0.9555777311325073
155 157 0.9599042534828186
155 158 0.206257164478302
155 159 0.9577181935310364
155 160 0.9516806602478027
155 161 0.9124866127967834
155 162 0.1836577206850052
155 163 0.9561258554458618
155 164 0.9500274658203125
155 165 0.9614917039871216
155 166 0.950630247592926
155 167 0.9615904092788696
155 168 0.9548798203468323
155 169 0.947767972946167
155 170 0.33858445286750793
155 171 0.9421225190162659
155 172 0.9582157731056213
155 173 0.9604009985923767
155 174 0.25154000520706177
155 175 0.9465624690055847
155 176 0.9620854258537292
155 177 0.9592607021331787
155 178 0.9543797969818115
155 179 0.8216624855995178
155 180 0.9499769806861877
155 181 0.30562981963157654
155 182 0.9564306139945984
155 183 0.9599543213844299
155 184 0.9573919773101807
155 185 0.9455537796020508
155 186 0.962036669254303
155 187 0.9609954953193665
155 188 0.9593090415000916
155 189 0.9517841339111328
155 190 0.9572213292121887
155 191 0.9539833068847656
155 192 0.9565250277519226
155 193 0.9599042534828186
155 194 0.9605507850646973
155 195 0.9555270671844482
155 196 0.9593090415000916
155 197 0.9271961450576782
155 198 0.12964074313640594
155 199 0.9483206868171692
155 200 0.1833397001028061
155 201 0.2613292634487152
155 202 0.9609465003013611
155 203 0.39347708225250244
155 204 0.49668261408805847
155 205 0.8782867193222046
155 206 0.5435555577278137
155 207 0.9556293487548828
155 208 0.950682520866394
155 209 0.05613608658313751
155 210 0.25532278418540955
155 211 0.16568337380886078
155 212 0.9533820152282715
155 213 0.31629103422164917
155 214 0.3999674320220947
155 215 0.11715584248304367
155 216 0.9599543213844299
155 217 0.9582157731056213
155 218 0.9499273896217346
155 219 0.9594083428382874
155 220 0.9620854258537292
155 221 0.9544805288314819
155 222 0.9597133994102478
155 223 0.9555270671844482
155 224 0.8530651330947876
155 225 0.9598069190979004
155 226 0.9439412355422974
155 227 0.9478187561035156
155 228 0.2430763989686966
155 229 0.93527752161026
155 230 0.3077254593372345
155 231 0.9548798203468323
155 232 0.9554774165153503
155 233 0.7742677330970764
155 234 0.24712766706943512
155 235 0.9578197598457336
155 236 0.9499273896217346
155 237 0.9588619470596313
155 238 0.957170844078064
155 239 0.9555270671844482
155 240 0.5355551242828369
155 241 0.9516304135322571
155 242 0.3877907991409302
155 243 0.9581198692321777
155 244 0.9576687812805176
155 245 0.9456571340560913
155 246 0.13769562542438507
155 247 0.9593090415000916
155 248 0.950336217880249
155 249 0.14191780984401703
155 250 0.9495798349380493
155 251 0.21009881794452667
155 252 0.9484230875968933
155 253 0.9517841339111328
155 254 0.2102593332529068
155 255 0.5154151320457458
156 157 0.9636975526809692
156 158 0.22809897363185883
156 159 0.9636179804801941
156 160 0.9576687812805176
156 161 0.9180637001991272
156 162 0.1827957034111023
156 163 0.9620386362075806
156 164 0.9560397863388062
156 165 0.9673469662666321
156 166 0.9566232562065125
156 167 0.9663891196250916
156 168 0.9597975015640259
156 169 0.9517232179641724
156 170 0.3280485272407532
156 171 0.9461674094200134
156 172 0.9620386362075806
156 173 0.962120532989502
156 174 0.2620949447154999
156 175 0.9505501985549927
156 176 0.9679219126701355
156 177 0.96099853515625
156 178 0.9582510590553284
156 179 0.8274840116500854
156 180 0.9528558850288391
156 181 0.32592353224754333
156 182 0.9571661949157715
156 183 0.9658114314079285
156 184 0.952898383140564
156 185 0.9495373368263245
156 186 0.9678839445114136
156 187 0.9637388586997986
156 188 0.9631180763244629
156 189 0.9567064642906189
156 190 0.961040198802948
156 191 0.9609580039978027
156 192 0.9582920074462891
156 193 0.9647349715232849
156 194 0.9653544425964355
156 195 0.9614588618278503
156 196 0.9620791673660278
156 197 0.9356763958930969
156 198 0.12096773833036423
156 199 0.9564685821533203
156 200 0.17107421159744263
156 201 0.26010268926620483
156 202 0.9647349715232849
156 203 0.3966835141181946
156 204 0.4923659563064575
156 205 0.889935314655304
156 206 0.5316766500473022
156 207 0.9604994654655457
156 208 0.9566643834114075
156 209 0.055872607976198196
156 210 0.24221228063106537
156 211 0.17668470740318298
156 212 0.96037757396698
156 213 0.3242506980895996
156 214 0.3905789852142334
156 215 0.11660595238208771
156 216 0.9637388586997986
156 217 0.96099853515625
156 218 0.9517649412155151
156 219 0.9652733206748962
156 220 0.9689571261405945
156 221 0.9604172110557556
156 222 0.9593755602836609
156 223 0.9604172110557556
156 224 0.8548926711082458
156 225 0.9625784754753113
156 226 0.9489901065826416
156 227 0.9538636207580566
156 228 0.24596774578094482
156 229 0.9351626634597778
156 230 0.3549426198005676
156 231 0.9566643834114075
156 232 0.9614202976226807
156 233 0.7911155223846436
156 234 0.2540322542190552
156 235 0.9647349715232849
156 236 0.9528142809867859
156 237 0.9657723307609558
156 238 0.9620386362075806
156 239 0.9625005125999451
156 240 0.5403936505317688
156 241 0.9555364847183228
156 242 0.39118650555610657
156 243 0.9598761200904846
156 244 0.9604578614234924
156 245 0.9506727457046509
156 246 0.1154099628329277
156 247 0.9631180763244629
156 248 0.9500842690467834
156 249 0.1547042578458786
156 250 0.954532265663147
156 251 0.20911270380020142
156 252 0.9554962515830994
156 253 0.9598363637924194
156 254 0.21878483891487122
156 255 0.524480938911438
157 158 0.19100777804851532
157 159 0.9668413996696472
157 160 0.9609465003013611
157 161 0.9141188263893127
157 162 0.16614879667758942
157 163 0.9631965160369873
157 164 0.9582886099815369
157 165 0.9684755206108093
157 166 0.9599042534828186
157 167 0.9695751667022705
157 168 0.9620209336280823
157 169 0.9560964107513428
157 170 0.34189411997795105
157 171 0.9495577812194824
157 172 0.9642333984375
157 173 0.968442976474762
157 174 0.2573808431625366
157 175 0.9507482647895813
157 176 0.9731702208518982
157 177 0.9631965160369873
157 178 0.9604765772819519
157 179 0.8321489095687866
157 180 0.9561650156974792
157 181 0.32181644439697266
157 182 0.9604421854019165
157 183 0.9700418710708618
157 184 0.9562008380889893
157 185 0.9539329409599304
157 186 0.9679757356643677
157 187 0.9669426679611206
157 188 0.9663398265838623
157 189 0.9610141515731812
157 190 0.9642683863639832
157 191 0.9631614685058594
157 192 0.9625909328460693
157 193 0.9658737778663635
157 194 0.9716380834579468
157 195 0.9636635780334473
157 196 0.9653041362762451
157 197 0.9391651749610901
157 198 0.1286313384771347
157 199 0.9555898308753967
157 200 0.1762274205684662
157 201 0.2553658187389374
157 202 0.9658737778663635
157 203 0.4030073583126068
157 204 0.5046903491020203
157 205 0.8984001278877258
157 206 0.5411829948425293
157 207 0.9647688865661621
157 208 0.9609798192977905
157 209 0.055698998272418976
157 210 0.25333476066589355
157 211 0.17026449739933014
157 212 0.9605118632316589
157 213 0.31696656346321106
157 214 0.4068368673324585
157 215 0.12454674392938614
157 216 0.9679757356643677
157 217 0.967343807220459
157 218 0.9550841450691223
157 219 0.9674419164657593
157 220 0.9690423011779785
157 221 0.9636635780334473
157 222 0.9626251459121704
157 223 0.9636635780334473
157 224 0.8557243347167969
157 225 0.9647688865661621
157 226 0.9523413777351379
157 227 0.9550841450691223
157 228 0.24922320246696472
157 229 0.936518669128418
157 230 0.34527909755706787
157 231 0.9630621671676636
157 232 0.9615514278411865
157 233 0.7771720886230469
157 234 0.24520348012447357
157 235 0.9689761996269226
157 236 0.9571762681007385
157 237 0.9720785617828369
157 238 0.9642333984375
157 239 0.9626251459121704
157 240 0.5533734560012817
157 241 0.957784116268158
157 242 0.37437212467193604
157 243 0.9631273746490479
157 244 0.9636975526809692
157 245 0.9550492167472839
157 246 0.13662348687648773
157 247 0.9642683863639832
157 248 0.9523765444755554
157 249 0.14751817286014557
157 250 0.9599042534828186
157 251 0.19391903281211853
157 252 0.9577494859695435
157 253 0.9651743769645691
157 254 0.21336360275745392
157 255 0.5285758972167969
158 159 0.22330474853515625
158 160 0.22459113597869873
158 161 0.22093437612056732
158 163 0.2279803603887558
158 164 0.22494585812091827
158 165 0.22272726893424988
158 166 0.22459113597869873
158 167 0.22680459916591644
158 168 0.21061953902244568
158 169 0.21644972264766693
158 170 0.05229764059185982
158 171 0.22735434770584106
158 172 0.2279803603887558
158 173 0.21840757131576538
158 174 0.051449574530124664
158 175 0.1801813393831253
158 176 0.21330608427524567
158 177 0.2188611477613449
158 178 0.2242380976676941
158 179 0.17502260208129883
158 180 0.18841864168643951
158 181 0.12247448414564133
158 182 0.21073001623153687
158 183 0.19989678263664246
158 184 0.19740146398544312
158 185 0.2030649185180664
158 186 0.20898298919200897
158 187 0.22261232137680054
158 188 0.22774375975131989
158 189 0.2012513279914856
158 190 0.22318889200687408
158 191 0.20996032655239105
158 192 0.21943214535713196
158 193 0.22739019989967346
158 194 0.19958806037902832
158 195 0.22833669185638428
158 196 0.22318889200687408
158 197 0.20158711075782776
158 199 0.2117321640253067
158 200 0.10000000894069672
158 202 0.22284241020679474
158 203 0.08861580491065979
158 204 0.17407767474651337
158 205 0.17285266518592834
158 206 0.13903634250164032
158 207 0.22330474853515625
158 208 0.2243555784225464
158 210 0.05222329869866371
158 212 0.22857515513896942
158 213 0.12421180307865143
158 214 0.06585855036973953
158 215 0.07302967458963394
158 216 0.22261232137680054
158 217 0.20518232882022858
158 218 0.21622054278850555
158 219 0.2136363536119461
158 220 0.22692136466503143
158 221 0.20093630254268646
158 222 0.21920321881771088
158 223 0.21920321881771088
158 224 0.18918468058109283
158 225 0.21874749660491943
158 226 0.2262609899044037
158 227 0.22082097828388214
158 229 0.21553294360637665
158 230 0.07529469579458237
158 231 0.21061953902244568
158 232 0.21486064791679382
158 233 0.1964247226715088
158 234 0.0707106813788414
158 235 0.22739019989967346
158 236 0.20701967179775238
158 237 0.2137468010187149
158 238 0.2279803603887558
158 239 0.20550303161144257
158 240 0.16116459667682648
158 241 0.22482742369174957
158 242 0.19436506927013397
158 243 0.20104114711284637
158 244 0.22809897363185883
158 245 0.17960721254348755
158 247 0.22318889200687408
158 248 0.21679484844207764
158 250 0.22000762820243835
158 251 0.19188064336776733
158 252 0.2250644415616989
158 253 0.2012513279914856
158 254 0.06255432218313217
158 255 0.10070175677537918
159 160 0.958762526512146
159 161 0.913826584815979
159 162 0.15575197339057922
159 163 0.9620780944824219
159 164 0.9560925364494324
159 165 0.9653061628341675
159 166 0.9608513116836548
159 167 0.9684858918190002
159 168 0.9588003158569336
159 169 0.957030713558197
159 170 0.342603474855423
159 171 0.9472988247871399
159 172 0.9631170034408569
159 173 0.9642313718795776
159 174 0.25009921193122864
159 175 0.9485098123550415
159 176 0.9679503440856934
159 177 0.9641559720039368
159 178 0.9614264965057373
159 179 0.8326668739318848
159 180 0.9571016430854797
159 181 0.29457682371139526
159 182 0.960347056388855
159 183 0.9679136276245117
159 184 0.9550464749336243
159 185 0.9517056345939636
159 186 0.9679136276245117
159 187 0.9648079872131348
159 188 0.9693825840950012
159 189 0.961965799331665
159 190 0.9641931653022766
159 191 0.9630797505378723
159 192 0.9604213833808899
159 193 0.9647688865661621
159 194 0.9684858918190002
159 195 0.9604598879814148
159 196 0.9641931653022766
159 197 0.9389771819114685
159 198 0.12889818847179413
159 199 0.9512795805931091
159 200 0.17659303545951843
159 201 0.24014818668365479
159 202 0.9668413996696472
159 203 0.39627137780189514
159 204 0.5097039341926575
159 205 0.892386794090271
159 206 0.540442168712616
159 207 0.9636552333831787
159 208 0.959843635559082
159 209 0.055814556777477264
159 210 0.24989375472068787
159 211 0.17650113999843597
159 212 0.9593797326087952
159 213 0.3050450086593628
159 214 0.3826698660850525
159 215 0.12480514496564865
159 216 0.9679136276245117
159 217 0.961039125919342
159 218 0.9549691081047058
159 219 0.9642704129219055
159 220 0.9658820629119873
159 221 0.9615004658699036
159 222 0.9625411033630371
159 223 0.9615004658699036
159 224 0.8633250594139099
159 225 0.9626168012619019
159 226 0.9490562677383423
159 227 0.9549691081047058
159 228 0.23362797498703003
159 229 0.9331234097480774
159 230 0.3459954261779785
159 231 0.959843635559082
159 232 0.9583380222320557
159 233 0.7736693024635315
159 234 0.24974025785923004
159 235 0.965805172920227
159 236 0.9560173749923706
159 237 0.965805172920227
159 238 0.9641559720039368
159 239 0.9604598879814148
159 240 0.5453407764434814
159 241 0.9566347002983093
159 242 0.388174831867218
159 243 0.9588788151741028
159 244 0.9636179804801941
159 245 0.9517838358879089
159 246 0.1369069367647171
159 247 0.9621174335479736
159 248 0.9533013701438904
159 249 0.15454350411891937
159 250 0.9608513116836548
159 251 0.1894632875919342
159 252 0.9545035362243652
159 253 0.9598813652992249
159 254 0.18529877066612244
159 255 0.5162873268127441
160 161 0.9135873317718506
160 162 0.1674526333808899
160 163 0.957170844078064
160 164 0.9500274658203125
160 165 0.9594083428382874
160 166 0.9516806602478027
160 167 0.9626299738883972
160 168 0.9538305401802063
160 169 0.947767972946167
160 170 0.320606529712677
160 171 0.9410591721534729
160 172 0.9582157731056213
160 173 0.9583154320716858
160 174 0.23974907398223877
160 175 0.9444448351860046
160 176 0.9620854258537292
160 177 0.9592607021331787
160 178 0.9512335062026978
160 179 0.8204469680786133
160 180 0.9531365036964417
160 181 0.30251115560531616
160 182 0.950131356716156
160 183 0.9609954953193665
160 184 0.9500274658203125
160 185 0.9444961547851562
160 186 0.962036669254303
160 187 0.962036669254303
160 188 0.9572213292121887
160 189 0.9538805484771729
160 190 0.9593090415000916
160 191 0.9613054990768433
160 192 0.9544297456741333
160 193 0.9599042534828186
160 194 0.96366947889328
160 195 0.9544805288314819
160 196 0.9634844660758972
160 197 0.9347168803215027
160 198 0.12964074313640594
160 199 0.9483206868171692
160 200 0.1776103377342224
160 201 0.2534102201461792
160 202 0.9619887471199036
160 203 0.39347708225250244
160 204 0.4847143590450287
160 205 0.8839457631111145
160 206 0.5379325151443481
160 207 0.956673800945282
160 208 0.9548798203468323
160 209 0.05613608658313751
160 210 0.2513333559036255
160 211 0.17160063982009888
160 212 0.9575726985931396
160 213 0.3194539546966553
160 214 0.3647501766681671
160 215 0.1255241185426712
160 216 0.9599543213844299
160 217 0.9582157731056213
160 218 0.9467644691467285
160 219 0.9583665728569031
160 220 0.9672858715057373
160 221 0.9544805288314819
160 222 0.9534339308738708
160 223 0.9597133994102478
160 224 0.8518933653831482
160 225 0.956673800945282
160 226 0.9471158981323242
160 227 0.9488730430603027
160 228 0.23902513086795807
160 229 0.9320561289787292
160 230 0.36236828565597534
160 231 0.9517319202423096
160 232 0.9544297456741333
160 233 0.7781261801719666
160 234 0.2592814862728119
160 235 0.9578197598457336
160 236 0.9478187561035156
160 237 0.9578197598457336
160 238 0.9592607021331787
160 239 0.9544805288314819
160 240 0.5374018549919128
160 241 0.9526818990707397
160 242 0.3825504183769226
160 243 0.953931450843811
160 244 0.9608051776885986
160 245 0.9446017146110535
160 246 0.1449427604675293
160 247 0.9561774730682373
160 248 0.9439936280250549
160 249 0.14191780984401703
160 250 0.9527311325073242
160 251 0.21009881794452667
160 252 0.9484230875968933
160 253 0.9538805484771729
160 254 0.19114485383033752
160 255 0.5134919881820679
161 162 0.17546918988227844
161 163 0.918681263923645
161 164 0.9062106609344482
161 165 0.9212875962257385
161 166 0.9091845154762268
161 167 0.9161219596862793
161 168 0.9104301333427429
161 169 0.9035593271255493
161 170 0.3045574724674225
161 171 0.8880571722984314
161 172 0.9143013954162598
161 173 0.9178699851036072
161 174 0.24298977851867676
161 175 0.9020096659660339
161 176 0.9155036807060242
161 177 0.918681263923645
161 178 0.9066563844680786
161 179 0.7718417048454285
161 180 0.9038562774658203
161 181 0.3071895241737366
161 182 0.9076072573661804
161 183 0.9208120703697205
161 184 0.904005765914917
161 185 0.9021568298339844
161 186 0.9164480566978455
161 187 0.918630063533783
161 188 0.9133524894714355
161 189 0.9105756878852844
161 190 0.9155401587486267
161 191 0.9141572117805481
161 192 0.9122954607009888
161 193 0.9163031578063965
161 194 0.9183006882667542
161 195 0.9146336913108826
161 196 0.9155401587486267
161 197 0.8882735967636108
161 198 0.10188533365726471
161 199 0.916344940662384
161 200 0.15609492361545563
161 201 0.2530946135520935
161 202 0.9141188263893127
161 203 0.3511321246623993
161 204 0.4723859131336212
161 205 0.8420577645301819
161 206 0.5145838856697083
161 207 0.9116377830505371
161 208 0.9115296602249146
161 209 0.05882352590560913
161 210 0.24246357381343842
161 211 0.16741468012332916
161 212 0.9133932590484619
161 213 0.31154707074165344
161 214 0.37430423498153687
161 215 0.11399561911821365
161 216 0.9175390005111694
161 217 0.918681263923645
161 218 0.9070217609405518
161 219 0.9158297181129456
161 220 0.919863224029541
161 221 0.9080536365509033
161 222 0.9091503024101257
161 223 0.9091503024101257
161 224 0.804268479347229
161 225 0.9160153269767761
161 226 0.9059643149375916
161 227 0.9026026129722595
161 228 0.22499679028987885
161 229 0.8967875838279724
161 230 0.34355276823043823
161 231 0.9137287735939026
161 232 0.9122954607009888
161 233 0.768207311630249
161 234 0.22499679028987885
161 235 0.9130266904830933
161 236 0.9003931283950806
161 237 0.9141188263893127
161 238 0.9164912700653076
161 239 0.9135370254516602
161 240 0.4799177050590515
161 241 0.9024279713630676
161 242 0.35693415999412537
161 243 0.914013683795929
161 244 0.9147770404815674
161 245 0.8991355299949646
161 246 0.12150535732507706
161 247 0.9144462943077087
161 248 0.9049999713897705
161 249 0.1557934582233429
161 250 0.9058823585510254
161 251 0.20479725301265717
161 252 0.9099975824356079
161 253 0.9127724170684814
161 254 0.21531781554222107
161 255 0.4735863208770752
162 163 0.18270066380500793
162 164 0.1785375326871872
162 165 0.17141981422901154
162 166 0.17285433411598206
162 167 0.1871042400598526
162 168 0.178069069981575
162 169 0.16824980080127716
162 171 0.18591730296611786
162 172 0.17195357382297516
162 173 0.1769595891237259
162 175 0.18512193858623505
162 176 0.17115481197834015
162 177 0.18270066380500793
162 178 0.17797580361366272
162 179 0.15001171827316284
162 180 0.15706223249435425
162 181 0.2084876000881195
162 182 0.18896017968654633
162 183 0.1820395588874817
162 184 0.17312732338905334
162 185 0.19036363065242767
162 186 0.19274777173995972
162 187 0.1873936504125595
162 188 0.17714306712150574
162 189 0.17249232530593872
162 190 0.17714306712150574
162 191 0.18827001750469208
162 192 0.17778974771499634
162 193 0.17686806619167328
162 194 0.1871042400598526
162 195 0.19375009834766388
162 196 0.193246990442276
162 197 0.1767982840538025
162 198 0.0833333283662796
162 199 0.17900973558425903
162 200 0.0589255653321743
162 201 0.08144629746675491
162 202 0.18758735060691833
162 203 0.05221736431121826
162 204 0.10257624834775925
162 205 0.15132656693458557
162 206 0.08674723654985428
162 207 0.1826057732105255
162 208 0.1834651082754135
162 212 0.17240218818187714
162 213 0.08132500946521759
162 214 0.18110178411006927
162 216 0.1820395588874817
162 217 0.18807420134544373
162 218 0.1897583305835724
162 219 0.18213355541229248
162 220 0.17115481197834015
162 221 0.19375009834766388
162 222 0.17760424315929413
162 223 0.18298621475696564
162 224 0.1687236726284027
162 225 0.18797652423381805
162 226 0.185023233294487
162 227 0.17891499400138855
162 228 0.1666666567325592
162 229 0.17670121788978577
162 230 0.07394637912511826
162 231 0.178069069981575
162 232 0.18317732214927673
162 233 0.15212120115756989
162 235 0.18758735060691833
162 236 0.15722833573818207
162 237 0.19294700026512146
162 238 0.17732711136341095
162 239 0.18298621475696564
162 240 0.06647700071334839
162 241 0.18385092914104462
162 242 0.12126780301332474
162 243 0.18308168649673462
162 244 0.17204301059246063
162 245 0.18995945155620575
162 247 0.18787901103496552
162 248 0.17939020693302155
162 250 0.16205093264579773
162 251 0.05025188997387886
162 252 0.1948709338903427
162 253 0.1832730919122696
162 254 0.14744193851947784
162 255 0.1780172437429428
163 164 0.9534496068954468
163 165 0.9647715091705322
163 166 0.9582157731056213
163 167 0.9679549932479858
163 168 0.9582546949386597
163 169 0.9522783756256104
163 170 0.3278779685497284
163 171 0.9425020217895508
163 172 0.9636174440383911
163 173 0.9657697081565857
163 174 0.26195868849754333
163 175 0.9521625638008118
163 176 0.9663839340209961
163 177 0.965696394443512
163 178 0.9598394632339478
163 179 0.8234264254570007
163 180 0.9565512537956238
163 181 0.3226516544818878
163 182 0.9608460664749146
163 183 0.9653093218803406
163 184 0.9534496068954468
163 185 0.9522001147270203
163 186 0.9663450121879578
163 187 0.9642735719680786
163 188 0.9626173377037048
163 189 0.9593372941017151
163 190 0.9646941423416138
163 191 0.9604583382606506
163 192 0.9588359594345093
163 193 0.9663069844245911
163 194 0.9669209122657776
163 195 0.9620001316070557
163 196 0.9667710661888123
163 197 0.9341211318969727
163 198 0.12896516919136047
163 199 0.9528231620788574
163 200 0.15958626568317413
163 201 0.25208964943885803
163 202 0.9642333984375
163 203 0.393951952457428
163 204 0.49806296825408936
163 205 0.8905985355377197
163 206 0.5407230257987976
163 207 0.9620780944824219
163 208 0.9572108387947083
163 209 0.05584355816245079
163 210 0.246055006980896
163 211 0.17070640623569489
163 212 0.9609203934669495
163 213 0.3146427869796753
163 214 0.39287832379341125
163 215 0.11654532700777054
163 216 0.9653093218803406
163 217 0.9615384936332703
163 218 0.9533677101135254
163 219 0.9647715091705322
163 220 0.9653492569923401
163 221 0.9609590172767639
163 222 0.9588767886161804
163 223 0.9630413055419922
163 224 0.8614422678947449
163 225 0.9641559720039368
163 226 0.955865740776062
163 227 0.9533677101135254
163 228 0.2539001703262329
163 229 0.941085696220398
163 230 0.354758083820343
163 231 0.9572108387947083
163 232 0.9609203934669495
163 233 0.7932630777359009
163 234 0.23777954280376434
163 235 0.9631965160369873
163 236 0.9544165134429932
163 237 0.967343807220459
163 238 0.9646569490432739
163 239 0.9620001316070557
163 240 0.547461211681366
163 241 0.9550396800041199
163 242 0.3831634223461151
163 243 0.959377110004425
163 244 0.9651587009429932
163 245 0.9512283802032471
163 246 0.13697807490825653
163 247 0.9626173377037048
163 248 0.9537967443466187
163 249 0.1479010283946991
163 250 0.9592607021331787
163 251 0.2090039849281311
163 252 0.9570937156677246
163 253 0.9593372941017151
163 254 0.20440992712974548
163 255 0.5165556073188782
164 165 0.956750214099884
164 166 0.9521316289901733
164 167 0.9599854946136475
164 168 0.9521840214729309
164 169 0.9503219127655029
164 170 0.34212028980255127
164 171 0.9393503665924072
164 172 0.9597291350364685
164 173 0.9577401280403137
164 174 0.25981029868125916
164 175 0.9406340718269348
164 176 0.9615214467048645
164 177 0.9544962048530579
164 178 0.9527358412742615
164 179 0.8217427134513855
164 180 0.9504224061965942
164 181 0.3186069130897522
164 182 0.9526834487915039
164 183 0.9572991728782654
164 184 0.9494203925132751
164 185 0.9438691139221191
164 186 0.9593847990036011
164 187 0.9572991728782654
164 188 0.9555965065956116
164 189 0.9511874914169312
164 190 0.9566420316696167
164 191 0.9544423222541809
164 192 0.9527891278266907
164 193 0.9624641537666321
164 194 0.9620679020881653
164 195 0.9580844044685364
164 196 0.9545510411262512
164 197 0.92866051197052
164 198 0.10549946129322052
164 199 0.9487618803977966
164 200 0.17215242981910706
164 201 0.2617419958114624
164 202 0.9603763222694397
164 203 0.36867278814315796
164 204 0.49347129464149475
164 205 0.877406656742096
164 206 0.5275183916091919
164 207 0.9550464749336243
164 208 0.9500820636749268
164 209 0.056224748492240906
164 210 0.2517302930355072
164 211 0.17187166213989258
164 212 0.9527891278266907
164 213 0.3199584484100342
164 214 0.3829626739025116
164 215 0.11734087020158768
164 216 0.9583419561386108
164 217 0.9576359391212463
164 218 0.9482597708702087
164 219 0.9598802328109741
164 220 0.9594379663467407
164 221 0.960180938243866
164 222 0.9549397826194763
164 223 0.9538915157318115
164 224 0.8520650863647461
164 225 0.9581846594810486
164 226 0.9422523975372314
164 227 0.9461477994918823
164 228 0.24751798808574677
164 229 0.9292261004447937
164 230 0.3427772521972656
164 231 0.9521840214729309
164 232 0.9538384675979614
164 233 0.7845079302787781
164 234 0.23534496128559113
164 235 0.9572447538375854
164 236 0.9482597708702087
164 237 0.9582886099815369
164 238 0.9555427432060242
164 239 0.9559879899024963
164 240 0.5364009141921997
164 241 0.9520801901817322
164 242 0.3805302381515503
164 243 0.9554380178451538
164 244 0.9560397863388062
164 245 0.9439794421195984
164 246 0.13065451383590698
164 247 0.9566420316696167
164 248 0.9444257020950317
164 249 0.15567928552627563
164 250 0.9489754438400269
164 251 0.2006431668996811
164 252 0.9467582106590271
164 253 0.9522374272346497
164 254 0.205805242061615
164 255 0.5162291526794434
165 166 0.9594083428382874
165 167 0.9711360335350037
165 168 0.9604833126068115
165 169 0.9545558094978333
165 170 0.3268602192401886
165 171 0.9469581842422485
165 172 0.9647715091705322
165 173 0.9679425954818726
165 174 0.24555477499961853
165 175 0.9523571133613586
165 176 0.9716359972953796
165 177 0.9647715091705322
165 178 0.9631005525588989
165 179 0.8232812285423279
165 180 0.9577599763870239
165 181 0.3216501474380493
165 182 0.9599459767341614
165 183 0.9685081243515015
165 184 0.963010311126709
165 185 0.9523911476135254
165 186 0.9674755930900574
165 187 0.9695407152175903
165 188 0.9658405184745789
165 189 0.9636362195014954
165 190 0.9658405184745789
165 191 0.9626638889312744
165 192 0.9652105569839478
165 193 0.9674419164657593
165 194 0.9690742492675781
165 195 0.9631656408309937
165 196 0.9648053646087646
165 197 0.9397454261779785
165 198 0.12856486439704895
165 199 0.956142246723175
165 200 0.1818181723356247
165 201 0.2630872130393982
165 202 0.9684755206108093
165 203 0.3851766586303711
165 204 0.49256065487861633
165 205 0.8889566659927368
165 206 0.5334682464599609
165 207 0.9642704129219055
165 208 0.9646457433700562
165 210 0.26111647486686707
165 211 0.17604470252990723
165 212 0.9641715884208679
165 213 0.3262127935886383
165 214 0.4066266715526581
165 215 0.1161835715174675
165 216 0.9685081243515015
165 217 0.9647715091705322
165 218 0.9608640074729919
165 219 0.9700413346290588
165 220 0.9726674556732178
165 221 0.9642035365104675
165 222 0.9662793874740601
165 223 0.9631656408309937
165 224 0.8587684035301208
165 225 0.9653061628341675
165 226 0.9518492817878723
165 227 0.9545906782150269
165 228 0.24507677555084229
165 229 0.9445539116859436
165 230 0.3479527533054352
165 231 0.9656863808631897
165 232 0.9610546827316284
165 233 0.783147931098938
165 234 0.2571297287940979
165 235 0.9695091247558594
165 236 0.9566817879676819
165 237 0.9684755206108093
165 238 0.9658077955245972
165 239 0.9642035365104675
165 240 0.5475932955741882
165 241 0.9625033140182495
165 242 0.38976946473121643
165 243 0.9626297950744629
165 244 0.9663101434707642
165 245 0.9556024670600891
165 246 0.14373990893363953
165 247 0.9679110050201416
165 248 0.9539811611175537
165 249 0.14744195342063904
165 250 0.9594083428382874
165 251 0.21320073306560516
165 252 0.9614302515983582
165 253 0.9625967144966125
165 254 0.20851440727710724
165 255 0.5263956189155579
166 167 0.9626299738883972
166 168 0.9548798203468323
166 169 0.947767972946167
166 170 0.3445771038532257
166 171 0.9421225190162659
166 172 0.9582157731056213
166 173 0.9593581557273865
166 174 0.25547030568122864
166 175 0.9433860182762146
166 176 0.9641656279563904
166 177 0.957170844078064
166 178 0.9585748910903931
166 179 0.8289552927017212
166 180 0.9520833492279053
166 181 0.3305791914463043
166 182 0.9522311091423035
166 183 0.962036669254303
166 184 0.9521316289901733
166 185 0.9455537796020508
166 186 0.9599543213844299
166 187 0.9630778431892395
166 188 0.9582651853561401
166 189 0.9580734372138977
166 190 0.9582651853561401
166 191 0.9560753703117371
166 192 0.9554774165153503
166 193 0.9578197598457336
166 194 0.9615904092788696
166 195 0.9565736651420593
166 196 0.9593090415000916
166 197 0.9271961450576782
166 198 0.12964074313640594
166 199 0.9451560974121094
166 200 0.16615159809589386
166 201 0.2336125373840332
166 202 0.9609465003013611
166 203 0.38839995861053467
166 204 0.49468791484832764
166 205 0.8794185519218445
166 206 0.5323095321655273
166 207 0.9556293487548828
166 208 0.9538305401802063
166 210 0.24734395742416382
166 211 0.17160063982009888
166 212 0.9544297456741333
166 213 0.322616845369339
166 214 0.3873898386955261
166 215 0.1255241185426712
166 216 0.962036669254303
166 217 0.9561258554458618
166 218 0.9530903100967407
166 219 0.9604499936103821
166 220 0.9631255269050598
166 221 0.9544805288314819
166 222 0.9597133994102478
166 223 0.9586668610572815
166 224 0.8600958585739136
166 225 0.9556293487548828
166 226 0.9449995160102844
166 227 0.9467644691467285
166 228 0.21471747756004333
166 229 0.9299085736274719
166 230 0.3393608033657074
166 231 0.9538305401802063
166 232 0.9544297456741333
166 233 0.7768400311470032
166 234 0.23497384786605835
166 235 0.9630309343338013
166 236 0.9478187561035156
166 237 0.9588619470596313
166 238 0.9550809264183044
166 239 0.9544805288314819
166 240 0.5392486453056335
166 241 0.949527382850647
166 242 0.385170578956604
166 243 0.9528842568397522
166 244 0.9587142467498779
166 245 0.947767972946167
166 246 0.13044849038124084
166 247 0.9582651853561401
166 248 0.9482219815254211
166 249 0.155433788895607
166 250 0.9548319578170776
166 251 0.2052128165960312
166 252 0.9494757652282715
166 253 0.9538805484771729
166 254 0.20070210099220276
166 255 0.5192615389823914
167 168 0.9616204500198364
167 169 0.9557231664657593
167 170 0.32618698477745056
167 171 0.9492171406745911
167 172 0.9669209122657776
167 173 0.9690449237823486
167 174 0.2644973397254944
167 175 0.9535389542579651
167 176 0.9716933965682983
167 177 0.9669209122657776
167 178 0.9642305374145508
167 179 0.8251942992210388
167 180 0.9589141011238098
167 181 0.32098767161369324
167 182 0.9610857963562012
167 183 0.9716652035713196
167 184 0.9599854946136475
167 185 0.9556632041931152
167 186 0.9696044325828552
167 187 0.9696044325828552
167 188 0.9669504165649414
167 189 0.9626887440681458
167 190 0.9679834842681885
167 191 0.9658570885658264
167 192 0.9642593860626221
167 193 0.9695751667022705
167 194 0.9711934328079224
167 195 0.9653248190879822
167 196 0.9669504165649414
167 197 0.9441894292831421
167 198 0.12830005586147308
167 199 0.9573047161102295
167 200 0.18144367635250092
167 201 0.2547081410884857
167 202 0.9716380834579468
167 203 0.39443254470825195
167 204 0.5112869143486023
167 205 0.8938462734222412
167 206 0.5323694944381714
167 207 0.9664187431335449
167 208 0.9647358059883118
167 210 0.2566305100917816
167 211 0.16982601583003998
167 212 0.9632225036621094
167 213 0.3224107027053833
167 214 0.4082786440849304
167 215 0.09938079118728638
167 216 0.9706348180770874
167 217 0.9658867120742798
167 218 0.9599282741546631
167 219 0.9701051115989685
167 220 0.9716933965682983
167 221 0.9663605690002441
167 222 0.9653248190879822
167 223 0.9642890691757202
167 224 0.8639576435089111
167 225 0.9684858918190002
167 226 0.9614089131355286
167 227 0.9567981362342834
167 228 0.24858134984970093
167 229 0.9383575320243835
167 230 0.3443898558616638
167 231 0.9678512215614319
167 232 0.9642593860626221
167 233 0.7866262793540955
167 234 0.24858134984970093
167 235 0.9695751667022705
167 236 0.9630584716796875
167 237 0.9685437083244324
167 238 0.9658867120742798
167 239 0.9642890691757202
167 240 0.5501207709312439
167 241 0.9605208039283752
167 242 0.3941529095172882
167 243 0.9668647646903992
167 244 0.9674237966537476
167 245 0.9588567018508911
167 246 0.14344382286071777
167 247 0.9690165519714355
167 248 0.9562008380889893
167 249 0.15382637083530426
167 250 0.96366947889328
167 251 0.20792609453201294
167 252 0.9636169672012329
167 253 0.9626887440681458
167 254 0.20808492600917816
167 255 0.5253113508224487
168 169 0.9509912133216858
168 170 0.3442157208919525
168 171 0.946445643901825
168 172 0.9603423476219177
168 173 0.9604353904724121
168 174 0.23949763178825378
168 175 0.9487427473068237
168 176 0.9641934037208557
168 177 0.9572108387947083
168 178 0.9533788561820984
168 179 0.819586455821991
168 180 0.9500327110290527
168 181 0.31465548276901245
168 182 0.9564762711524963
168 183 0.9620677828788757
168 184 0.9542859792709351
168 185 0.943505585193634
168 186 0.9610276818275452
168 187 0.9631078243255615
168 188 0.9614312052726746
168 189 0.9612571001052856
168 190 0.9572601318359375
168 191 0.9571624994277954
168 192 0.9565684199333191
168 193 0.9609798192977905
168 194 0.9626588821411133
168 195 0.9545249342918396
168 196 0.9572601318359375
168 197 0.9315900206565857
168 198 0.09712858498096466
168 199 0.9536486268043518
168 200 0.1545306295156479
168 201 0.2412782907485962
168 202 0.9588975310325623
168 203 0.38545674085617065
168 204 0.4901838004589081
168 205 0.8898025155067444
168 206 0.526134192943573
168 207 0.9577570557594299
168 208 0.9549266695976257
168 209 0.05607721582055092
168 210 0.24708452820777893
168 211 0.17733171582221985
168 212 0.9576149582862854
168 213 0.32543811202049255
168 214 0.3794448971748352
168 215 0.12539246678352356
168 216 0.9610276818275452
168 217 0.9592984914779663
168 218 0.9552503824234009
168 219 0.9594427347183228
168 220 0.9621154069900513
168 221 0.9545249342918396
168 222 0.9576614499092102
168 223 0.9576614499092102
168 224 0.8533409833908081
168 225 0.9588003158569336
168 226 0.9440084099769592
168 227 0.9499843716621399
168 228 0.2347274124622345
168 229 0.9321512579917908
168 230 0.33900490403175354
168 231 0.9528301954269409
168 232 0.9544752836227417
168 233 0.7747405171394348
168 234 0.2347274124622345
168 235 0.9609798192977905
168 236 0.9489311575889587
168 237 0.9620209336280823
168 238 0.9572108387947083
168 239 0.9597523808479309
168 240 0.5368382334709167
168 241 0.9495818614959717
168 242 0.3664444088935852
168 243 0.9581611156463623
168 244 0.9556199312210083
168 245 0.9499368667602539
168 246 0.1375512033700943
168 247 0.958302915096283
168 248 0.9451155662536621
168 249 0.13501806557178497
168 250 0.950682520866394
168 251 0.21475939452648163
168 252 0.9505830407142639
168 253 0.954974353313446
168 254 0.21003882586956024
168 255 0.524480402469635
169 170 0.3311645984649658
169 171 0.9348552823066711
169 172 0.9543781876564026
169 173 0.9534479379653931
169 174 0.24483945965766907
169 175 0.9404303431510925
169 176 0.9551700949668884
169 177 0.9564780592918396
169 178 0.9515469074249268
169 179 0.8267953991889954
169 180 0.9555577039718628
169 181 0.3164854049682617
169 182 0.9483254551887512
169 183 0.9582476615905762
169 184 0.952436089515686
169 185 0.9415537118911743
169 186 0.9551092386245728
169 187 0.9551092386245728
169 188 0.9554853439331055
169 189 0.9510491490364075
169 190 0.9512900114059448
169 191 0.9511677026748657
169 192 0.9484468102455139
169 193 0.9560964107513428
169 194 0.9578121900558472
169 195 0.9516635537147522
169 196 0.9544364809989929
169 197 0.9316102266311646
169 198 0.1221168041229248
169 199 0.9432963728904724
169 200 0.1439160257577896
169 201 0.23870305716991425
169 202 0.9529548287391663
169 203 0.37749573588371277
169 204 0.5010513067245483
169 205 0.8813307285308838
169 206 0.5273106694221497
169 207 0.954931914806366
169 208 0.9478282332420349
169 209 0.05640333145856857
169 210 0.24050463736057281
169 211 0.1724175661802292
169 212 0.9484468102455139
169 213 0.3082628846168518
169 214 0.38923409581184387
169 215 0.1177135780453682
169 216 0.9582476615905762
169 217 0.9522783756256104
169 218 0.943856418132782
169 219 0.9535091519355774
169 220 0.9583052396774292
169 221 0.9516635537147522
169 222 0.9516635537147522
169 223 0.9516635537147522
169 224 0.8524168133735657
169 225 0.9528331756591797
169 226 0.9388656616210938
169 227 0.943856418132782
169 228 0.24016305804252625
169 229 0.9257042407989502
169 230 0.3496452867984772
169 231 0.9499368667602539
169 232 0.9484468102455139
169 233 0.7714923024177551
169 234 0.2523747384548187
169 235 0.9540020823478699
169 236 0.9427971243858337
169 237 0.9560964107513428
169 238 0.9533282518386841
169 239 0.9537667036056519
169 240 0.5436712503433228
169 241 0.9477085471153259
169 242 0.3843716084957123
169 243 0.94795161485672
169 244 0.9548746347427368
169 245 0.9427359700202942
169 246 0.13835114240646362
169 247 0.9554853439331055
169 248 0.9431770443916321
169 249 0.15617378056049347
169 250 0.9488233923912048
169 251 0.2110990434885025
169 252 0.9434194564819336
169 253 0.9489427208900452
169 254 0.18245209753513336
169 255 0.5082070827484131
170 171 0.33061739802360535
170 172 0.3427814841270447
170 173 0.3420710861682892
170 174 0.19059062004089355
170 175 0.3020210862159729
170 176 0.3411892056465149
170 177 0.3278779685497284
170 178 0.34403544664382935
170 179 0.28083890676498413
170 180 0.32746022939682007
170 182 0.33541202545166016
170 183 0.32669153809547424
170 184 0.3241139352321625
170 185 0.32885223627090454
170 186 0.3445110619068146
170 187 0.3356013000011444
170 188 0.34242570400238037
170 189 0.32890525460243225
170 190 0.3275376558303833
170 191 0.32225167751312256
170 192 0.3376988172531128
170 193 0.3389211595058441
170 194 0.3380483388900757
170 195 0.33436113595962524
170 196 0.33647048473358154
170 197 0.3248569965362549
170 199 0.34001612663269043
170 201 0.07906198501586914
170 202 0.3329751491546631
170 203 0.20999611914157867
170 204 0.21621644496917725
170 205 0.3163925111293793
170 206 0.12831655144691467
170 207 0.33068686723709106
170 208 0.3292498290538788
170 210 0.11379813402891159
170 211 0.05063696578145027
170 212 0.31976792216300964
170 213 0.05413319170475006
170 214 0.15786132216453552
170 215 0.07161148637533188
170 216 0.3385712206363678
170 217 0.31595513224601746
170 218 0.3398361802101135
170 219 0.33577460050582886
170 220 0.3293217718601227
170 221 0.3463025987148285
170 222 0.322419673204422
170 223 0.33137577772140503
170 224 0.28745824098587036
170 225 0.342603474855423
170 226 0.2988414764404297
170 227 0.309762179851532
170 228 0.09245003759860992
170 229 0.3308046758174896
170 230 0.07383252680301666
170 231 0.3442157208919525
170 232 0.33172187209129333
170 233 0.3008389174938202
170 235 0.3359481692314148
170 236 0.3338213860988617
170 237 0.33000218868255615
170 238 0.3368200659751892
170 239 0.3433172404766083
170 240 0.179106205701828
170 241 0.3299422860145569
170 242 0.0747414231300354
170 243 0.3255748152732849
170 244 0.33699530363082886
170 245 0.3281539976596832
170 247 0.33944812417030334
170 248 0.33772340416908264
170 249 0.07710865139961243
170 250 0.3415808081626892
170 251 0.08362419903278351
170 252 0.2942584753036499
170 253 0.32890525460243225
170 254 0.0954170972108841
170 255 0.13714750111103058
171 172 0.9488488435745239
171 173 0.9447711706161499
171 174 0.24667741358280182
171 175 0.9303408265113831
171 176 0.9497057795524597
171 177 0.9435598254203796
171 178 0.9427649974822998
171 179 0.818236768245697
171 180 0.9350110292434692
171 181 0.3188611567020416
171 182 0.941628098487854
171 183 0.948577344417572
171 184 0.9393503665924072
171 185 0.9357735514640808
171 186 0.9496313333511353
171 187 0.9517393112182617
171 188 0.9510341882705688
171 189 0.9422718286514282
171 190 0.9457507133483887
171 191 0.9445422291755676
171 192 0.946021556854248
171 193 0.9453375339508057
171 194 0.9502694606781006
171 195 0.9450345635414124
171 196 0.9478640556335449
171 197 0.9168515801429749
171 198 0.09842680394649506
171 199 0.9343599081039429
171 200 0.18559536337852478
171 201 0.23648673295974731
171 202 0.9495577812194824
171 203 0.4034577012062073
171 204 0.4785623550415039
171 205 0.873052179813385
171 206 0.5217821598052979
171 207 0.9462416172027588
171 208 0.9432590007781982
171 209 0.056826744228601456
171 210 0.230194553732872
171 211 0.1617317497730255
171 212 0.9428399205207825
171 213 0.3105769455432892
171 214 0.39979538321495056
171 215 0.1016547679901123
171 216 0.9496313333511353
171 217 0.9425020217895508
171 218 0.9349327087402344
171 219 0.9480127096176147
171 220 0.9518115520477295
171 221 0.9439750909805298
171 222 0.9418562054634094
171 223 0.9460940361022949
171 224 0.8481398224830627
171 225 0.9451843500137329
171 226 0.9309160113334656
171 227 0.9381345510482788
171 228 0.22146031260490417
171 229 0.9152612090110779
171 230 0.3318907618522644
171 231 0.9390100240707397
171 232 0.943900465965271
171 233 0.759056031703949
171 234 0.2337636798620224
171 235 0.948502779006958
171 236 0.9359999895095825
171 237 0.9495577812194824
171 238 0.9467332363128662
171 239 0.9418562054634094
171 240 0.5421441793441772
171 241 0.9441781640052795
171 242 0.3713423013687134
171 243 0.9402275681495667
171 244 0.9451090693473816
171 245 0.9391288757324219
171 246 0.1320534199476242
171 247 0.9457507133483887
171 248 0.933135449886322
171 249 0.12314044684171677
171 250 0.9399958252906799
171 251 0.21762986481189728
171 252 0.936648964881897
171 253 0.9443939924240112
171 254 0.20317137241363525
171 255 0.5217563509941101
172 173 0.9636949896812439
172 174 0.26586851477622986
172 175 0.9468961954116821
172 176 0.9653492569923401
172 177 0.9604989290237427
172 178 0.9598394632339478
172 179 0.8343086838722229
172 180 0.9544559121131897
172 181 0.30093473196029663
172 182 0.9556241035461426
172 183 0.9642735719680786
172 184 0.9576359391212463
172 185 0.9500958323478699
172 186 0.9663450121879578
172 187 0.9663450121879578
172 188 0.9636557698249817
172 189 0.9593372941017151
172 190 0.9626173377037048
172 191 0.9614989161491394
172 192 0.9619625806808472
172 193 0.9663069844245911
172 194 0.9669209122657776
172 195 0.9620001316070557
172 196 0.9646941423416138
172 197 0.9362587332725525
172 198 0.12896516919136047
172 199 0.95702064037323
172 200 0.17098528146743774
172 201 0.2284562587738037
172 202 0.9642333984375
172 203 0.4065786302089691
172 204 0.49806296825408936
172 205 0.8905985355377197
172 206 0.5332647562026978
172 207 0.9631170034408569
172 208 0.9592984914779663
172 209 0.05584355816245079
172 210 0.25002363324165344
172 211 0.17659282684326172
172 212 0.9588359594345093
172 213 0.32722851634025574
172 214 0.4003855586051941
172 215 0.1082206591963768
172 216 0.9653093218803406
172 217 0.9615384936332703
172 218 0.9512701034545898
172 219 0.9647715091705322
172 220 0.9663839340209961
172 221 0.9599179029464722
172 222 0.9599179029464722
172 223 0.9599179029464722
172 224 0.8497853875160217
172 225 0.9631170034408569
172 226 0.9495494961738586
172 227 0.9533677101135254
172 228 0.2337493747472763
172 229 0.9357447028160095
172 230 0.3433142900466919
172 231 0.9582546949386597
172 232 0.9598782062530518
172 233 0.7766302227973938
172 234 0.24987003207206726
172 235 0.9652701616287231
172 236 0.9523189067840576
172 237 0.9642333984375
172 238 0.9625779390335083
172 239 0.9620001316070557
172 240 0.5419498682022095
172 241 0.9571317434310913
172 242 0.3961962163448334
172 243 0.9604187607765198
172 244 0.9620386362075806
172 245 0.9512283802032471
172 246 0.13697807490825653
172 247 0.9615789651870728
172 248 0.9516935348510742
172 249 0.12773270905017853
172 250 0.957170844078064
172 251 0.2090039849281311
172 252 0.9560465812683105
172 253 0.9572518467903137
172 254 0.1949024796485901
172 255 0.5222950577735901
173 174 0.2614157497882843
173 175 0.9512402415275574
173 176 0.9685112237930298
173 177 0.9647324085235596
173 178 0.9620147347450256
173 179 0.8277530074119568
173 180 0.9545688033103943
173 181 0.31888699531555176
173 182 0.9588547348976135
173 183 0.96744304895401
173 184 0.9577401280403137
173 185 0.9544265866279602
173 186 0.9695102572441101
173 187 0.9684766530990601
173 188 0.9668399095535278
173 189 0.9604708552360535
173 190 0.9647673964500427
173 191 0.963659942150116
173 192 0.9599689245223999
173 193 0.96637362241745
173 194 0.9711089134216309
173 195 0.9620842933654785
173 196 0.9637311697006226
173 197 0.9396511912345886
173 198 0.12869788706302643
173 199 0.9550371766090393
173 200 0.17631860077381134
173 201 0.24763645231723785
173 202 0.96637362241745
173 203 0.3981756865978241
173 204 0.5089118480682373
173 205 0.8876292705535889
173 206 0.5265775322914124
173 207 0.9642313718795776
173 208 0.9593937397003174
173 209 0.05572781711816788
173 210 0.2613866329193115
173 211 0.17035260796546936
173 212 0.963089108467102
173 213 0.2951512634754181
173 214 0.404550164937973
173 215 0.11630378663539886
173 216 0.9664095044136047
173 217 0.9626576900482178
173 218 0.9555783867835999
173 219 0.9679425954818726
173 220 0.9705763459205627
173 221 0.965201199054718
173 222 0.9620842933654785
173 223 0.9631232619285583
173 224 0.8573303818702698
173 225 0.9642313718795776
173 226 0.9517835974693298
173 227 0.9555783867835999
173 228 0.25739577412605286
173 229 0.9359372854232788
173 230 0.3454577922821045
173 231 0.9604353904724121
173 232 0.9610089659690857
173 233 0.7967263460159302
173 234 0.2533739507198334
173 235 0.967408299446106
173 236 0.9597649574279785
173 237 0.968442976474762
173 238 0.9626576900482178
173 239 0.9620842933654785
173 240 0.5243268609046936
173 241 0.9572359323501587
173 242 0.37456589937210083
173 243 0.9636257886886597
173 244 0.963158369064331
173 245 0.9524002075195312
173 246 0.14388862252235413
173 247 0.9647673964500427
173 248 0.9549681544303894
173 249 0.15430335700511932
173 250 0.9614437818527222
173 251 0.19886983931064606
173 252 0.9551101922988892
173 253 0.9646332263946533
173 254 0.19924242794513702
173 255 0.5231218338012695
174 175 0.2575070261955261
174 176 0.2529585361480713
174 177 0.25022920966148376
174 178 0.25506874918937683
174 179 0.24103860557079315
174 180 0.2443218231201172
174 182 0.22783848643302917
174 183 0.2532194256782532
174 184 0.23619118332862854
174 185 0.2453603893518448
174 186 0.2610107958316803
174 187 0.2415323704481125
174 188 0.2499694973230362
174 189 0.24316903948783875
174 190 0.2499694973230362
174 191 0.25440365076065063
174 192 0.25088202953338623
174 193 0.2534811496734619
174 194 0.26060768961906433
174 195 0.2662840485572815
174 196 0.2538752853870392
174 197 0.2612992823123932
174 198 0.0909508615732193
174 199 0.25655055046081543
174 201 0.08889132738113403
174 202 0.2612805664539337
174 203 0.20896543562412262
174 204 0.18658795952796936
174 205 0.23715190589427948
174 206 0.0771440863609314
174 207 0.2540070414543152
174 208 0.263054758310318
174 210 0.05970814824104309
174 212 0.2430419772863388
174 213 0.09467621147632599
174 214 0.2541296184062958
174 216 0.24542805552482605
174 217 0.23458987474441528
174 218 0.22485601902008057
174 219 0.2572478652000427
174 220 0.2335001677274704
174 221 0.2349565178155899
174 222 0.2506202757358551
174 223 0.2427884042263031
174 224 0.15345564484596252
174 225 0.2540070414543152
174 226 0.2375720739364624
174 227 0.24063538014888763
174 228 0.060633908957242966
174 229 0.23303133249282837
174 230 0.11836856603622437
174 231 0.23949763178825378
174 232 0.24696199595928192
174 233 0.23099355399608612
174 234 0.10610933601856232
174 235 0.24958142638206482
174 236 0.25246989727020264
174 237 0.24568171799182892
174 238 0.23068004846572876
174 239 0.2584521472454071
174 240 0.14510737359523773
174 241 0.2518046200275421
174 243 0.23899708688259125
174 244 0.2542712390422821
174 245 0.2566865384578705
174 247 0.2577810287475586
174 248 0.2452298253774643
174 249 0.07585825771093369
174 250 0.26333093643188477
174 251 0.09140904992818832
174 252 0.23631571233272552
174 253 0.2470911145210266
174 254 0.053639885038137436
174 255 0.13672249019145966
175 176 0.9519330859184265
175 177 0.9574289321899414
175 178 0.9461315870285034
175 179 0.8184117674827576
175 180 0.9479964375495911
175 181 0.32692763209342957
175 182 0.9450074434280396
175 183 0.9539644718170166
175 184 0.9469969272613525
175 185 0.9381667971611023
175 186 0.9529150128364563
175 187 0.9539644718170166
175 188 0.9522265195846558
175 189 0.9519761204719543
175 190 0.9543309211730957
175 191 0.9478819966316223
175 192 0.9504225850105286
175 193 0.9517987966537476
175 194 0.9587782025337219
175 195 0.9473211765289307
175 196 0.9511743187904358
175 197 0.9205098152160645
175 198 0.1306743025779724
175 199 0.9388687610626221
175 200 0.1559261530637741
175 201 0.2514393925666809
175 202 0.9528493881225586
175 203 0.4017316699028015
175 204 0.48053625226020813
175 205 0.8761621713638306
175 206 0.5327748656272888
175 207 0.9495626091957092
175 208 0.9434543251991272
175 209 0.05658363178372383
175 210 0.24931588768959045
175 211 0.1670042723417282
175 212 0.947254478931427
175 213 0.30287203192710876
175 214 0.4056917428970337
175 215 0.10965486615896225
175 216 0.951865553855896
175 217 0.9553223848342896
175 218 0.9415600895881653
175 219 0.9513070583343506
175 220 0.9529814720153809
175 221 0.9473211765289307
175 222 0.9462661743164062
175 223 0.9473211765289307
175 224 0.8445114493370056
175 225 0.9527207612991333
175 226 0.9472001791000366
175 227 0.9447482228279114
175 228 0.25318145751953125
175 229 0.9254162311553955
175 230 0.3507629632949829
175 231 0.9445120692253113
175 232 0.9461984634399414
175 233 0.7700692415237427
175 234 0.25318145751953125
175 235 0.9507482647895813
175 236 0.9415600895881653
175 237 0.9517987966537476
175 238 0.9500560164451599
175 239 0.9452112913131714
175 240 0.5119028091430664
175 241 0.9422587752342224
175 242 0.3644714951515198
175 243 0.950981855392456
175 244 0.9505501985549927
175 245 0.9404303431510925
175 246 0.13879340887069702
175 247 0.9501221776008606
175 248 0.9397987127304077
175 249 0.14986112713813782
175 250 0.9433860182762146
175 251 0.2019238919019699
175 252 0.9453741312026978
175 253 0.9466932415962219
175 254 0.20230218768119812
175 255 0.5292168855667114
176 177 0.9663839340209961
176 178 0.9636884927749634
176 179 0.830433189868927
176 180 0.9573220610618591
176 181 0.29644879698753357
176 182 0.9626200795173645
176 183 0.969072699546814
176 184 0.9615214467048645
176 185 0.9540606141090393
176 186 0.9701035618782043
176 187 0.969072699546814
176 188 0.9684817790985107
176 189 0.9631842970848083
176 190 0.9664146304130554
176 191 0.9642828702926636
176 192 0.9678677916526794
176 193 0.9690423011779785
176 194 0.9716933965682983
176 195 0.9647854566574097
176 196 0.9664146304130554
176 197 0.9436116814613342
176 198 0.12034322321414948
176 199 0.9567530751228333
176 200 0.18153709173202515
176 201 0.2548392713069916
176 202 0.9690423011779785
176 203 0.3946355879306793
176 204 0.5016746520996094
176 205 0.8943063616752625
176 206 0.5437789559364319
176 207 0.9669162631034851
176 208 0.9652323722839355
176 210 0.2528124153614044
176 211 0.1757725328207016
176 212 0.9637182950973511
176 213 0.319444864988327
176 214 0.39354410767555237
176 215 0.12428995221853256
176 216 0.9701035618782043
176 217 0.9674186110496521
176 218 0.9604223966598511
176 219 0.9706045985221863
176 220 0.9701338410377502
176 221 0.9658217430114746
176 222 0.9678942561149597
176 223 0.9637491703033447
176 224 0.8609215617179871
176 225 0.9669162631034851
176 226 0.9545691013336182
176 227 0.9593784809112549
176 228 0.24469789862632751
176 229 0.9388406276702881
176 230 0.35880547761917114
176 231 0.9631544351577759
176 232 0.9637182950973511
176 233 0.7806637287139893
176 234 0.24068644642829895
176 235 0.9731702208518982
176 236 0.9593784809112549
176 237 0.9690423011779785
176 238 0.9674186110496521
176 239 0.9637491703033447
176 240 0.550403892993927
176 241 0.9599740505218506
176 242 0.383978009223938
176 243 0.9663257002830505
176 244 0.9648162722587585
176 245 0.9583052396774292
176 246 0.13634178042411804
176 247 0.9664146304130554
176 248 0.9556463956832886
176 249 0.15390555560588837
176 250 0.9600052237510681
176 251 0.20319513976573944
176 252 0.9578592777252197
176 253 0.9642221927642822
176 254 0.21292369067668915
176 255 0.5312946438789368
177 178 0.9650560021400452
177 179 0.8294721245765686
177 180 0.9617897868156433
177 181 0.3226516544818878
177 182 0.9598016738891602
177 183 0.9653093218803406
177 184 0.9534496068954468
177 185 0.9543044567108154
177 186 0.9663450121879578
177 187 0.9673807621002197
177 188 0.9615789651870728
177 189 0.961422860622406
177 190 0.9667710661888123
177 191 0.962539553642273
177 192 0.9598782062530518
177 193 0.9663069844245911
177 194 0.9669209122657776
177 195 0.9630413055419922
177 196 0.9636557698249817
177 197 0.935189962387085
177 198 0.12896516919136047
177 199 0.9549218416213989
177 200 0.16528576612472534
177 201 0.25208964943885803
177 202 0.967343807220459
177 203 0.39142659306526184
177 204 0.5139374732971191
177 205 0.8872208595275879
177 206 0.5369939208030701
177 207 0.9620780944824219
177 208 0.9561669826507568
177 210 0.2619295120239258
177 211 0.14716069400310516
177 212 0.9609203934669495
177 213 0.317789226770401
177 214 0.39037591218948364
177 215 0.12486998736858368
177 216 0.9642735719680786
177 217 0.965696394443512
177 218 0.9544165134429932
177 219 0.9647715091705322
177 220 0.9653492569923401
177 221 0.9588767886161804
177 222 0.9620001316070557
177 223 0.9588767886161804
177 224 0.8579452633857727
177 225 0.9620780944824219
177 226 0.9506021738052368
177 227 0.9554653167724609
177 228 0.2539001703262329
177 229 0.9378811120986938
177 230 0.3461752235889435
177 231 0.9561669826507568
177 232 0.9588359594345093
177 233 0.7830274701118469
177 234 0.2539001703262329
177 235 0.9642333984375
177 236 0.9523189067840576
177 237 0.9652701616287231
177 238 0.9646569490432739
177 239 0.9588767886161804
177 240 0.5254157781600952
177 241 0.9550396800041199
177 242 0.37534379959106445
177 243 0.9583353996276855
177 244 0.9641186594963074
177 245 0.9533282518386841
177 246 0.13697807490825653
177 247 0.9646941423416138
177 248 0.9537967443466187
177 249 0.1479010283946991
177 250 0.9582157731056213
177 251 0.19928286969661713
177 252 0.9570937156677246
177 253 0.9593372941017151
177 254 0.20916365087032318
177 255 0.5203819274902344
178 179 0.8264387249946594
178 180 0.9547929167747498
178 181 0.33005955815315247
178 182 0.9549272060394287
178 183 0.9615639448165894
178 184 0.9506349563598633
178 185 0.954627513885498
178 186 0.9615639448165894
178 187 0.9646825194358826
178 188 0.963012158870697
178 189 0.9576139450073242
178 190 0.9619699716567993
178 191 0.9566612839698792
178 192 0.95711350440979
178 193 0.9615171551704407
178 194 0.962154746055603
178 195 0.9561149477958679
178 196 0.9619699716567993
178 197 0.9300294518470764
178 198 0.12943695485591888
178 199 0.9478831887245178
178 200 0.18305151164531708
178 201 0.2371986210346222
178 202 0.9615171551704407
178 203 0.3827202618122101
178 204 0.5217922925949097
178 205 0.883686363697052
178 206 0.5352155566215515
178 207 0.9582982063293457
178 208 0.9554742574691772
178 209 0.056047845631837845
178 210 0.24695512652397156
178 211 0.1654229313135147
178 212 0.9560675024986267
178 213 0.3189517855644226
178 214 0.3968271315097809
178 215 0.11697167903184891
178 216 0.9626034498214722
178 217 0.9598394632339478
178 218 0.9484341740608215
178 219 0.9620605111122131
178 220 0.9636884927749634
178 221 0.9571599364280701
178 222 0.9582048654556274
178 223 0.9561149477958679
178 224 0.8552339673042297
178 225 0.9614264965057373
178 226 0.9519665241241455
178 227 0.9494868516921997
178 228 0.24269428849220276
178 229 0.9370236396789551
178 230 0.3330845236778259
178 231 0.9554742574691772
178 232 0.9550215005874634
178 233 0.7897444367408752
178 234 0.25887390971183777
178 235 0.9615171551704407
178 236 0.9505395293235779
178 237 0.9635984301567078
178 238 0.9577528834342957
178 239 0.9561149477958679
178 240 0.529181718826294
178 241 0.9522342681884766
178 242 0.37671688199043274
178 243 0.9555683732032776
178 244 0.9624264240264893
178 245 0.9494393467903137
178 246 0.14471492171287537
178 247 0.9619699716567993
178 248 0.9572859406471252
178 249 0.1484420895576477
178 250 0.9564773440361023
178 251 0.18049854040145874
178 252 0.9511362314224243
178 253 0.9534277319908142
178 254 0.18607327342033386
178 255 0.5107645392417908
179 180 0.8238287568092346
179 181 0.29952386021614075
179 182 0.8260905146598816
179 183 0.826470673084259
179 184 0.8205252885818481
179 185 0.819987416267395
179 186 0.8324944972991943
179 187 0.8324944972991943
179 188 0.8310269713401794
179 189 0.8272192478179932
179 190 0.8261953592300415
179 191 0.8267044425010681
179 192 0.8219377994537354
179 193 0.8297368884086609
179 194 0.8420349955558777
179 195 0.8271353840827942
179 196 0.8274033069610596
179 197 0.8006272912025452
179 198 0.0843815952539444
179 199 0.8129305243492126
179 200 0.15911144018173218
179 201 0.19243191182613373
179 202 0.8357669115066528
179 203 0.3466198444366455
179 204 0.4339314103126526
179 205 0.7700795531272888
179 206 0.45762741565704346
179 207 0.8266242742538452
179 208 0.8317285180091858
179 209 0.06495697796344757
179 210 0.20311683416366577
179 211 0.1437884122133255
179 212 0.819513201713562
179 213 0.26351362466812134
179 214 0.4046001136302948
179 215 0.08714893460273743
179 216 0.8288801908493042
179 217 0.8306812047958374
179 218 0.818600058555603
179 219 0.8220758438110352
179 220 0.8328402042388916
179 221 0.823502242565155
179 222 0.8259243369102478
179 223 0.8222912549972534
179 224 0.7620278000831604
179 225 0.8242073059082031
179 226 0.810628354549408
179 227 0.818600058555603
179 228 0.1734510362148285
179 229 0.8014302849769592
179 230 0.292850524187088
179 231 0.8232290744781494
179 232 0.826786994934082
179 233 0.6399510502815247
179 234 0.22970543801784515
179 235 0.8285308480262756
179 236 0.8149402141571045
179 237 0.8309428691864014
179 238 0.831890344619751
179 239 0.8307685256004333
179 240 0.48721951246261597
179 241 0.8225268721580505
179 242 0.2880335748195648
179 243 0.8251436948776245
179 244 0.8347426652908325
179 245 0.8267953991889954
179 246 0.10063091665506363
179 247 0.8274033069610596
179 248 0.8293368816375732
179 249 0.10165870934724808
179 250 0.8216624855995178
179 251 0.10742180794477463
179 252 0.8124316930770874
179 253 0.8175157904624939
179 254 0.18800318241119385
179 255 0.4027954936027527
180 181 0.3126893937587738
180 182 0.9547415971755981
180 183 0.9614412784576416
180 184 0.9514773488044739
180 185 0.944865345954895
180 186 0.9572656154632568
180 187 0.9614412784576416
180 188 0.956605076789856
180 189 0.9574463963508606
180 190 0.956605076789856
180 191 0.955449640750885
180 192 0.9495929479598999
180 193 0.9593000411987305
180 194 0.9609987139701843
180 195 0.9527995586395264
180 196 0.9555584788322449
180 197 0.9274862408638
180 198 0.12998253107070923
180 199 0.94659024477005
180 200 0.16084517538547516
180 201 0.25804826617240906
180 202 0.9582550525665283
180 203 0.3919692039489746
180 204 0.49599209427833557
180 205 0.8794674277305603
180 206 0.5224373936653137
180 207 0.9539601802825928
180 208 0.953188955783844
180 209 0.056284088641405106
180 210 0.24399611353874207
180 211 0.16018731892108917
180 212 0.954845130443573
180 213 0.2885836958885193
180 214 0.37580040097236633
180 215 0.11746471375226974
180 216 0.9593534469604492
180 217 0.9586466550827026
180 218 0.9450322389602661
180 219 0.9567155241966248
180 220 0.9594076871871948
180 221 0.9538488984107971
180 222 0.9538488984107971
180 223 0.9580462574958801
180 224 0.8635383248329163
180 225 0.9529129862785339
180 226 0.9421858787536621
180 227 0.948203444480896
180 228 0.23965531587600708
180 229 0.9291302561759949
180 230 0.3460225462913513
180 231 0.953188955783844
180 232 0.954845130443573
180 233 0.7892045378684998
180 234 0.25996506214141846
180 235 0.9561650156974792
180 236 0.948203444480896
180 237 0.9593000411987305
180 238 0.9555035829544067
180 239 0.9580462574958801
180 240 0.5258573889732361
180 241 0.9499220848083496
180 242 0.3651691973209381
180 243 0.9522468447685242
180 244 0.9560006260871887
180 245 0.9492084383964539
180 246 0.14532488584518433
180 247 0.9534652829170227
180 248 0.9486021995544434
180 249 0.1287403553724289
180 250 0.9478706121444702
180 251 0.18615823984146118
180 252 0.9456465244293213
180 253 0.9521914124488831
180 254 0.19164879620075226
180 255 0.5109891891479492
181 182 0.33040571212768555
181 183 0.3276665508747101
181 184 0.30611252784729004
181 185 0.31087836623191833
181 186 0.3183929920196533
181 187 0.3338489234447479
181 188 0.3285152018070221
181 189 0.3267747163772583
181 190 0.31921759247779846
181 191 0.30745935440063477
181 192 0.317272424697876
181 193 0.31872206926345825
181 194 0.31481483578681946
181 195 0.33247774839401245
181 196 0.31611838936805725
181 197 0.3030337989330292
181 199 0.31631770730018616
181 201 0.1880921721458435
181 202 0.32491084933280945
181 204 0.20727847516536713
181 205 0.2251417189836502
181 206 0.1502506136894226
181 207 0.3162824809551239
181 208 0.31154006719589233
181 209 0.1111111119389534
181 212 0.32349345088005066
181 213 0.150249645113945
181 214 0.2688664495944977
181 216 0.3276665508747101
181 217 0.33195894956588745
181 218 0.32867109775543213
181 219 0.3309285342693329
181 220 0.3273289203643799
181 221 0.31694141030311584
181 222 0.3107268512248993
181 223 0.3262631893157959
181 224 0.2922379970550537
181 225 0.32558491826057434
181 226 0.3361789286136627
181 227 0.33493152260780334
181 228 0.09622504562139511
181 229 0.3315601050853729
181 230 0.059770144522190094
181 231 0.31465548276901245
181 232 0.3203829526901245
181 233 0.29021164774894714
181 235 0.33109962940216064
181 236 0.3192805051803589
181 237 0.33109962940216064
181 238 0.3040371537208557
181 239 0.33558499813079834
181 240 0.13707326352596283
181 241 0.32156115770339966
181 242 0.10113133490085602
181 243 0.30778011679649353
181 244 0.32902756333351135
181 245 0.3070848286151886
181 247 0.33471357822418213
181 248 0.33582109212875366
181 250 0.3243418335914612
181 252 0.3375263512134552
181 253 0.30187758803367615
181 254 0.17025130987167358
181 255 0.15987735986709595
182 183 0.9646536111831665
182 184 0.9484773874282837
182 185 0.950343132019043
182 186 0.9615316987037659
182 187 0.963612973690033
182 188 0.956718921661377
182 189 0.9575705528259277
182 190 0.9577622413635254
182 191 0.9555734992027283
182 192 0.9528816342353821
182 193 0.9594005346298218
182 194 0.962124764919281
182 195 0.9592097401618958
182 196 0.9619354605674744
182 197 0.9320786595344543
182 198 0.11337611824274063
182 199 0.9509859085083008
182 200 0.18324348330497742
182 201 0.257234662771225
182 202 0.9594005346298218
182 203 0.36282381415367126
182 204 0.5043966174125671
182 205 0.8846131563186646
182 206 0.5301569104194641
182 207 0.9572155475616455
182 208 0.9512324333190918
182 209 0.056106630712747574
182 210 0.24721412360668182
182 211 0.13602563738822937
182 212 0.9560230374336243
182 213 0.3192863166332245
182 214 0.3670729398727417
182 215 0.10873046517372131
182 216 0.9625723958015442
182 217 0.9587572813034058
182 218 0.9515363574028015
182 219 0.9599459767341614
182 220 0.9605409502983093
182 221 0.9581636786460876
182 222 0.9581636786460876
182 223 0.9550256133079529
182 224 0.8631580471992493
182 225 0.9572155475616455
182 226 0.9476765394210815
182 227 0.9504826068878174
182 228 0.24699798226356506
182 229 0.9369331002235413
182 230 0.3334338366985321
182 231 0.9543787240982056
182 232 0.9581172466278076
182 233 0.7777178287506104
182 234 0.2510471045970917
182 235 0.9594005346298218
182 236 0.953643798828125
182 237 0.961483895778656
182 238 0.9577129483222961
182 239 0.9571176171302795
182 240 0.5260451436042786
182 241 0.9511309862136841
182 242 0.37973082065582275
182 243 0.9565705060958862
182 244 0.9582111239433289
182 245 0.951490044593811
182 246 0.12313669174909592
182 247 0.956718921661377
182 248 0.9508939981460571
182 249 0.14184333384037018
182 250 0.9532809853553772
182 251 0.17580439150333405
182 252 0.9531857967376709
182 253 0.9523321986198425
182 254 0.21014899015426636
182 255 0.4882340729236603
183 184 0.9583419561386108
183 185 0.9529479146003723
183 186 0.9690402746200562
183 187 0.9711042642593384
183 188 0.9663767218589783
183 189 0.9652168154716492
183 190 0.9663767218589783
183 191 0.9683879017829895
183 192 0.9626355171203613
183 193 0.9669426679611206
183 194 0.9706348180770874
183 195 0.9678552746772766
183 196 0.9663767218589783
183 197 0.9392603635787964
183 198 0.1124361976981163
183 199 0.9608765840530396
183 200 0.170366570353508
183 201 0.26295140385627747
183 202 0.9669426679611206
183 203 0.3774292767047882
183 204 0.5120777487754822
183 205 0.8873759508132935
183 206 0.5257617235183716
183 207 0.9648079872131348
183 208 0.9641479253768921
183 209 0.05564148724079132
183 210 0.25307315587997437
183 211 0.17008869349956512
183 212 0.9636739492416382
183 213 0.3040991425514221
183 214 0.3964433968067169
183 215 0.10782905668020248
183 216 0.9700722694396973
183 217 0.9673807621002197
183 218 0.9551430344581604
183 219 0.9685081243515015
183 220 0.9711344838142395
183 221 0.963705837726593
183 222 0.9657806158065796
183 223 0.9678552746772766
183 224 0.8583251237869263
183 225 0.9648079872131348
183 226 0.9555537104606628
183 227 0.9593231081962585
183 228 0.24093471467494965
183 229 0.9387447237968445
183 230 0.3506237864494324
183 231 0.9610276818275452
183 232 0.9626355171203613
183 233 0.7789192795753479
183 234 0.2529814541339874
183 235 0.9679757356643677
183 236 0.9582780599594116
183 237 0.9669426679611206
183 238 0.9642735719680786
183 239 0.9668179750442505
183 240 0.5436497926712036
183 241 0.9588796496391296
183 242 0.3765827417373657
183 243 0.9631708264350891
183 244 0.9668476581573486
183 245 0.9572014808654785
183 246 0.14366571605205536
183 247 0.9663767218589783
183 248 0.9555843472480774
183 249 0.12727050483226776
183 250 0.9599543213844299
183 251 0.2130906879901886
183 252 0.959890604019165
183 253 0.9620998501777649
183 254 0.21314330399036407
183 255 0.5223114490509033
184 185 0.9428098201751709
184 186 0.9583419561386108
184 187 0.9593847990036011
184 188 0.9566420316696167
184 189 0.9553869962692261
184 190 0.9545510411262512
184 191 0.9533945918083191
184 192 0.9580357670783997
184 193 0.9582886099815369
184 194 0.9589443206787109
184 195 0.9517950415611267
184 196 0.9555965065956116
184 197 0.9308127164840698
184 198 0.11361480504274368
184 199 0.950874924659729
184 200 0.1778908371925354
184 201 0.2419130802154541
184 202 0.9582886099815369
184 203 0.40172621607780457
184 204 0.4774883985519409
184 205 0.8910098075866699
184 206 0.5406594276428223
184 207 0.9571385383605957
184 208 0.9521840214729309
184 209 0.056224748492240906
184 210 0.24773457646369934
184 211 0.17779827117919922
184 212 0.9538384675979614
184 213 0.3199584484100342
184 214 0.3955601155757904
184 215 0.12572236359119415
184 216 0.9593847990036011
184 217 0.9544962048530579
184 218 0.9461477994918823
184 219 0.9588368535041809
184 220 0.9636049270629883
184 221 0.9528432488441467
184 222 0.9559879899024963
184 223 0.9549397826194763
184 224 0.8567596673965454
184 225 0.9581846594810486
184 226 0.9422523975372314
184 227 0.9482597708702087
184 228 0.2434602975845337
184 229 0.9389055967330933
184 230 0.3427772521972656
184 231 0.9574389457702637
184 232 0.9527891278266907
184 233 0.7703378200531006
184 234 0.25563332438468933
184 235 0.9572447538375854
184 236 0.9461477994918823
184 237 0.9572447538375854
184 238 0.9576359391212463
184 239 0.9528432488441467
184 240 0.5345512628555298
184 241 0.9531333446502686
184 242 0.38577890396118164
184 243 0.9543891549110413
184 244 0.9539455771446228
184 245 0.9439794421195984
184 246 0.14517168700695038
184 247 0.9566420316696167
184 248 0.9433669447898865
184 249 0.14891061186790466
184 250 0.9521316289901733
184 251 0.20553691685199738
184 252 0.9467582106590271
184 253 0.9511874914169312
184 254 0.1866605579853058
184 255 0.531639039516449
185 186 0.9592379927635193
185 187 0.9581896662712097
185 188 0.9543650150299072
185 189 0.9477954506874084
185 190 0.9533140063285828
185 191 0.9500318169593811
185 192 0.9504647254943848
185 193 0.9507846236228943
185 194 0.9588034152984619
185 195 0.9494731426239014
185 196 0.9501607418060303
185 197 0.9271016120910645
185 198 0.12237662076950073
185 199 0.9421169757843018
185 200 0.16729779541492462
185 201 0.2471846342086792
185 202 0.9528835415840149
185 203 0.3629624843597412
185 204 0.5001088976860046
185 205 0.8786474466323853
185 206 0.5246581435203552
185 207 0.9506540298461914
185 208 0.9477317333221436
185 209 0.056523337960243225
185 210 0.25306713581085205
185 211 0.16682633757591248
185 212 0.9494098424911499
185 213 0.3057340085506439
185 214 0.39512795209884644
185 215 0.10953802615404129
185 216 0.9518995881080627
185 217 0.9522001147270203
185 218 0.9394952058792114
185 219 0.9597333669662476
185 220 0.9551078677177429
185 221 0.9515807628631592
185 222 0.9494731426239014
185 223 0.9463117718696594
185 224 0.8506907820701599
185 225 0.9506540298461914
185 226 0.9419287443161011
185 227 0.9416183233261108
185 228 0.25291168689727783
185 229 0.9265926480293274
185 230 0.35618075728416443
185 231 0.946675181388855
185 232 0.9473000764846802
185 233 0.7847890257835388
185 234 0.24883246421813965
185 235 0.9539329409599304
185 236 0.9426800012588501
185 237 0.9539329409599304
185 238 0.9532522559165955
185 239 0.9484193325042725
185 240 0.5020599365234375
185 241 0.9433722496032715
185 242 0.3640831410884857
185 243 0.9531316161155701
185 244 0.9505900144577026
185 245 0.9436790943145752
185 246 0.14594264328479767
185 247 0.9543650150299072
185 248 0.9473125338554382
185 249 0.14970144629478455
185 250 0.9508421421051025
185 251 0.16235092282295227
185 252 0.9422470927238464
185 253 0.946739912033081
185 254 0.20689819753170013
185 255 0.5073519945144653
186 187 0.9690402746200562
186 188 0.9674113988876343
186 189 0.9631388187408447
186 190 0.9663767218589783
186 191 0.9663142561912537
186 192 0.9626355171203613
186 193 0.9679757356643677
186 194 0.9726956486701965
186 195 0.9647432565689087
186 196 0.9653420448303223
186 197 0.9360656142234802
186 198 0.12849850952625275
186 199 0.9577398896217346
186 200 0.18172433972358704
186 201 0.25117745995521545
186 202 0.9669426679611206
186 203 0.3900102376937866
186 204 0.4942834973335266
186 205 0.8884978294372559
186 206 0.5331929922103882
186 207 0.9648079872131348
186 208 0.9610276818275452
186 209 0.05564148724079132
186 210 0.2609816789627075
186 211 0.17595383524894714
186 212 0.9636739492416382
186 213 0.3040991425514221
186 214 0.4089101552963257
186 215 0.12441814690828323
186 216 0.9680082201957703
186 217 0.9642735719680786
186 218 0.9561880230903625
186 219 0.9674755930900574
186 220 0.969072699546814
186 221 0.9657806158065796
186 222 0.9626684784889221
186 223 0.9647432565689087
186 224 0.8618095517158508
186 225 0.9648079872131348
186 226 0.9513580799102783
186 227 0.9551430344581604
186 228 0.2449502944946289
186 229 0.9387447237968445
186 230 0.3563249707221985
186 231 0.9610276818275452
186 232 0.9636739492416382
186 233 0.7840185761451721
186 234 0.24896587431430817
186 235 0.9669426679611206
186 236 0.9582780599594116
186 237 0.96900874376297
186 238 0.9663450121879578
186 239 0.9657806158065796
186 240 0.5399888157844543
186 241 0.9609642028808594
186 242 0.38697120547294617
186 243 0.9631708264350891
186 244 0.9637388586997986
186 245 0.9551092386245728
186 246 0.129299134016037
186 247 0.9674113988876343
186 248 0.9555843472480774
186 249 0.14736585319042206
186 250 0.962036669254303
186 251 0.19856177270412445
186 252 0.9588472843170166
186 253 0.9631388187408447
186 254 0.20367026329040527
186 255 0.518498957157135
187 188 0.9684460759162903
187 189 0.9672948122024536
187 190 0.9663767218589783
187 191 0.9642406702041626
187 192 0.9667893052101135
187 193 0.9679757356643677
187 194 0.9696044325828552
187 195 0.9657806158065796
187 196 0.9684460759162903
187 197 0.9381954669952393
187 198 0.12046735733747482
187 199 0.9556487202644348
187 200 0.18172433972358704
187 201 0.26295140385627747
187 202 0.9700418710708618
187 203 0.3900102376937866
187 204 0.5021920800209045
187 205 0.8896196484565735
187 206 0.5369086265563965
187 207 0.965843141078949
187 208 0.9599875807762146
187 209 0.05564148724079132
187 210 0.2609816789627075
187 211 0.17008869349956512
187 212 0.964712381362915
187 213 0.322909414768219
187 214 0.4014301300048828
187 215 0.12441814690828323
187 216 0.9690402746200562
187 217 0.9653093218803406
187 218 0.9561880230903625
187 219 0.9705731868743896
187 220 0.9721654057502747
187 221 0.9657806158065796
187 222 0.963705837726593
187 223 0.9647432565689087
187 224 0.8618095517158508
187 225 0.965843141078949
187 226 0.9513580799102783
187 227 0.9582780599594116
187 228 0.24093471467494965
187 229 0.9387447237968445
187 230 0.3363707959651947
187 231 0.9631078243255615
187 232 0.9636739492416382
187 233 0.7891179323196411
187 234 0.2449502944946289
187 235 0.96900874376297
187 236 0.9561880230903625
187 237 0.9669426679611206
187 238 0.9642735719680786
187 239 0.9657806158065796
187 240 0.5290060043334961
187 241 0.9588796496391296
187 242 0.38956835865974426
187 243 0.9631708264350891
187 244 0.9647751450538635
187 245 0.9551092386245728
187 246 0.14366571605205536
187 247 0.9674113988876343
187 248 0.9545365571975708
187 249 0.1406674087047577
187 250 0.9589132070541382
187 251 0.2034047544002533
187 252 0.9588472843170166
187 253 0.9620998501777649
187 254 0.21787983179092407
187 255 0.5299364328384399
188 189 0.9614666700363159
188 190 0.9626556038856506
188 191 0.9615405201911926
188 192 0.9609642624855042
188 193 0.9653041362762451
188 194 0.9669504165649414
188 195 0.9610016942024231
188 196 0.9647303223609924
188 197 0.9352869987487793
188 198 0.12883132696151733
188 199 0.9528825283050537
188 200 0.1708078235387802
188 201 0.23608878254890442
188 202 0.9642683863639832
188 203 0.39606577157974243
188 204 0.5054751038551331
188 205 0.8896742463111877
188 206 0.5382991433143616
188 207 0.9631552696228027
188 208 0.96247398853302
188 209 0.05578560009598732
188 210 0.23787061870098114
188 211 0.1764095574617386
188 212 0.9599231481552124
188 213 0.31117308139801025
188 214 0.40496960282325745
188 215 0.12474039196968079
188 216 0.9674113988876343
188 217 0.9636557698249817
188 218 0.9544737339019775
188 219 0.9679110050201416
188 220 0.9715825915336609
188 221 0.9610016942024231
188 222 0.9599616527557373
188 223 0.9620417952537537
188 224 0.8582192659378052
188 225 0.9652311205863953
188 226 0.9538220763206482
188 227 0.9544737339019775
188 228 0.22545482218265533
188 229 0.9369076490402222
188 230 0.3458159267902374
188 231 0.9572601318359375
188 232 0.9588820338249207
188 233 0.7822148203849792
188 234 0.24961069226264954
188 235 0.9673755764961243
188 236 0.9544737339019775
188 237 0.9653041362762451
188 238 0.9646941423416138
188 239 0.9599616527557373
188 240 0.5395521521568298
188 241 0.9550934433937073
188 242 0.38016191124916077
188 243 0.9604625105857849
188 244 0.9620791673660278
188 245 0.9533876776695251
188 246 0.14403779804706573
188 247 0.9636929035186768
188 248 0.9559582471847534
188 249 0.15446335077285767
188 250 0.9582651853561401
188 251 0.21364258229732513
188 252 0.9540082812309265
188 253 0.958341658115387
188 254 0.19944900274276733
188 255 0.5160194635391235
189 190 0.9604250192642212
189 191 0.9582484364509583
189 192 0.9576583504676819
189 193 0.9610141515731812
189 194 0.9647635221481323
189 195 0.9556147456169128
189 196 0.958341658115387
189 197 0.9402643442153931
189 198 0.11319809406995773
189 199 0.9473873376846313
189 200 0.17152102291584015
189 201 0.25683078169822693
189 202 0.9630942940711975
189 203 0.3723870515823364
189 204 0.4936518669128418
189 205 0.8877418041229248
189 206 0.5405467748641968
189 207 0.9577968716621399
189 208 0.954974353313446
189 210 0.25876912474632263
189 211 0.17124126851558685
189 212 0.9566128253936768
189 213 0.30931606888771057
189 214 0.3840682804584503
189 215 0.11691047996282578
189 216 0.9631388187408447
189 217 0.9593372941017151
189 218 0.9531984329223633
189 219 0.9615572094917297
189 220 0.9631842970848083
189 221 0.9556147456169128
189 222 0.9597923159599304
189 223 0.9556147456169128
189 224 0.8594639897346497
189 225 0.9609235525131226
189 226 0.9461885094642639
189 227 0.950042188167572
189 228 0.2304389774799347
189 229 0.9322472810745239
189 230 0.34725984930992126
189 231 0.954974353313446
189 232 0.9555673599243164
189 233 0.7726462483406067
189 234 0.25065290927886963
189 235 0.9620542526245117
189 236 0.950042188167572
189 237 0.9599741101264954
189 238 0.9572518467903137
189 239 0.956659197807312
189 240 0.5344335436820984
189 241 0.9538347721099854
189 242 0.37913453578948975
189 243 0.956113338470459
189 244 0.9608796834945679
189 245 0.9499959349632263
189 246 0.14463920891284943
189 247 0.958341658115387
189 248 0.9504557847976685
189 249 0.14836443960666656
189 250 0.9559770226478577
189 251 0.20478305220603943
189 252 0.9495882391929626
189 253 0.9550209641456604
189 254 0.2098190039396286
189 255 0.5258507132530212
190 191 0.9667380452156067
190 192 0.9599231481552124
190 193 0.9642683863639832
190 194 0.9679834842681885
190 195 0.9599616527557373
190 196 0.9647303223609924
190 197 0.9352869987487793
190 198 0.11272741109132767
190 199 0.9528825283050537
190 200 0.17650140821933746
190 201 0.25969764590263367
190 202 0.9663398265838623
190 203 0.3935430645942688
190 204 0.5074573159217834
190 205 0.8863000869750977
190 206 0.5382991433143616
190 207 0.9631552696228027
190 208 0.9593456387519836
190 209 0.05578560009598732
190 210 0.2537286579608917
190 211 0.17052924633026123
190 212 0.9599231481552124
190 213 0.30488672852516174
190 214 0.3949703872203827
190 215 0.12474039196968079
190 216 0.9674113988876343
190 217 0.9646941423416138
190 218 0.9544737339019775
190 219 0.9658405184745789
190 220 0.9674481749534607
190 221 0.9641218781471252
190 222 0.9610016942024231
190 223 0.9630818367004395
190 224 0.8652061223983765
190 225 0.9631552696228027
190 226 0.9580285549163818
190 227 0.9576168656349182
190 228 0.2536366581916809
190 229 0.9358406066894531
190 230 0.3343839943408966
190 231 0.9572601318359375
190 232 0.9588820338249207
190 233 0.7898836135864258
190 234 0.2536366581916809
190 235 0.9673755764961243
190 236 0.9544737339019775
190 237 0.9673755764961243
190 238 0.9636557698249817
190 239 0.9610016942024231
190 240 0.5377169251441956
190 241 0.958228349685669
190 242 0.3723503649234772
190 243 0.9625437259674072
190 244 0.9631180763244629
190 245 0.9544364809989929
190 246 0.14403779804706573
190 247 0.9626556038856506
190 248 0.9549077749252319
190 249 0.14103174209594727
190 250 0.9582651853561401
190 251 0.19907602667808533
190 252 0.9550543427467346
190 253 0.9593833684921265
190 254 0.18520264327526093
190 255 0.5217530131340027
191 192 0.9587909579277039
191 193 0.9621236324310303
191 194 0.9668923020362854
191 195 0.9588328003883362
191 196 0.9615405201911926
191 197 0.936163604259491
191 198 0.12103072553873062
191 199 0.9517142176628113
191 200 0.17116329073905945
191 201 0.24446611106395721
191 202 0.9631614685058594
191 203 0.4019460082054138
191 204 0.49460870027542114
191 205 0.8858903646469116
191 206 0.5188879370689392
191 207 0.9599595665931702
191 208 0.9582074284553528
191 209 0.055901702493429184
191 210 0.2423384040594101
191 211 0.1767767071723938
191 212 0.9577476978302002
191 213 0.30552127957344055
191 214 0.39078232645988464
191 215 0.125
191 216 0.9642406702041626
191 217 0.9646207094192505
191 218 0.9512105584144592
191 219 0.9637011885643005
191 220 0.9663543701171875
191 221 0.9598750472068787
191 222 0.9577906131744385
191 223 0.9630016088485718
191 224 0.8576715588569641
191 225 0.9599595665931702
191 226 0.9536994695663452
191 227 0.9522604942321777
191 228 0.25013017654418945
191 229 0.9324416518211365
191 230 0.36085525155067444
191 231 0.9561175107955933
191 232 0.9598342776298523
191 233 0.7748772501945496
191 234 0.25013017654418945
191 235 0.9621236324310303
191 236 0.9512105584144592
191 237 0.9631614685058594
191 238 0.9635801315307617
191 239 0.9619594216346741
191 240 0.5351579785346985
191 241 0.9549869298934937
191 242 0.3861716389656067
191 243 0.9582903981208801
191 244 0.9588757753372192
191 245 0.950116753578186
191 246 0.14433756470680237
191 247 0.9615405201911926
191 248 0.9474208950996399
191 249 0.15478479862213135
191 250 0.9571213722229004
191 251 0.19949035346508026
191 252 0.95389723777771
191 253 0.9603360891342163
191 254 0.18082940578460693
191 255 0.5266691446304321
192 193 0.9625909328460693
192 194 0.96529620885849
192 195 0.9582468867301941
192 196 0.9599231481552124
192 197 0.9354866147041321
192 198 0.12122028321027756
192 199 0.950048565864563
192 200 0.1828601360321045
192 201 0.23695063591003418
192 202 0.9615514278411865
192 203 0.4000435769557953
192 204 0.4953833818435669
192 205 0.8884067535400391
192 206 0.5327866673469543
192 207 0.9593797326087952
192 208 0.9544752836227417
192 209 0.05598925054073334
192 210 0.2546549141407013
192 211 0.1770535707473755
192 212 0.9561128616333008
192 213 0.3186183571815491
192 214 0.3863765299320221
192 215 0.10850300639867783
192 216 0.9615970849990845
192 217 0.9609203934669495
192 218 0.9516488313674927
192 219 0.9610546827316284
192 220 0.9647557139396667
192 221 0.956159234046936
192 222 0.9603345394134521
192 223 0.9572030305862427
192 224 0.8566773533821106
192 225 0.9604213833808899
192 226 0.949915885925293
192 227 0.9516488313674927
192 228 0.23435921967029572
192 229 0.9328311085700989
192 230 0.3499467968940735
192 231 0.9565684199333191
192 232 0.9561128616333008
192 233 0.7709596157073975
192 234 0.2586032748222351
192 235 0.9636304378509521
192 236 0.9484942555427551
192 237 0.9615514278411865
192 238 0.9609203934669495
192 239 0.956159234046936
192 240 0.5341542363166809
192 241 0.9543850421905518
192 242 0.38154977560043335
192 243 0.9556136727333069
192 244 0.9582920074462891
192 245 0.9494994878768921
192 246 0.14456363022327423
192 247 0.9630465507507324
192 248 0.9467960596084595
192 249 0.1415465921163559
192 250 0.9533820152282715
192 251 0.19980280101299286
192 252 0.9522415995597839
192 253 0.9576583504676819
192 254 0.19541096687316895
192 255 0.5294122099876404
193 194 0.9685437083244324
193 195 0.9615867137908936
193 196 0.9642683863639832
193 197 0.9391651749610901
193 198 0.1286313384771347
193 199 0.9545432329177856
193 200 0.1648579090833664
193 201 0.2435796856880188
193 202 0.9669079780578613
193 203 0.38285696506500244
193 204 0.5027111172676086
193 205 0.8916621804237366
193 206 0.5300246477127075
193 207 0.9637326002120972
193 208 0.9599387049674988
193 209 0.055698998272418976
193 210 0.24541804194450378
193 211 0.17613568902015686
193 212 0.964669942855835
193 213 0.3106900155544281
193 214 0.39186128973960876
193 215 0.12454674392938614
193 216 0.9700418710708618
193 217 0.9663069844245911
193 218 0.9571762681007385
193 219 0.9674419164657593
193 220 0.9690423011779785
193 221 0.9626251459121704
193 222 0.9636635780334473
193 223 0.9615867137908936
193 224 0.8650256395339966
193 225 0.9689139723777771
193 226 0.9512913227081299
193 227 0.9561302065849304
193 228 0.24118374288082123
193 229 0.9354531764984131
193 230 0.3566932678222656
193 231 0.9620209336280823
193 232 0.9625909328460693
193 233 0.7873812317848206
193 234 0.24118374288082123
193 235 0.9658737778663635
193 236 0.9582224488258362
193 237 0.9669079780578613
193 238 0.9663069844245911
193 239 0.9647020101547241
193 240 0.5497087240219116
193 241 0.9588274359703064
193 242 0.376971960067749
193 243 0.962088406085968
193 244 0.9668096303939819
193 245 0.9560964107513428
193 246 0.14381420612335205
193 247 0.9684113264083862
193 248 0.953425407409668
193 249 0.14751817286014557
193 250 0.9599042534828186
193 251 0.2084629386663437
193 252 0.9577494859695435
193 253 0.9620542526245117
193 254 0.21336360275745392
193 255 0.5247594714164734
194 195 0.9642890691757202
194 196 0.9700496196746826
194 197 0.9399363398551941
194 198 0.12830005586147308
194 199 0.9604365229606628
194 200 0.17577356100082397
194 201 0.2547081410884857
194 202 0.9685437083244324
194 203 0.3994571566581726
194 204 0.4954942762851715
194 205 0.8916060924530029
194 206 0.5268046855926514
194 207 0.9674522876739502
194 208 0.9626588821411133
194 209 0.0555555559694767
194 210 0.24873416125774384
194 211 0.16982601583003998
194 212 0.9684066772460938
194 213 0.3161503076553345
194 214 0.4082786440849304
194 215 0.1159442588686943
194 216 0.9706348180770874
194 217 0.9700232744216919
194 218 0.9567981362342834
194 219 0.9690742492675781
194 220 0.9716933965682983
194 221 0.9653248190879822
194 222 0.9653248190879822
194 223 0.9673963189125061
194 224 0.8593189120292664
194 225 0.9674522876739502
194 226 0.9572197198867798
194 227 0.9599282741546631
194 228 0.25660011172294617
194 229 0.9394202828407288
194 230 0.35008224844932556
194 231 0.9636973142623901
194 232 0.9632225036621094
194 233 0.7878991365432739
194 234 0.2445719838142395
194 235 0.9695751667022705
194 236 0.9588848948478699
194 237 0.9716380834579468
194 238 0.9679549932479858
194 239 0.9653248190879822
194 240 0.5428102016448975
194 241 0.9605208039283752
194 242 0.3889666795730591
194 243 0.9658284783363342
194 244 0.9653544425964355
194 245 0.9599011540412903
194 246 0.14344382286071777
194 247 0.9669504165649414
194 248 0.9572470188140869
194 249 0.15382637083530426
194 250 0.9615904092788696
194 251 0.2030906081199646
194 252 0.9604917168617249
194 253 0.9658008813858032
194 254 0.1938973069190979
194 255 0.5272146463394165
195 196 0.9630818367004395
195 197 0.9312992691993713
195 198 0.12109380960464478
195 199 0.9511592984199524
195 200 0.1712525188922882
195 201 0.2564287483692169
195 202 0.965740442276001
195 203 0.3895091116428375
195 204 0.5028162598609924
195 205 0.8863521218299866
195 206 0.5284957885742188
195 207 0.9615004658699036
195 208 0.9555704593658447
195 209 0.055930834263563156
195 210 0.24643957614898682
195 211 0.17686884105205536
195 212 0.9572030305862427
195 213 0.31198325753211975
195 214 0.39349234104156494
195 215 0.11672747135162354
195 216 0.9657806158065796
195 217 0.9609590172767639
195 218 0.9506559371948242
195 219 0.9652414917945862
195 220 0.9647854566574097
195 221 0.9582898616790771
195 222 0.9582898616790771
195 223 0.9603754281997681
195 224 0.8592861294746399
195 225 0.9625411033630371
195 226 0.9457616806030273
195 227 0.9517063498497009
195 228 0.24622409045696259
195 229 0.9339975714683533
195 230 0.3553125262260437
195 231 0.9555704593658447
195 232 0.9592906832695007
195 233 0.7868142127990723
195 234 0.24622409045696259
195 235 0.9626251459121704
195 236 0.9538072943687439
195 237 0.9626251459121704
195 238 0.9599179029464722
195 239 0.9593325853347778
195 240 0.5409568548202515
195 241 0.9533893465995789
195 242 0.3811516761779785
195 243 0.9598332047462463
195 244 0.9614588618278503
195 245 0.9495604634284973
195 246 0.13719215989112854
195 247 0.9630818367004395
195 248 0.9500212669372559
195 249 0.14139892160892487
195 250 0.9544805288314819
195 251 0.20933063328266144
195 252 0.9522969126701355
195 253 0.958747923374176
195 254 0.21901287138462067
195 255 0.5192791223526001
196 197 0.9363546967506409
196 198 0.12883132696151733
196 199 0.9539307951927185
196 200 0.1821950078010559
196 201 0.24789321422576904
196 202 0.9642683863639832
196 203 0.408679336309433
196 204 0.5134040713310242
196 205 0.8930485248565674
196 206 0.5364365577697754
196 207 0.9621174335479736
196 208 0.9603884816169739
196 209 0.05578560009598732
196 210 0.2537286579608917
196 211 0.16464892029762268
196 212 0.9620053768157959
196 213 0.32688888907432556
196 214 0.3924705684185028
196 215 0.12474039196968079
196 216 0.9653420448303223
196 217 0.9626173377037048
196 218 0.953425943851471
196 219 0.9648053646087646
196 220 0.9684817790985107
196 221 0.9630818367004395
196 222 0.9610016942024231
196 223 0.9651618599891663
196 224 0.8582192659378052
196 225 0.9641931653022766
196 226 0.951718807220459
196 227 0.9544737339019775
196 228 0.24961069226264954
196 229 0.9411760568618774
196 230 0.3315260112285614
196 231 0.9593456387519836
196 232 0.9588820338249207
196 233 0.7809366583824158
196 234 0.2415587455034256
196 235 0.9663398265838623
196 236 0.9544737339019775
196 237 0.9673755764961243
196 238 0.9667710661888123
196 239 0.9599616527557373
196 240 0.5322113633155823
196 241 0.9571834206581116
196 242 0.39578500390052795
196 243 0.9615030884742737
196 244 0.9641570448875427
196 245 0.9533876776695251
196 246 0.13683591783046722
196 247 0.9626556038856506
196 248 0.9507057666778564
196 249 0.15446335077285767
196 250 0.9572213292121887
196 251 0.21364258229732513
196 252 0.9581925272941589
196 253 0.9614666700363159
196 254 0.19944900274276733
196 255 0.5026412010192871
197 198 0.12431129068136215
197 199 0.927879810333252
197 200 0.16408254206180573
197 201 0.24704255163669586
197 202 0.9380991458892822
197 203 0.37129709124565125
197 204 0.4855727255344391
197 205 0.8682277202606201
197 206 0.5137815475463867
197 207 0.9368407130241394
197 208 0.9294435381889343
197 209 0.05741692706942558
197 210 0.21626348793506622
197 211 0.17551597952842712
197 212 0.9312003254890442
197 213 0.2717464864253998
197 214 0.3524892330169678
197 215 0.11126972734928131
197 216 0.9381954669952393
197 217 0.9341211318969727
197 218 0.9273887872695923
197 219 0.9376145005226135
197 220 0.9404202103614807
197 221 0.9334401488304138
197 222 0.9355810284614563
197 223 0.9312992691993713
197 224 0.8413674235343933
197 225 0.933635950088501
197 226 0.9211013913154602
197 227 0.9273887872695923
197 228 0.24033516645431519
197 229 0.9060956835746765
197 230 0.35004541277885437
197 231 0.9326633214950562
197 232 0.9312003254890442
197 233 0.7498377561569214
197 234 0.25276631116867065
197 235 0.940231204032898
197 236 0.9284672141075134
197 237 0.9359670877456665
197 238 0.9330523610115051
197 239 0.9377220273017883
197 240 0.5175526738166809
197 241 0.9335492253303528
197 242 0.3644789755344391
197 243 0.9328562617301941
197 244 0.9367457628250122
197 245 0.9294512867927551
197 246 0.14083737134933472
197 247 0.938490092754364
197 248 0.9233646392822266
197 249 0.15206807851791382
197 250 0.9390143752098083
197 251 0.1699150651693344
197 252 0.9291502237319946
197 253 0.9391921758651733
197 254 0.21505674719810486
197 255 0.5035702586174011
198 199 0.12205210328102112
198 202 0.11255241185426712
198 203 0.13707058131694794
198 205 0.12222529947757721
198 206 0.1301208734512329
198 207 0.12889818847179413
198 208 0.12141072750091553
198 212 0.12122028321027756
198 214 0.07761505246162415
198 216 0.12046735733747482
198 217 0.12896516919136047
198 218 0.12198750674724579
198 219 0.12856486439704895
198 220 0.12034322321414948
198 221 0.12109380960464478
198 222 0.12916673719882965
198 223 0.10494796931743622
198 224 0.08134892582893372
198 225 0.11278592050075531
198 226 0.1224418431520462
198 227 0.11385500431060791
198 229 0.11596016585826874
198 230 0.13310347497463226
198 231 0.11331667751073837
198 232 0.12930163741111755
198 233 0.11905135959386826
198 235 0.12059187144041061
198 236 0.10572250932455063
198 237 0.1286313384771347
198 238 0.12896516919136047
198 239 0.09687504917383194
198 240 0.0712253600358963
198 241 0.11355499923229218
198 242 0.12126780301332474
198 243 0.12115699052810669
198 244 0.12096773833036423
198 245 0.13025791943073273
198 247 0.1207793727517128
198 248 0.11415741592645645
198 250 0.12964074313640594
198 252 0.12991395592689514
198 253 0.12936924397945404
199 200 0.17260774970054626
199 201 0.2505054175853729
199 202 0.9555898308753967
199 203 0.38239434361457825
199 204 0.48876702785491943
199 205 0.8831369876861572
199 206 0.5251491069793701
199 207 0.9533771872520447
199 208 0.9504873752593994
199 209 0.05637345090508461
199 210 0.24438351392745972
199 211 0.16638393700122833
199 212 0.9532048106193542
199 213 0.3208046853542328
199 214 0.3789232075214386
199 215 0.10924755036830902
199 216 0.9556487202644348
199 217 0.9528231620788574
199 218 0.9433563947677612
199 219 0.9550961256027222
199 220 0.9577975273132324
199 221 0.9511592984199524
199 222 0.9501083493232727
199 223 0.9522103071212769
199 224 0.8390209674835205
199 225 0.9544259905815125
199 226 0.9373055100440979
199 227 0.9465327262878418
199 228 0.2563094198703766
199 229 0.9306054711341858
199 230 0.3523481488227844
199 231 0.947326123714447
199 232 0.9542570114135742
199 233 0.782707929611206
199 234 0.2400358021259308
199 235 0.9545432329177856
199 236 0.9412388801574707
199 237 0.9587298035621643
199 238 0.9538725018501282
199 239 0.9511592984199524
199 240 0.5155649781227112
199 241 0.9450944662094116
199 242 0.37101149559020996
199 243 0.9527071714401245
199 244 0.9512190222740173
199 245 0.9411765933036804
199 246 0.13827785849571228
199 247 0.9518342614173889
199 248 0.941615641117096
199 249 0.14930444955825806
199 250 0.9451560974121094
199 251 0.19626717269420624
199 252 0.9492621421813965
199 253 0.9526505470275879
199 254 0.21114838123321533
199 255 0.5118005275726318
200 201 0.1079835519194603
200 202 0.1762274205684662
200 204 0.07615897804498672
200 205 0.1481594294309616
200 207 0.1708964854478836
200 208 0.17742405831813812
200 210 0.08703883737325668
200 212 0.17714574933052063
200 213 0.0517549142241478
200 214 0.06860266625881195
200 216 0.18172433972358704
200 217 0.15958626568317413
200 218 0.16101528704166412
200 219 0.17045453190803528
200 220 0.18153709173202515
200 221 0.18266935646533966
200 222 0.18266935646533966
200 223 0.1712525188922882
200 224 0.17256711423397064
200 225 0.1481102854013443
200 226 0.18470284342765808
200 227 0.16676583886146545
200 229 0.16399244964122772
200 231 0.18314741551876068
200 232 0.17714574933052063
200 233 0.14030338823795319
200 235 0.1705426573753357
200 236 0.18401747941970825
200 237 0.18191216886043549
200 238 0.18238429725170135
200 239 0.1484188437461853
200 240 0.09065508097410202
200 241 0.18353258073329926
200 242 0.11433238536119461
200 243 0.15991908311843872
200 244 0.1482643187046051
200 245 0.1726992279291153
200 247 0.1821950078010559
200 248 0.17874041199684143
200 250 0.16615159809589386
200 252 0.18372607231140137
200 253 0.16580364108085632
200 255 0.05244883522391319
201 202 0.2592944800853729
201 204 0.11278514564037323
201 205 0.18345271050930023
201 206 0.16956578195095062
201 207 0.2598324418067932
201 208 0.2452336698770523
201 210 0.0601520761847496
201 211 0.08921994268894196
201 212 0.24484899640083313
201 213 0.11922517418861389
201 214 0.06637531518936157
201 216 0.25510212779045105
201 217 0.2442118525505066
201 218 0.26229536533355713
201 219 0.2630872130393982
201 220 0.2548392713069916
201 221 0.2603737711906433
201 222 0.24853861331939697
201 223 0.24853861331939697
201 224 0.24735455214977264
201 225 0.2598324418067932
201 226 0.2552943229675293
201 227 0.25832119584083557
201 228 0.07635590434074402
201 229 0.2509545683860779
201 230 0.06504470854997635
201 231 0.25709983706474304
201 232 0.2645948827266693
201 233 0.24725547432899475
201 234 0.07635590434074402
201 235 0.24750837683677673
201 236 0.26229536533355713
201 237 0.26322320103645325
201 238 0.24027296900749207
201 239 0.2603737711906433
201 240 0.13922500610351562
201 241 0.25367680191993713
201 242 0.09876814484596252
201 243 0.2565625309944153
201 244 0.24039794504642487
201 245 0.2506382167339325
201 247 0.25969764590263367
201 248 0.2350989580154419
201 250 0.2454911321401596
201 251 0.14734189212322235
201 252 0.24600850045681
201 253 0.2489282786846161
201 254 0.05403870344161987
201 255 0.09424249827861786
202 203 0.40552613139152527
202 204 0.5007320046424866
202 205 0.8894162178039551
202 206 0.5411829948425293
202 207 0.9647688865661621
202 208 0.9609798192977905
202 209 0.055698998272418976
202 210 0.24541804194450378
202 211 0.16439330577850342
202 212 0.9605118632316589
202 213 0.3232431411743164
202 214 0.4018450379371643
202 215 0.12454674392938614
202 216 0.9679757356643677
202 217 0.9652701616287231
202 218 0.9571762681007385
202 219 0.9674419164657593
202 220 0.9690423011779785
202 221 0.9615867137908936
202 222 0.9647020101547241
202 223 0.9615867137908936
202 224 0.860374927520752
202 225 0.9668413996696472
202 226 0.9512913227081299
202 227 0.9571762681007385
202 228 0.24520348012447357
202 229 0.9397149085998535
202 230 0.34242555499076843
202 231 0.9641032814979553
202 232 0.9615514278411865
202 233 0.7835527658462524
202 234 0.24922320246696472
202 235 0.9658737778663635
202 236 0.9571762681007385
202 237 0.9669079780578613
202 238 0.9663069844245911
202 239 0.9636635780334473
202 240 0.5313851237297058
202 241 0.9588274359703064
202 242 0.38217154145240784
202 243 0.9641663432121277
202 244 0.9647349715232849
202 245 0.9529548287391663
202 246 0.14381420612335205
202 247 0.9642683863639832
202 248 0.9544742703437805
202 249 0.15422354638576508
202 250 0.9578197598457336
202 251 0.21331092715263367
202 252 0.9556605815887451
202 253 0.9599741101264954
202 254 0.21336360275745392
202 255 0.5285758972167969
203 204 0.19764602184295654
203 205 0.41849544644355774
203 206 0.29896098375320435
203 207 0.4063674807548523
203 208 0.40574392676353455
203 209 0.135664701461792
203 210 0.08677142858505249
203 211 0.15730345249176025
203 212 0.3848520815372467
203 213 0.16052062809467316
203 214 0.26748836040496826
203 215 0.08089479058980942
203 216 0.3874940574169159
203 217 0.3889012932777405
203 218 0.36945223808288574
203 219 0.39524659514427185
203 220 0.38960835337638855
203 221 0.38192126154899597
203 222 0.3743334114551544
203 223 0.3945676386356354
203 224 0.3058434724807739
203 225 0.39627137780189514
203 226 0.3733856976032257
203 227 0.3796440064907074
203 228 0.12727981805801392
203 229 0.3762833774089813
203 230 0.2154597043991089
203 231 0.3956003189086914
203 232 0.38738399744033813
203 233 0.32947707176208496
203 234 0.10769832134246826
203 235 0.39293214678764343
203 236 0.36945223808288574
203 237 0.40048855543136597
203 238 0.40405330061912537
203 239 0.3945676386356354
203 240 0.249930277466774
203 241 0.38880857825279236
203 242 0.2469591349363327
203 243 0.39477354288101196
203 244 0.38657695055007935
203 245 0.4081035256385803
203 247 0.39102035760879517
203 248 0.35255053639411926
203 249 0.14698898792266846
203 250 0.37316855788230896
203 251 0.15350523591041565
203 252 0.37141111493110657
203 253 0.39771953225135803
203 255 0.2788677513599396
204 205 0.42125704884529114
204 206 0.24914975464344025
204 207 0.5037540793418884
204 208 0.50612473487854
204 210 0.12121212482452393
204 212 0.4933938980102539
204 213 0.15015624463558197
204 214 0.20540568232536316
204 216 0.5140548944473267
204 217 0.49607861042022705
204 218 0.49051040410995483
204 219 0.49651697278022766
204 220 0.4977244436740875
204 221 0.5067911148071289
204 222 0.5147407054901123
204 223 0.4908917248249054
204 224 0.43168705701828003
204 225 0.49978750944137573
204 226 0.5064040422439575
204 227 0.5005208253860474
204 228 0.17694403231143951
204 229 0.5016189813613892
204 230 0.09284213185310364
204 231 0.5081173777580261
204 232 0.49936237931251526
204 233 0.48114657402038574
204 234 0.20002366602420807
204 235 0.5066695213317871
204 236 0.5025229454040527
204 237 0.5027111172676086
204 238 0.49806296825408936
204 239 0.5107658505439758
204 240 0.3050997853279114
204 241 0.4952083230018616
204 242 0.1293676346540451
204 243 0.49313628673553467
204 244 0.5062633752822876
204 245 0.4990471303462982
204 246 0.09633432328701019
204 247 0.5054751038551331
204 248 0.4998428523540497
204 249 0.1283317506313324
204 250 0.5106455683708191
204 251 0.11134044080972672
204 252 0.5017271637916565
204 253 0.4797181487083435
204 254 0.1361163705587387
204 255 0.26660096645355225
205 206 0.5149886608123779
205 207 0.894637405872345
205 208 0.8818880915641785
205 210 0.2536139488220215
205 211 0.17214569449424744
205 212 0.8838913440704346
205 213 0.30671918392181396
205 214 0.36319831013679504
205 215 0.12623374164104462
205 216 0.8907414674758911
205 217 0.8894726634025574
205 218 0.8838056921958923
205 219 0.8900790810585022
205 220 0.8943063616752625
205 221 0.8919905424118042
205 222 0.8863521218299866
205 223 0.885224461555481
205 224 0.8030072450637817
205 225 0.8856348395347595
205 226 0.8745547533035278
205 227 0.8781256675720215
205 228 0.2357202172279358
205 229 0.8689080476760864
205 230 0.3315698206424713
205 231 0.8886718153953552
205 232 0.8872778415679932
205 233 0.6970664262771606
205 234 0.22698983550071716
205 235 0.8894162178039551
205 236 0.8769896626472473
205 237 0.8905391693115234
205 238 0.8951022028923035
205 239 0.8919905424118042
205 240 0.5173578858375549
205 241 0.8837427496910095
205 242 0.4008996784687042
205 243 0.8856863379478455
205 244 0.8876823782920837
205 245 0.8847423791885376
205 246 0.1171303242444992
205 247 0.8896742463111877
205 248 0.8736238479614258
205 249 0.1456327885389328
205 250 0.8862094283103943
205 251 0.1263507753610611
205 252 0.8790035247802734
205 253 0.8866123557090759
205 254 0.1905091553926468
205 255 0.4994027614593506
206 207 0.540442168712616
206 208 0.5298789143562317
206 210 0.11389703303575516
206 211 0.14781951904296875
206 212 0.5402643084526062
206 213 0.1749570518732071
206 214 0.170566588640213
206 215 0.08959215879440308
206 216 0.5443398952484131
206 217 0.5425875782966614
206 218 0.5323961973190308
206 219 0.5390446186065674
206 220 0.5326435565948486
206 221 0.532230794429779
206 222 0.5303632616996765
206 223 0.534098207950592
206 224 0.472543865442276
206 225 0.5385785698890686
206 226 0.5230494141578674
206 227 0.5361587405204773
206 228 0.0722893700003624
206 229 0.524995744228363
206 230 0.26171746850013733
206 231 0.5392407178878784
206 232 0.5383949279785156
206 233 0.43833979964256287
206 234 0.1301208734512329
206 235 0.5244454145431519
206 236 0.5192273855209351
206 237 0.543042778968811
206 238 0.5369939208030701
206 239 0.5210258960723877
206 240 0.37565910816192627
206 241 0.5234881043434143
206 242 0.25247153639793396
206 243 0.5530613660812378
206 244 0.546600878238678
206 245 0.5235442519187927
206 247 0.5271234512329102
206 248 0.5281514525413513
206 249 0.07235220074653625
206 250 0.536058247089386
206 251 0.08718425780534744
206 252 0.5240399837493896
206 253 0.5424172282218933
206 254 0.17053577303886414
206 255 0.29169172048568726
207 208 0.9577570557594299
207 209 0.055814556777477264
207 210 0.25386032462120056
207 211 0.17650113999843597
207 212 0.9614630341529846
207 213 0.31447938084602356
207 214 0.4076809287071228
207 215 0.11648479849100113
207 216 0.9689487814903259
207 217 0.9620780944824219
207 218 0.9518243074417114
207 219 0.9653061628341675
207 220 0.9658820629119873
207 221 0.9635816812515259
207 222 0.9615004658699036
207 223 0.9604598879814148
207 224 0.8563345074653625
207 225 0.9626168012619019
207 226 0.9480040669441223
207 227 0.9549691081047058
207 228 0.25779637694358826
207 229 0.9352587461471558
207 230 0.3459954261779785
207 231 0.9577570557594299
207 232 0.9614630341529846
207 233 0.7864571809768677
207 234 0.25376832485198975
207 235 0.9647688865661621
207 236 0.9518243074417114
207 237 0.9647688865661621
207 238 0.9620780944824219
207 239 0.9625411033630371
207 240 0.5398322343826294
207 241 0.9566347002983093
207 242 0.388174831867218
207 243 0.9588788151741028
207 244 0.9615389704704285
207 245 0.9528331756591797
207 246 0.12970130145549774
207 247 0.9652311205863953
207 248 0.9490971565246582
207 249 0.15454350411891937
207 250 0.958762526512146
207 251 0.19917936623096466
207 252 0.9555500745773315
207 253 0.9598813652992249
207 254 0.199552521109581
207 255 0.52776038646698
208 209 0.05607721582055092
208 210 0.23911406099796295
208 211 0.17733171582221985
208 212 0.9586616158485413
208 213 0.3064805269241333
208 214 0.4121123254299164
208 215 0.12539246678352356
208 216 0.9662280082702637
208 217 0.9572108387947083
208 218 0.9489311575889587
208 219 0.9615238904953003
208 220 0.9621154069900513
208 221 0.9545249342918396
208 222 0.9587069153785706
208 223 0.9576614499092102
208 224 0.8463176488876343
208 225 0.9577570557594299
208 226 0.9461225867271423
208 227 0.9499843716621399
208 228 0.21044525504112244
208 229 0.9300059080123901
208 230 0.35624241828918457
208 231 0.9528301954269409
208 232 0.9534287452697754
208 233 0.7798797488212585
208 234 0.24686849117279053
208 235 0.9651443958282471
208 236 0.9478779435157776
208 237 0.9609798192977905
208 238 0.9592984914779663
208 239 0.9555704593658447
208 240 0.5442174673080444
208 241 0.9516826868057251
208 242 0.3847666382789612
208 243 0.9612991809844971
208 244 0.9577087163925171
208 245 0.9499368667602539
208 246 0.13031166791915894
208 247 0.9593456387519836
208 248 0.9482836127281189
208 249 0.14176897704601288
208 250 0.9548798203468323
208 251 0.20987848937511444
208 252 0.9537376761436462
208 253 0.9528800845146179
208 254 0.19571799039840698
208 255 0.5167957544326782
209 212 0.05598925054073334
209 217 0.05584355816245079
209 220 0.055584151297807693
209 223 0.055930834263563156
209 225 0.055814556777477264
209 226 0.05655346065759659
209 227 0.05634361505508423
209 229 0.0573853999376297
209 230 0.05123155564069748
209 231 0.05607721582055092
209 232 0.05598925054073334
209 236 0.05634361505508423
209 237 0.055698998272418976
209 238 0.05584355816245079
209 239 0.055930834263563156
209 241 0.05619514361023903
209 243 0.05596001818776131
209 244 0.055872607976198196
209 245 0.05640333145856857
209 247 0.05578560009598732
209 248 0.05649326741695404
209 250 0.05613608658313751
209 252 0.05625439062714577
209 253 0.05601852759718895
210 212 0.2546549141407013
210 213 0.10811249911785126
210 214 0.11464503407478333
210 216 0.24121037125587463
210 217 0.2381177395582199
210 218 0.24425417184829712
210 219 0.24529124796390533
210 220 0.24886222183704376
210 221 0.26233887672424316
210 222 0.254389226436615
210 223 0.24643957614898682
210 224 0.20026719570159912
210 225 0.24989375472068787
210 226 0.24918295443058014
210 227 0.23624584078788757
210 228 0.10770505666732788
210 229 0.24469219148159027
210 230 0.06553561985492706
210 231 0.2590402364730835
210 232 0.23476000130176544
210 233 0.19538947939872742
210 235 0.2414596974849701
210 236 0.2482583224773407
210 237 0.26125144958496094
210 238 0.246055006980896
210 239 0.23451508581638336
210 240 0.15430334210395813
210 241 0.2476041615009308
210 242 0.1990271508693695
210 243 0.23066052794456482
210 244 0.25412437319755554
210 245 0.24050463736057281
210 247 0.2537286579608917
210 248 0.2609621286392212
210 250 0.2513333559036255
210 252 0.251863032579422
210 253 0.2468259334564209
210 255 0.12417031079530716
211 212 0.15934820473194122
211 213 0.12472191452980042
211 214 0.07085252553224564
211 216 0.17595383524894714
211 217 0.17070640623569489
211 218 0.17223501205444336
211 219 0.16430838406085968
211 220 0.16991344094276428
211 221 0.17097321152687073
211 222 0.17686884105205536
211 223 0.17686884105205536
211 224 0.11881770938634872
211 225 0.17650113999843597
211 226 0.16095396876335144
211 227 0.13066105544567108
211 229 0.16332170367240906
211 230 0.17820924520492554
211 231 0.17733171582221985
211 232 0.1652499884366989
211 233 0.1449047029018402
211 235 0.17026449739933014
211 236 0.16035673022270203
211 237 0.17026449739933014
211 238 0.17659282684326172
211 239 0.17686884105205536
211 240 0.15604694187641144
211 241 0.16585767269134521
211 242 0.11808197945356369
211 243 0.1710624247789383
211 244 0.16490572690963745
211 245 0.1724175661802292
211 247 0.16464892029762268
211 248 0.16673757135868073
211 249 0.0761386975646019
211 250 0.15384884178638458
211 251 0.05504818633198738
211 252 0.1541730761528015
211 253 0.17714613676071167
211 255 0.1191716343164444
212 213 0.3091544508934021
212 214 0.3964122533798218
212 215 0.12519577145576477
212 216 0.9667893052101135
212 217 0.9588359594345093
212 218 0.9505972862243652
212 219 0.9631326198577881
212 220 0.9637182950973511
212 221 0.9572030305862427
212 222 0.9613783955574036
212 223 0.9613783955574036
212 224 0.847327470779419
212 225 0.9583380222320557
212 226 0.9509713053703308
212 227 0.9516488313674927
212 228 0.2545625865459442
212 229 0.9349730610847473
212 230 0.3556836247444153
212 231 0.955521821975708
212 232 0.9582027792930603
212 233 0.7837875485420227
212 234 0.246481254696846
212 235 0.964669942855835
212 236 0.9484942555427551
212 237 0.9636304378509521
212 238 0.9619625806808472
212 239 0.956159234046936
212 240 0.53599613904953
212 241 0.9543850421905518
212 242 0.38154977560043335
212 243 0.9608355760574341
212 244 0.96037757396698
212 245 0.9505521655082703
212 246 0.13733544945716858
212 247 0.9599231481552124
212 248 0.9489047527313232
212 249 0.14828690886497498
212 250 0.9565250277519226
212 251 0.21442252397537231
212 252 0.9585408568382263
212 253 0.9576583504676819
212 254 0.21924158930778503
212 255 0.5313303470611572
213 214 0.15906351804733276
213 216 0.322909414768219
213 217 0.311496376991272
213 218 0.3142857253551483
213 219 0.3199394643306732
213 220 0.3163130283355713
213 221 0.31198325753211975
213 222 0.3245886266231537
213 223 0.31513458490371704
213 224 0.22581595182418823
213 225 0.3270585834980011
213 226 0.31864264607429504
213 227 0.30793651938438416
213 228 0.12198751419782639
213 229 0.32656341791152954
213 230 0.09525685012340546
213 231 0.3222784996032715
213 232 0.3123090863227844
213 233 0.28271013498306274
213 235 0.3012751638889313
213 236 0.3047619163990021
213 237 0.3075517416000366
213 238 0.311496376991272
213 239 0.3056805431842804
213 240 0.1668211966753006
213 241 0.31345754861831665
213 242 0.2209111601114273
213 243 0.31214600801467896
213 244 0.32739874720573425
213 245 0.3177967667579651
213 247 0.3237457275390625
213 248 0.30238834023475647
213 249 0.1424424648284912
213 250 0.2909877598285675
213 251 0.1324102133512497
213 252 0.329635888338089
213 253 0.29353463649749756
213 254 0.11511089652776718
213 255 0.1968906670808792
214 215 0.0601203590631485
214 216 0.39893677830696106
214 217 0.39037591218948364
214 218 0.3837723135948181
214 219 0.41411063075065613
214 220 0.3960348963737488
214 221 0.40351763367652893
214 222 0.39599865674972534
214 223 0.39098602533340454
214 224 0.2974548637866974
214 225 0.40517982840538025
214 226 0.3953385055065155
214 227 0.393871545791626
214 228 0.13582634925842285
214 229 0.385725200176239
214 230 0.12397000193595886
214 231 0.3995479643344879
214 232 0.3863765299320221
214 233 0.29568567872047424
214 234 0.05821128934621811
214 235 0.4068368673324585
214 236 0.38882195949554443
214 237 0.4068368673324585
214 238 0.39287832379341125
214 239 0.40602394938468933
214 240 0.2609291672706604
214 241 0.4003882110118866
214 242 0.16941973567008972
214 243 0.4087434411048889
214 244 0.40309756994247437
214 245 0.40187153220176697
214 246 0.06942101567983627
214 247 0.40246984362602234
214 248 0.3999807834625244
214 249 0.09710314124822617
214 250 0.3848743140697479
214 251 0.0702054500579834
214 252 0.3957686722278595
214 253 0.38155803084373474
214 254 0.13732457160949707
214 255 0.2993644177913666
215 216 0.12441814690828323
215 217 0.11654532700777054
215 218 0.1259881556034088
215 219 0.1161835715174675
215 220 0.12428995221853256
215 221 0.1000521183013916
215 222 0.1250651478767395
215 223 0.1250651478767395
215 224 0.10268720984458923
215 225 0.1081644594669342
215 226 0.11802689731121063
215 227 0.11758894473314285
215 229 0.11120864003896713
215 230 0.11455722898244858
215 231 0.12539246678352356
215 232 0.1168493926525116
215 233 0.06147786229848862
215 235 0.12454674392938614
215 236 0.09239131957292557
215 237 0.10794050991535187
215 238 0.12486998736858368
215 239 0.1250651478767395
215 240 0.1324102133512497
215 241 0.11727909743785858
215 243 0.11678838729858398
215 244 0.12493494898080826
215 245 0.10930546373128891
215 246 0.05773502215743065
215 247 0.09979230910539627
215 248 0.09263671189546585
215 250 0.1255241185426712
215 252 0.10063090920448303
215 253 0.12526123225688934
215 255 0.07660642266273499
216 217 0.9663450121879578
216 218 0.9582780599594116
216 219 0.9705731868743896
216 220 0.969072699546814
216 221 0.9657806158065796
216 222 0.9657806158065796
216 223 0.963705837726593
216 224 0.8560022115707397
216 225 0.965843141078949
216 226 0.9555537104606628
216 227 0.9572330713272095
216 228 0.24093471467494965
216 229 0.9387447237968445
216 230 0.33922138810157776
216 231 0.9620677828788757
216 232 0.9636739492416382
216 233 0.7929424047470093
216 234 0.24896587431430817
216 235 0.9679757356643677
216 236 0.9561880230903625
216 237 0.9669426679611206
216 238 0.9653093218803406
216 239 0.9647432565689087
216 240 0.5436497926712036
216 241 0.9588796496391296
216 242 0.38697120547294617
216 243 0.9631708264350891
216 244 0.9637388586997986
216 245 0.9551092386245728
216 246 0.129299134016037
216 247 0.9653420448303223
216 248 0.9534887075424194
216 249 0.15406429767608643
216 250 0.962036669254303
216 251 0.19856177270412445
216 252 0.9578039050102234
216 253 0.9641777873039246
216 254 0.20840679109096527
216 255 0.5280301570892334
217 218 0.9575629234313965
217 219 0.9647715091705322
217 220 0.9674186110496521
217 221 0.9599179029464722
217 222 0.9599179029464722
217 223 0.9609590172767639
217 224 0.8567795157432556
217 225 0.9641559720039368
217 226 0.955865740776062
217 227 0.9565141201019287
217 228 0.24987003207206726
217 229 0.9368128776550293
217 230 0.3576190173625946
217 231 0.9592984914779663
217 232 0.9609203934669495
217 233 0.7740712761878967
217 234 0.24180971086025238
217 235 0.9642333984375
217 236 0.9512701034545898
217 237 0.9652701616287231
217 238 0.965696394443512
217 239 0.9630413055419922
217 240 0.5346013903617859
217 241 0.9550396800041199
217 242 0.39098310470581055
217 243 0.9614604115486145
217 244 0.96099853515625
217 245 0.9533282518386841
217 246 0.14418745040893555
217 247 0.9615789651870728
217 248 0.9527450799942017
217 249 0.1479010283946991
217 250 0.957170844078064
217 251 0.1701195240020752
217 252 0.9560465812683105
217 253 0.9603801369667053
217 254 0.20440992712974548
217 255 0.5261214375495911
218 219 0.9566817879676819
218 220 0.9562467336654663
218 221 0.9548577070236206
218 222 0.9538072943687439
218 223 0.9517063498497009
218 224 0.8585710525512695
218 225 0.9549691081047058
218 226 0.9410580396652222
218 227 0.9449735879898071
218 228 0.24397501349449158
218 229 0.9301129579544067
218 230 0.3377287983894348
218 231 0.9499843716621399
218 232 0.9495457410812378
218 233 0.7680936455726624
218 234 0.21144501864910126
218 235 0.9592685103416443
218 236 0.9470899105072021
218 237 0.9550841450691223
218 238 0.9544165134429932
218 239 0.9517063498497009
218 240 0.5375349521636963
218 241 0.9477605223655701
218 242 0.3865945339202881
218 243 0.9543049931526184
218 244 0.9528142809867859
218 245 0.9406785368919373
218 246 0.14547859132289886
218 247 0.9544737339019775
218 248 0.9421783685684204
218 249 0.14922542870044708
218 250 0.9457101225852966
218 251 0.19616329669952393
218 252 0.9498162865638733
218 253 0.9542505741119385
218 254 0.22062921524047852
218 255 0.5134599208831787
219 220 0.9726674556732178
219 221 0.9662793874740601
219 222 0.9631656408309937
219 223 0.9631656408309937
219 224 0.8564442992210388
219 225 0.9663418531417847
219 226 0.9528987407684326
219 227 0.9619095325469971
219 228 0.2490944266319275
219 229 0.9360348582267761
219 230 0.3479527533054352
219 231 0.9625645875930786
219 232 0.9610546827316284
219 233 0.7908008694648743
219 234 0.24105912446975708
219 235 0.9705427289009094
219 236 0.9566817879676819
219 237 0.9684755206108093
219 238 0.9647715091705322
219 239 0.9631656408309937
219 240 0.5274477601051331
219 241 0.9593749046325684
219 242 0.3793756365776062
219 243 0.9657451510429382
219 244 0.9631996750831604
219 245 0.9556024670600891
219 246 0.13655290007591248
219 247 0.9679110050201416
219 248 0.9560778141021729
219 249 0.15414386987686157
219 250 0.9604499936103821
219 251 0.21320073306560516
219 252 0.9582985639572144
219 253 0.9615572094917297
219 254 0.21799233555793762
219 255 0.5263956189155579
220 221 0.9658217430114746
220 222 0.9637491703033447
220 223 0.9689306020736694
220 224 0.8678831458091736
220 225 0.9689844846725464
220 226 0.9566647410392761
220 227 0.9562467336654663
220 228 0.24469789862632751
220 229 0.9430935978889465
220 230 0.3445671796798706
220 231 0.9621154069900513
220 232 0.9647557139396667
220 233 0.7819371819496155
220 234 0.24870933592319489
220 235 0.9700742959976196
220 236 0.9583345651626587
220 237 0.9680102467536926
220 238 0.9663839340209961
220 239 0.9647854566574097
220 240 0.5430895686149597
220 241 0.9610152244567871
220 242 0.394355833530426
220 243 0.9642520546913147
220 244 0.9668866395950317
220 245 0.9583052396774292
220 246 0.14351767301559448
220 247 0.9664146304130554
220 248 0.9577397704124451
220 249 0.15390555560588837
220 250 0.9600052237510681
220 251 0.20803311467170715
220 252 0.9578592777252197
220 253 0.9642221927642822
220 254 0.20346041023731232
220 255 0.5179646611213684
221 222 0.9572471380233765
221 223 0.9582898616790771
221 224 0.8604536056518555
221 225 0.9625411033630371
221 226 0.9499791264533997
221 227 0.9506559371948242
221 228 0.25026053190231323
221 229 0.9350674152374268
221 230 0.3266582787036896
221 231 0.9587069153785706
221 232 0.9603345394134521
221 233 0.7880956530570984
221 234 0.21393240988254547
221 235 0.965740442276001
221 236 0.9527568221092224
221 237 0.9678173065185547
221 238 0.9609590172767639
221 239 0.9614181518554688
221 240 0.5354369282722473
221 241 0.9544370770454407
221 242 0.3785410523414612
221 243 0.9587898850440979
221 244 0.9604172110557556
221 245 0.9516635537147522
221 246 0.12997151911258698
221 247 0.9620417952537537
221 248 0.9531809091567993
221 249 0.15486548840999603
221 250 0.9565736651420593
221 251 0.18012170493602753
221 252 0.9522969126701355
221 253 0.9577035307884216
221 254 0.20472940802574158
221 255 0.5154467821121216
222 223 0.9593325853347778
222 224 0.8557835817337036
222 225 0.959419310092926
222 226 0.9489247798919678
222 227 0.9517063498497009
222 228 0.2381511777639389
222 229 0.930787980556488
222 230 0.3352545499801636
222 231 0.9576614499092102
222 232 0.9582468867301941
222 233 0.7765625715255737
222 234 0.24622409045696259
222 235 0.9636635780334473
222 236 0.9559081792831421
222 237 0.9626251459121704
222 238 0.9599179029464722
222 239 0.9593325853347778
222 240 0.5483168363571167
222 241 0.9544370770454407
222 242 0.3785410523414612
222 243 0.9587898850440979
222 244 0.9625005125999451
222 245 0.9548182487487793
222 246 0.12997151911258698
222 247 0.9620417952537537
222 248 0.9500212669372559
222 249 0.15486548840999603
222 250 0.9576202034950256
222 251 0.21419879794120789
222 252 0.9533457159996033
222 253 0.956659197807312
222 254 0.21901287138462067
222 255 0.5231113433837891
223 224 0.8604536056518555
223 225 0.9604598879814148
223 226 0.9478704333305359
223 227 0.9538072943687439
223 228 0.23411470651626587
223 229 0.9361373782157898
223 230 0.35817793011665344
223 231 0.9545249342918396
223 232 0.9603345394134521
223 233 0.7804069519042969
223 234 0.24218761920928955
223 235 0.9626251459121704
223 236 0.9517063498497009
223 237 0.9626251459121704
223 238 0.9620001316070557
223 239 0.9624608755111694
223 240 0.5464769005775452
223 241 0.9575800895690918
223 242 0.3942047953605652
223 243 0.9567033052444458
223 244 0.9625005125999451
223 245 0.9516635537147522
223 246 0.12997151911258698
223 247 0.9610016942024231
223 248 0.947914719581604
223 249 0.14813220500946045
223 250 0.9555270671844482
223 251 0.20446249842643738
223 252 0.9543944597244263
223 253 0.958747923374176
223 254 0.209490567445755
223 255 0.5269436836242676
224 225 0.8516741991043091
224 226 0.8417001366615295
224 227 0.8444575667381287
224 228 0.19885292649269104
224 229 0.8325204253196716
224 230 0.31440794467926025
224 231 0.854511559009552
224 232 0.8543398380279541
224 233 0.6815159320831299
224 234 0.19885292649269104
224 235 0.860374927520752
224 236 0.8620994091033936
224 237 0.860374927520752
224 238 0.859110951423645
224 239 0.8557835817337036
224 240 0.5191518664360046
224 241 0.8551356196403503
224 242 0.3273720443248749
224 243 0.8573982119560242
224 244 0.8560589551925659
224 245 0.8547714948654175
224 246 0.1455213725566864
224 247 0.8617126941680908
224 248 0.8467004895210266
224 249 0.12062166631221771
224 250 0.8636112809181213
224 251 0.14716573059558868
224 252 0.8489916324615479
224 253 0.8594639897346497
224 254 0.159923255443573
224 255 0.41620934009552
225 226 0.9522127509117126
225 227 0.953920841217041
225 228 0.25779637694358826
225 229 0.9405969977378845
225 230 0.33455756306648254
225 231 0.959843635559082
225 232 0.9593797326087952
225 233 0.7941299676895142
225 234 0.22959990799427032
225 235 0.9668413996696472
225 236 0.9528725743293762
225 237 0.9637326002120972
225 238 0.961039125919342
225 239 0.9625411033630371
225 240 0.5324876308441162
225 241 0.9545437097549438
225 242 0.3777540624141693
225 243 0.9609610438346863
225 244 0.9625784754753113
225 245 0.9507343769073486
225 246 0.14411255717277527
225 247 0.9621174335479736
225 248 0.9564545154571533
225 249 0.15454350411891937
225 250 0.956673800945282
225 251 0.20889542996883392
225 252 0.9555500745773315
225 253 0.9598813652992249
225 254 0.21380627155303955
225 255 0.52776038646698
226 227 0.9431823492050171
226 228 0.23672088980674744
226 229 0.9260046482086182
226 230 0.33319199085235596
226 231 0.9450654983520508
226 232 0.9446385502815247
226 233 0.7735458016395569
226 234 0.24080228805541992
226 235 0.9544413089752197
226 236 0.9421201944351196
226 237 0.9533913135528564
226 238 0.9527075886726379
226 239 0.946816086769104
226 240 0.5209322571754456
226 241 0.9417563676834106
226 242 0.3853946626186371
226 243 0.9494198560714722
226 244 0.9500434398651123
226 245 0.9378023743629456
226 246 0.14602042734622955
226 247 0.9506672024726868
226 248 0.9456875324249268
226 249 0.13616473972797394
226 250 0.9502906203269958
226 251 0.18704921007156372
226 252 0.9469910860061646
226 253 0.9440764784812927
226 254 0.1973801702260971
226 255 0.5056848526000977
227 228 0.2358425110578537
227 229 0.9258018732070923
227 230 0.3463885188102722
227 231 0.9468247890472412
227 232 0.9495457410812378
227 233 0.7771300673484802
227 234 0.25210753083229065
227 235 0.9582224488258362
227 236 0.9439153075218201
227 237 0.9550841450691223
227 238 0.9533677101135254
227 239 0.9517063498497009
227 240 0.5282671451568604
227 241 0.9467051029205322
227 242 0.373445063829422
227 243 0.9543049931526184
227 244 0.9528142809867859
227 245 0.9406785368919373
227 246 0.14547859132289886
227 247 0.9576168656349182
227 248 0.9432393908500671
227 249 0.1424424648284912
227 250 0.9457101225852966
227 251 0.19125919044017792
227 252 0.9466466903686523
227 253 0.950042188167572
227 254 0.21103663742542267
227 255 0.5346932411193848
228 229 0.25262752175331116
228 230 0.05545978620648384
228 231 0.23068039119243622
228 232 0.246481254696846
228 233 0.24306319653987885
228 234 0.078125
228 235 0.25324293971061707
228 236 0.26024001836776733
228 237 0.24922320246696472
228 238 0.24180971086025238
228 239 0.2583334743976593
228 240 0.09971550107002258
228 241 0.25144320726394653
228 242 0.07073955237865448
228 243 0.2544296681880951
228 244 0.25
228 245 0.2442336082458496
228 247 0.23350678384304047
228 248 0.23646892607212067
228 249 0.10425721108913422
228 250 0.2430763989686966
228 251 0.094222292304039
228 252 0.2435886710882187
228 253 0.24256734549999237
228 254 0.0921512246131897
228 255 0.19285200536251068
229 230 0.3322135806083679
229 231 0.9332239627838135
229 232 0.9381860494613647
229 233 0.7730920910835266
229 234 0.22777891159057617
229 235 0.9375841021537781
229 236 0.9268796443939209
229 237 0.9386495351791382
229 238 0.9368128776550293
229 239 0.9361373782157898
229 240 0.5304833650588989
229 241 0.9276620745658875
229 242 0.3723144829273224
229 243 0.9334145188331604
229 244 0.9351626634597778
229 245 0.9267831444740295
229 246 0.14076006412506104
229 247 0.9422431588172913
229 248 0.9293414354324341
229 249 0.15889298915863037
229 250 0.9331299066543579
229 251 0.21477457880973816
229 252 0.9275640249252319
229 253 0.9322472810745239
229 254 0.2051687389612198
229 255 0.4954298436641693
230 231 0.3418777883052826
230 232 0.3585520386695862
230 233 0.2676239013671875
230 234 0.12201152741909027
230 235 0.34527909755706787
230 236 0.3204093873500824
230 237 0.3481326401233673
230 238 0.3604799807071686
230 239 0.3553125262260437
230 240 0.257865309715271
230 241 0.3483547270298004
230 242 0.18652014434337616
230 243 0.33256256580352783
230 244 0.3492177426815033
230 245 0.3438659906387329
230 247 0.35153189301490784
230 248 0.3096834719181061
230 249 0.05550798401236534
230 250 0.35374048352241516
230 251 0.0668870136141777
230 252 0.35160401463508606
230 253 0.3587394952774048
230 254 0.07850014418363571
230 255 0.21588517725467682
231 232 0.9544752836227417
231 233 0.7863037586212158
231 234 0.22663335502147675
231 235 0.9588975310325623
231 236 0.951037585735321
231 237 0.9609798192977905
231 238 0.9572108387947083
231 239 0.9566159248352051
231 240 0.5386830568313599
231 241 0.9516826868057251
231 242 0.3952364921569824
231 243 0.9550230503082275
231 244 0.9566643834114075
231 245 0.9509912133216858
231 246 0.14479075372219086
231 247 0.9614312052726746
231 248 0.9482836127281189
231 249 0.1552707850933075
231 250 0.9548798203468323
231 251 0.19035489857196808
231 252 0.9516345858573914
231 253 0.954974353313446
231 254 0.20526520907878876
231 255 0.5167957544326782
232 233 0.7837875485420227
232 234 0.246481254696846
232 235 0.9605118632316589
232 236 0.9527003765106201
232 237 0.9625909328460693
232 238 0.9598782062530518
232 239 0.9613783955574036
232 240 0.5433638095855713
232 241 0.9543850421905518
232 242 0.37632304430007935
232 243 0.9577024579048157
232 244 0.9593347311019897
232 245 0.9516047835350037
232 246 0.13733544945716858
232 247 0.9620053768157959
232 248 0.9478504061698914
232 249 0.12806595861911774
232 250 0.9554774165153503
232 251 0.20954927802085876
232 252 0.9511916637420654
232 253 0.9576583504676819
232 254 0.21447546780109406
232 255 0.5198214650154114
233 234 0.2083398997783661
233 235 0.7835527658462524
233 236 0.77583909034729
233 237 0.7924858331680298
233 238 0.7753506898880005
233 239 0.7829698324203491
233 240 0.33917903900146484
233 241 0.7686447501182556
233 242 0.3015749752521515
233 243 0.7923532724380493
233 244 0.784714937210083
233 245 0.7766613960266113
233 246 0.07098852097988129
233 247 0.7745460271835327
233 248 0.7778998017311096
233 249 0.12411962449550629
233 250 0.7781261801719666
233 251 0.19742433726787567
233 252 0.7655885219573975
233 253 0.7764965891838074
233 254 0.18138271570205688
233 255 0.4191543459892273
234 235 0.25324293971061707
234 236 0.23990876972675323
234 237 0.23716402053833008
234 238 0.24987003207206726
234 239 0.25026053190231323
234 240 0.1424507200717926
234 241 0.25144320726394653
234 242 0.0909508541226387
234 243 0.2503911256790161
234 244 0.24596774578094482
234 245 0.24016305804252625
234 247 0.2415587455034256
234 248 0.24462303519248962
234 250 0.24712766706943512
234 251 0.05653337389230728
234 252 0.2273494303226471
234 253 0.22235339879989624
234 255 0.11867816746234894
235 236 0.9561302065849304
235 237 0.9658737778663635
235 238 0.9642333984375
235 239 0.9626251459121704
235 240 0.5460439920425415
235 241 0.9598708152770996
235 242 0.38997095823287964
235 243 0.9631273746490479
235 244 0.9626602530479431
235 245 0.9550492167472839
235 246 0.1294327825307846
235 247 0.9642683863639832
235 248 0.9544742703437805
235 249 0.15422354638576508
235 250 0.9599042534828186
235 251 0.2084629386663437
235 252 0.959838330745697
235 253 0.9610141515731812
235 254 0.21336360275745392
235 255 0.5247594714164734
236 237 0.9561302065849304
236 238 0.9523189067840576
236 239 0.9517063498497009
236 240 0.5393885374069214
236 241 0.9488159418106079
236 242 0.373445063829422
236 243 0.9553560018539429
236 244 0.9538636207580566
236 245 0.9417378306388855
236 246 0.14547859132289886
236 247 0.9523782730102539
236 248 0.948544442653656
236 249 0.14922542870044708
236 250 0.9488730430603027
236 251 0.20106735825538635
236 252 0.94453364610672
236 253 0.950042188167572
236 254 0.21103663742542267
236 255 0.4960872232913971
237 238 0.9652701616287231
237 239 0.9636635780334473
237 240 0.5350498557090759
237 241 0.9588274359703064
237 242 0.3951705992221832
237 243 0.9652053117752075
237 244 0.9636975526809692
237 245 0.9550492167472839
237 246 0.12224207073450089
237 247 0.9663398265838623
237 248 0.9565719962120056
237 249 0.14081279933452606
237 250 0.9588619470596313
237 251 0.19876699149608612
237 252 0.959838330745697
237 253 0.9641343355178833
237 254 0.1943979561328888
237 255 0.5266677141189575
238 239 0.9599179029464722
238 240 0.5401127338409424
238 241 0.9602699279785156
238 242 0.38837653398513794
238 243 0.9604187607765198
238 244 0.96099853515625
238 245 0.9501785039901733
238 246 0.13697807490825653
238 247 0.9615789651870728
238 248 0.9516935348510742
238 249 0.1479010283946991
238 250 0.9561258554458618
238 251 0.19928286969661713
238 252 0.9560465812683105
238 253 0.9593372941017151
238 254 0.20440992712974548
238 255 0.5203819274902344
239 240 0.5519968271255493
239 241 0.9554847478866577
239 242 0.36548787355422974
239 243 0.9587898850440979
239 244 0.9614588618278503
239 245 0.9516635537147522
239 246 0.13719215989112854
239 247 0.9630818367004395
239 248 0.9489679336547852
239 249 0.14139892160892487
239 250 0.9555270671844482
239 251 0.18985801935195923
239 252 0.9522969126701355
239 253 0.958747923374176
239 254 0.21425171196460724
239 255 0.5288598537445068
240 241 0.5472106337547302
240 242 0.19347649812698364
240 243 0.5338753461837769
240 244 0.5459079146385193
240 245 0.5362491011619568
240 246 0.08918825536966324
240 247 0.5487282276153564
240 248 0.5240947008132935
240 250 0.5392486453056335
240 251 0.1460317224264145
240 252 0.5311318039894104
240 253 0.5436478853225708
240 254 0.13442055881023407
240 255 0.30768537521362305
241 242 0.38819876313209534
241 243 0.9517903327941895
241 244 0.9555364847183228
241 245 0.944538950920105
241 246 0.14509525895118713
241 247 0.958228349685669
241 248 0.9439285397529602
241 249 0.13530202209949493
241 250 0.949527382850647
241 251 0.2103198617696762
241 252 0.9515284895896912
241 253 0.9538347721099854
241 254 0.19612959027290344
241 255 0.5352095365524292
242 243 0.3813505470752716
242 244 0.3781469464302063
242 245 0.38173890113830566
242 247 0.3827657401561737
242 248 0.3744369447231293
242 249 0.1348591297864914
242 250 0.3720695674419403
242 251 0.07312723249197006
242 252 0.39648523926734924
242 253 0.38436394929885864
242 255 0.17749936878681183
243 244 0.9588338732719421
243 245 0.9500558972358704
243 246 0.13726374506950378
243 247 0.9594219326972961
243 248 0.9494631290435791
243 249 0.15494629740715027
243 250 0.9549785256385803
243 251 0.21431057155132294
243 252 0.9538431167602539
243 253 0.9582032561302185
243 254 0.21436350047588348
243 255 0.5253015160560608
244 245 0.9496223330497742
244 246 0.14426246285438538
244 247 0.961040198802948
244 248 0.9542928338050842
244 249 0.14797797799110413
244 250 0.9576687812805176
244 251 0.19938652217388153
244 252 0.9534008502960205
244 253 0.9577497839927673
244 254 0.20451626181602478
244 255 0.5187384486198425
245 246 0.13835114240646362
245 247 0.9544364809989929
245 248 0.9421148300170898
245 249 0.15617378056049347
245 250 0.9467125535011292
245 251 0.19146192073822021
245 252 0.9444771409034729
245 253 0.9521023631095886
245 254 0.21606169641017914
245 255 0.5120717883110046
246 247 0.12963402271270752
246 248 0.14586499333381653
246 250 0.13769562542438507
246 251 0.10112997144460678
246 252 0.14524821937084198
246 253 0.13740724325180054
246 255 0.07961173355579376
247 248 0.9496552348136902
247 249 0.15446335077285767
247 250 0.9572213292121887
247 251 0.20878705382347107
247 252 0.9571464657783508
247 253 0.958341658115387
247 254 0.21844415366649628
247 255 0.5255753993988037
248 249 0.12921881675720215
248 250 0.9471648931503296
248 251 0.18685010075569153
248 252 0.9438643455505371
248 253 0.9462361931800842
248 254 0.20197910070419312
248 255 0.5051465630531311
249 250 0.155433788895607
249 251 0.06286945939064026
249 252 0.14898912608623505
249 253 0.1551082730293274
249 254 0.06148754432797432
250 251 0.19544076919555664
250 252 0.9515810608863831
250 253 0.9517841339111328
250 254 0.2102593332529068
250 255 0.5096455812454224
251 252 0.21543793380260468
251 253 0.20478305220603943
251 255 0.12523984909057617
252 253 0.9537899494171143
252 254 0.21070244908332825
252 255 0.5261375308036804
253 254 0.2002817839384079
253 255 0.5277698636054993
254 255 0.13123604655265808
