0 1 0.21737240254878998
0 2 0.9337355494499207
0 3 0.9572916030883789
0 4 0.9518068432807922
0 5 0.9423691630363464
0 6 0.9461646676063538
0 7 0.9473466277122498
0 8 0.951250433921814
0 9 0.9537269473075867
0 10 0.9489585161209106
0 11 0.9416776299476624
0 12 0.16311603784561157
0 13 0.9399895071983337
0 14 0.13120871782302856
0 15 0.9536125063896179
0 16 0.16213011741638184
0 17 0.954521894454956
0 18 0.9610365629196167
0 19 0.953845202922821
0 20 0.1042521670460701
0 21 0.1140967383980751
0 22 0.9554502367973328
0 23 0.07392773777246475
0 24 0.9502166509628296
0 26 0.9565584063529968
0 27 0.9555095434188843
0 31 0.9236403107643127
0 32 0.9609781503677368
0 33 0.920576810836792
0 35 0.19016122817993164
0 36 0.5012784600257874
0 37 0.10100451856851578
0 38 0.948276698589325
0 40 0.20490843057632446
0 41 0.9610365629196167
0 42 0.9577838778495789
0 43 0.9484003782272339
0 44 0.16017676889896393
0 45 0.9369176626205444
0 46 0.9595630168914795
0 47 0.9621983170509338
0 48 0.9630672931671143
0 49 0.9449820518493652
0 50 0.10811888426542282
0 51 0.958458662033081
0 52 0.9523004293441772
0 53 0.949454128742218
0 54 0.949454128742218
0 55 0.05646324157714844
0 56 0.9476574659347534
0 57 0.7264058589935303
0 58 0.950136661529541
0 59 0.9432372450828552
0 60 0.951682448387146
0 61 0.9543408155441284
0 62 0.9354085922241211
0 63 0.9457332491874695
0 64 0.11965982615947723
0 65 0.19166527688503265
0 66 0.9515027403831482
0 67 0.9577838778495789
0 69 0.9555095434188843
0 70 0.16311603784561157
0 72 0.9570538401603699
0 73 0.956500232219696
0 74 0.0651981383562088
0 75 0.9539504647254944
0 76 0.9398627877235413
0 77 0.9431759119033813
0 78 0.9551385045051575
0 79 0.9403641819953918
0 80 0.1982387900352478
0 81 0.08693084865808487
0 82 0.16622328758239746
0 83 0.951870322227478
0 84 0.9454193115234375
0 85 0.9436769485473633
0 86 0.15304791927337646
0 87 0.07216111570596695
0 88 0.9555696249008179
0 89 0.2644146978855133
0 90 0.1850893497467041
0 91 0.1692245453596115
0 92 0.9444579482078552
0 93 0.9472206234931946
0 94 0.9555095434188843
0 95 0.14879369735717773
0 96 0.942675769329071
0 97 0.9605445861816406
0 98 0.0651981383562088
0 99 0.9593231081962585
0 100 0.9578320384025574
0 101 0.9528562426567078
0 102 0.961966335773468
0 103 0.1140967383980751
0 104 0.9216598272323608
0 105 0.9566773772239685
0 106 0.945919394493103
0 107 0.9522297978401184
0 108 0.861494243144989
0 110 0.9614531397819519
0 111 0.14704367518424988
0 112 0.1733115166425705
0 113 0.9553344249725342
0 114 0.2636435925960541
0 115 0.9558323621749878
0 116 0.9563092589378357
0 117 0.12510260939598083
0 118 0.9294176697731018
0 119 0.9451087117195129
0 120 0.09410540759563446
0 121 0.9168579578399658
0 122 0.9610958099365234
0 123 0.9476574659347534
0 124 0.9417421221733093
0 125 0.9389273524284363
0 126 0.9603126645088196
0 127 0.953289806842804
0 128 0.9551385045051575
0 129 0.9583367109298706
0 130 0.10431702435016632
0 131 0.820792019367218
0 132 0.9315699934959412
0 133 0.9682921767234802
0 134 0.08469486981630325
0 135 0.932639479637146
0 136 0.9465391039848328
0 137 0.9464202523231506
0 138 0.9557768702507019
0 139 0.9489367008209229
0 140 0.9429975152015686
0 141 0.954521894454956
0 142 0.949454128742218
0 143 0.9513140916824341
0 144 0.3230271339416504
0 145 0.9518068432807922
0 146 0.9440630078315735
0 147 0.9552014470100403
0 149 0.8426368832588196
0 150 0.9561846256256104
0 151 0.9431154727935791
0 152 0.9510049819946289
0 153 0.9540292620658875
0 154 0.9481565952301025
0 155 0.954584002494812
0 156 0.9521182179450989
0 157 0.9495162963867188
0 159 0.9521182179450989
0 160 0.1810852438211441
0 161 0.9421762824058533
0 162 0.9371050000190735
0 163 0.9428014159202576
0 164 0.25463998317718506
0 165 0.9571118950843811
0 166 0.9574386477470398
0 167 0.9389273524284363
0 168 0.13062246143817902
0 169 0.8798452615737915
0 170 0.959265410900116
0 171 0.9460402131080627
0 172 0.9354732036590576
0 173 0.12804660201072693
0 174 0.8768463730812073
0 175 0.9495793581008911
0 176 0.943056046962738
0 177 0.9544003009796143
0 178 0.7621530890464783
0 179 0.9528562426567078
0 180 0.9472832083702087
0 181 0.9577240347862244
0 182 0.9449820518493652
0 183 0.17864541709423065
0 184 0.9465998411178589
0 185 0.9131978154182434
0 186 0.14637413620948792
0 187 0.07392773777246475
0 188 0.960808515548706
0 189 0.1903776228427887
0 190 0.9500117897987366
0 191 0.9569966793060303
0 192 0.9482161998748779
0 193 0.9583367109298706
0 195 0.9503886103630066
0 196 0.20120583474636078
0 197 0.0651981383562088
0 198 0.18555715680122375
0 200 0.6498115658760071
0 201 0.9500117897987366
0 202 0.9446132183074951
0 203 0.950073778629303
0 204 0.1666489541530609
0 205 0.954282283782959
0 206 0.9505689740180969
0 207 0.9477795958518982
0 208 0.09277857840061188
0 209 0.17890220880508423
0 210 0.11965982615947723
0 211 0.9572916030883789
0 212 0.12625564634799957
0 213 0.9477795958518982
0 214 0.11218108981847763
0 215 0.9478419423103333
0 216 0.9353448748588562
0 217 0.9523004293441772
0 218 0.2865889370441437
0 219 0.08846089988946915
0 221 0.9539669752120972
0 222 0.9106819033622742
0 223 0.10811888426542282
0 224 0.9537856578826904
0 225 0.10100451856851578
0 226 0.9482161998748779
0 227 0.9493929743766785
0 228 0.10100451856851578
0 229 0.09828989207744598
0 230 0.9349258542060852
0 231 0.9554502367973328
0 232 0.18734844028949738
0 233 0.9406171441078186
0 234 0.14343591034412384
0 235 0.9575501680374146
0 236 0.936058759689331
0 237 0.9615293145179749
0 238 0.058314982801675797
0 239 0.24878542125225067
0 240 0.9389273524284363
0 241 0.9576651453971863
0 242 0.9539056420326233
0 243 0.09828989207744598
0 244 0.9455421566963196
0 245 0.9440630078315735
0 247 0.9417421221733093
0 248 0.9581032395362854
0 249 0.07985108345746994
0 250 0.9599336385726929
0 251 0.22823911905288696
0 252 0.947597861289978
0 253 0.15559439361095428
0 254 0.9503304362297058
0 255 0.9599930644035339
1 2 0.18475216627120972
1 3 0.21813064813613892
1 4 0.23217494785785675
1 5 0.22075538337230682
1 6 0.2380402535200119
1 7 0.17595724761486053
1 8 0.21914653480052948
1 9 0.21092838048934937
1 10 0.22862498462200165
1 11 0.2257654219865799
1 12 0.07856741547584534
1 13 0.20838935673236847
1 14 0.09128708392381668
1 15 0.21136966347694397
1 17 0.2318148910999298
1 18 0.22650694847106934
1 19 0.22803068161010742
1 20 0.05802588537335396
1 22 0.2103806734085083
1 24 0.22552688419818878
1 26 0.2189195454120636
1 27 0.2189195454120636
1 31 0.22680459916591644
1 32 0.22237902879714966
1 33 0.2305734008550644
1 35 0.15876321494579315
1 36 0.1066792905330658
1 37 0.10540924966335297
1 38 0.23363211750984192
1 40 0.09720198065042496
1 41 0.1960156410932541
1 42 0.2357022613286972
1 43 0.20235083997249603
1 45 0.22323653101921082
1 46 0.22181043028831482
1 47 0.23704740405082703
1 48 0.23109976947307587
1 49 0.20761936902999878
1 50 0.08206099271774292
1 51 0.23509836196899414
1 52 0.22352947294712067
1 53 0.2375422865152359
1 54 0.21994654834270477
1 56 0.22075538337230682
1 57 0.22229529917240143
1 58 0.2325366735458374
1 59 0.23031406104564667
1 60 0.21948833763599396
1 61 0.21498672664165497
1 62 0.22287695109844208
1 63 0.23766647279262543
1 65 0.08206099271774292
1 66 0.21136966347694397
1 67 0.2182428389787674
1 68 0.09622504562139511
1 69 0.22329795360565186
1 70 0.05237828195095062
1 72 0.22779427468776703
1 73 0.2147636115550995
1 75 0.20772884786128998
1 76 0.23104950785636902
1 77 0.2261246293783188
1 78 0.23145650327205658
1 79 0.20894461870193481
1 80 0.07698003947734833
1 81 0.09072183817625046
1 82 0.05337604880332947
1 83 0.21880631148815155
1 84 0.2344949096441269
1 85 0.21737240254878998
1 86 0.1388888955116272
1 87 0.17213259637355804
1 88 0.22744101285934448
1 89 0.15120308101177216
1 90 0.06622661650180817
1 92 0.22299662232398987
1 93 0.22481580078601837
1 94 0.23205474019050598
1 95 0.19876159727573395
1 96 0.2260046899318695
1 97 0.22203734517097473
1 99 0.2183551788330078
1 100 0.23779088258743286
1 101 0.2234136313199997
1 102 0.2357022613286972
1 103 0.13608276844024658
1 104 0.14919453859329224
1 105 0.22720640897750854
1 106 0.21691186726093292
1 107 0.2082788348197937
1 108 0.1733134388923645
1 110 0.22493386268615723
1 111 0.13344012200832367
1 113 0.2239946722984314
1 114 0.07337090373039246
1 115 0.19774536788463593
1 116 0.22662310302257538
1 117 0.08703882992267609
1 118 0.16672757267951965
1 119 0.1851424276828766
1 121 0.22781939804553986
1 122 0.2219237983226776
1 123 0.21634028851985931
1 124 0.21668268740177155
1 125 0.23055844008922577
1 126 0.22295202314853668
1 127 0.21059924364089966
1 128 0.22708939015865326
1 129 0.2224932610988617
1 131 0.2153988629579544
1 132 0.21430706977844238
1 133 0.2288781702518463
1 134 0.07856742292642593
1 135 0.23663072288036346
1 136 0.21214859187602997
1 137 0.2347431778907776
1 138 0.22874441742897034
1 139 0.22204464673995972
1 140 0.22684821486473083
1 141 0.22306716442108154
1 142 0.18915404379367828
1 143 0.23205474019050598
1 144 0.11134044080972672
1 145 0.21027164161205292
1 146 0.2401922196149826
1 147 0.22685587406158447
1 149 0.18434672057628632
1 150 0.23145650327205658
1 151 0.2219265103340149
1 152 0.20245663821697235
1 153 0.22732362151145935
1 154 0.21645423769950867
1 155 0.23594512045383453
1 156 0.22862498462200165
1 157 0.23729443550109863
1 159 0.1802620142698288
1 160 0.08399210125207901
1 161 0.21259759366512299
1 162 0.2091679722070694
1 163 0.21668268740177155
1 164 0.10286889970302582
1 165 0.22318245470523834
1 166 0.22838671505451202
1 167 0.21725699305534363
1 169 0.21235977113246918
1 170 0.2316952347755432
1 171 0.22528910636901855
1 172 0.22263818979263306
1 173 0.14847847819328308
1 174 0.1672479212284088
1 175 0.22387811541557312
1 176 0.23104950785636902
1 177 0.2103806734085083
1 178 0.25301748514175415
1 179 0.21465231478214264
1 180 0.21577320992946625
1 181 0.20972898602485657
1 182 0.1987845003604889
1 183 0.09622504562139511
1 184 0.2030949741601944
1 185 0.2293674498796463
1 187 0.05143444985151291
1 188 0.23618875443935394
1 189 0.08830215781927109
1 190 0.22862498462200165
1 191 0.23241589963436127
1 192 0.2250520884990692
1 193 0.20504280924797058
1 195 0.22481580078601837
1 196 0.20998026430606842
1 197 0.06804138422012329
1 198 0.08606629818677902
1 200 0.11938082426786423
1 201 0.2374182641506195
1 202 0.23791547119617462
1 203 0.21081849932670593
1 205 0.23717081546783447
1 206 0.21971707046031952
1 207 0.2202921062707901
1 209 0.1166900098323822
1 211 0.21813064813613892
1 212 0.14054566621780396
1 213 0.22469794750213623
1 214 0.062439050525426865
1 215 0.22446279227733612
1 216 0.21419180929660797
1 217 0.2103806734085083
1 218 0.08753762394189835
1 219 0.08206099271774292
1 221 0.21880631148815155
1 222 0.24216824769973755
1 223 0.08206099271774292
1 224 0.21070879697799683
1 226 0.2250520884990692
1 227 0.22017674148082733
1 230 0.18434834480285645
1 231 0.2103806734085083
1 232 0.18401749432086945
1 233 0.23461896181106567
1 234 0.054433103650808334
1 235 0.19723188877105713
1 236 0.21558721363544464
1 237 0.2135486900806427
1 239 0.08375315368175507
1 240 0.23942606151103973
1 241 0.22306716442108154
1 242 0.23217494785785675
1 243 0.08206099271774292
1 244 0.21634028851985931
1 245 0.22684821486473083
1 247 0.22552688419818878
1 248 0.23655560612678528
1 250 0.22673939168453217
1 252 0.2298276573419571
1 253 0.21650634706020355
1 254 0.22063928842544556
1 255 0.22215105593204498
2 3 0.943730354309082
2 4 0.9369745850563049
2 5 0.9271533489227295
2 6 0.9407098889350891
2 7 0.9355306625366211
2 8 0.9363938570022583
2 9 0.9538017511367798
2 10 0.9393216371536255
2 11 0.9263713359832764
2 12 0.15931646525859833
2 13 0.9267663955688477
2 14 0.09625668823719025
2 15 0.9332951903343201
2 16 0.15332990884780884
2 17 0.9387143850326538
2 18 0.9465185403823853
2 19 0.9347458481788635
2 20 0.1411956250667572
2 21 0.12417490780353546
2 22 0.9438594579696655
2 23 0.06257826834917068
2 24 0.9318488836288452
2 26 0.941816508769989
2 27 0.9364895224571228
2 31 0.9172386527061462
2 32 0.9421848058700562
2 33 0.9031952619552612
2 35 0.16004766523838043
2 36 0.47524023056030273
2 37 0.10259783267974854
2 38 0.9278382062911987
2 40 0.1939493715763092
2 41 0.9465185403823853
2 42 0.9442156553268433
2 43 0.9355306625366211
2 44 0.13767220079898834
2 45 0.926709771156311
2 46 0.9461255073547363
2 47 0.9378543496131897
2 48 0.9400627017021179
2 49 0.9276416897773743
2 50 0.09984038025140762
2 51 0.9417964816093445
2 52 0.9374604225158691
2 53 0.9333899021148682
2 54 0.9355306625366211
2 55 0.05735393241047859
2 56 0.9357480406761169
2 57 0.7059645652770996
2 58 0.9341639280319214
2 59 0.93332839012146
2 60 0.9431951642036438
2 61 0.9373667240142822
2 62 0.9230477809906006
2 63 0.9328069686889648
2 64 0.12914413213729858
2 65 0.18969671428203583
2 66 0.9354382157325745
2 67 0.9399672150611877
2 69 0.9396857023239136
2 70 0.1401984989643097
2 72 0.9391064643859863
2 73 0.9459924697875977
2 75 0.9410365223884583
2 76 0.9222532510757446
2 77 0.927845299243927
2 78 0.9393885135650635
2 79 0.931399405002594
2 80 0.15921957790851593
2 81 0.09933993220329285
2 82 0.14936324954032898
2 83 0.9370699524879456
2 84 0.9269582033157349
2 85 0.9261792302131653
2 86 0.1487029790878296
2 87 0.07329943031072617
2 88 0.9397786855697632
2 89 0.24283091723918915
2 90 0.14503556489944458
2 91 0.19875244796276093
2 92 0.925713837146759
2 93 0.938564658164978
2 94 0.9407510757446289
2 95 0.13904961943626404
2 96 0.9295098781585693
2 97 0.9460340142250061
2 98 0.06622661650180817
2 99 0.9447017908096313
2 100 0.9343667030334473
2 101 0.9380404949188232
2 102 0.9399672150611877
2 103 0.11589657515287399
2 104 0.9163966774940491
2 105 0.9441254138946533
2 106 0.9339116215705872
2 107 0.9338231682777405
2 108 0.8715696930885315
2 110 0.9358378648757935
2 111 0.14936324954032898
2 112 0.16468767821788788
2 113 0.9383426904678345
2 114 0.26780247688293457
2 115 0.9420396089553833
2 116 0.945943295955658
2 117 0.12707605957984924
2 118 0.9221490621566772
2 119 0.9332014322280884
2 120 0.10514888167381287
2 121 0.904711902141571
2 122 0.945550262928009
2 123 0.9325250387191772
2 124 0.9383050799369812
2 125 0.9310819506645203
2 126 0.9424849152565002
2 127 0.9437724947929382
2 128 0.9404511451721191
2 129 0.9532844424247742
2 130 0.1390758901834488
2 131 0.8276451230049133
2 132 0.9201913475990295
2 133 0.9530929327011108
2 134 0.08603090047836304
2 135 0.9169320464134216
2 136 0.9302818179130554
2 137 0.9344061613082886
2 138 0.9376715421676636
2 139 0.930406928062439
2 140 0.9308143854141235
2 141 0.9397786855697632
2 142 0.9366011023521423
2 143 0.9439473152160645
2 144 0.33113306760787964
2 145 0.9401723742485046
2 146 0.9199909567832947
2 147 0.943730354309082
2 149 0.825620174407959
2 150 0.9415137767791748
2 151 0.9299118518829346
2 152 0.9424456357955933
2 153 0.944612443447113
2 154 0.93516606092453
2 155 0.938809335231781
2 156 0.9361121654510498
2 157 0.9334853291511536
2 159 0.9393216371536255
2 160 0.19416078925132751
2 161 0.9322506785392761
2 162 0.9193999171257019
2 163 0.9286207556724548
2 164 0.23779743909835815
2 165 0.9391996264457703
2 166 0.9340677261352539
2 167 0.927845299243927
2 168 0.12487810105085373
2 169 0.872585117816925
2 170 0.9403574466705322
2 171 0.9297915101051331
2 172 0.9242259860038757
2 173 0.13729241490364075
2 174 0.8685858249664307
2 175 0.9389225840568542
2 176 0.9190096855163574
2 177 0.9427929520606995
2 178 0.7636962532997131
2 179 0.9433702826499939
2 180 0.9450819492340088
2 181 0.9451886415481567
2 182 0.9330161809921265
2 183 0.1580488532781601
2 184 0.9368223547935486
2 185 0.895232081413269
2 186 0.17841976881027222
2 187 0.07509391754865646
2 188 0.9376500844955444
2 189 0.18800906836986542
2 190 0.9350422620773315
2 191 0.9358128905296326
2 192 0.9341821670532227
2 193 0.9458534717559814
2 195 0.9321287274360657
2 196 0.1788322925567627
2 198 0.14136318862438202
2 200 0.6406960487365723
2 201 0.9329026341438293
2 202 0.9316400289535522
2 203 0.9351365566253662
2 204 0.15114088356494904
2 205 0.936205267906189
2 206 0.9366931915283203
2 207 0.932712197303772
2 208 0.08377078175544739
2 209 0.17604544758796692
2 210 0.12914413213729858
2 211 0.9416072368621826
2 212 0.11969747394323349
2 213 0.9359284043312073
2 214 0.1063539907336235
2 215 0.9306650161743164
2 216 0.9229539036750793
2 217 0.9374604225158691
2 218 0.29110977053642273
2 219 0.059904225170612335
2 220 0.05735393241047859
2 221 0.9413293600082397
2 222 0.891692578792572
2 223 0.0898563414812088
2 224 0.9367861747741699
2 225 0.10259783267974854
2 226 0.929887056350708
2 227 0.9290091395378113
2 228 0.10259783267974854
2 229 0.10982441902160645
2 230 0.9190393686294556
2 231 0.9438594579696655
2 232 0.16791513562202454
2 233 0.9285257458686829
2 234 0.11920791119337082
2 235 0.9406598806381226
2 236 0.9300596117973328
2 237 0.9491247534751892
2 238 0.07404360920190811
2 239 0.23640605807304382
2 240 0.9256875514984131
2 241 0.9429715871810913
2 242 0.9391064643859863
2 243 0.06988826394081116
2 244 0.9293020367622375
2 245 0.9243203401565552
2 247 0.9286207556724548
2 248 0.9348426461219788
2 249 0.06759226322174072
2 250 0.9453678131103516
2 251 0.20865558087825775
2 252 0.9367346167564392
2 253 0.1580488532781601
2 254 0.9341821670532227
2 255 0.9454585909843445
3 4 0.970080554485321
3 5 0.9600270390510559
3 6 0.9637071490287781
3 7 0.9699815511703491
3 8 0.9685184359550476
3 9 0.966899037361145
3 10 0.9663678407669067
3 11 0.9636063575744629
3 12 0.16658100485801697
3 13 0.9567833542823792
3 14 0.12186457961797714
3 15 0.9647723436355591
3 16 0.18143373727798462
3 17 0.9706369042396545
3 18 0.9758861660957336
3 19 0.9700543284416199
3 20 0.1230282261967659
3 21 0.12021948397159576
3 22 0.9685184359550476
3 23 0.08481889218091965
3 24 0.9625882506370544
3 26 0.9695783257484436
3 27 0.9695783257484436
3 31 0.9350404739379883
3 32 0.9738059639930725
3 33 0.9372645020484924
3 35 0.17632189393043518
3 36 0.5180981159210205
3 37 0.10760719329118729
3 38 0.9616302251815796
3 40 0.22440969944000244
3 41 0.9789646863937378
3 42 0.971722424030304
3 43 0.9668726325035095
3 44 0.1696377843618393
3 45 0.9508328437805176
3 46 0.9764390587806702
3 47 0.966926634311676
3 48 0.9748331904411316
3 49 0.9636547565460205
3 50 0.10632611066102982
3 51 0.9753866791725159
3 52 0.9685184359550476
3 53 0.9648000597953796
3 54 0.9637637734413147
3 56 0.9610671997070312
3 57 0.7479307055473328
3 58 0.9695246815681458
3 59 0.9588994979858398
3 60 0.9689948558807373
3 61 0.9684910774230957
3 62 0.9545517563819885
3 63 0.9642676711082458
3 64 0.13238516449928284
3 65 0.19332019984722137
3 66 0.9658097624778748
3 67 0.972750723361969
3 69 0.9737042188644409
3 70 0.16041132807731628
3 72 0.968016505241394
3 73 0.9695510268211365
3 75 0.9631216526031494
3 76 0.9556809663772583
3 77 0.9609614014625549
3 78 0.9742802977561951
3 79 0.958285391330719
3 80 0.2085529863834381
3 81 0.0854894146323204
3 82 0.16346704959869385
3 83 0.9711386561393738
3 84 0.9599699974060059
3 85 0.9593817591667175
3 86 0.1374223232269287
3 87 0.08110237121582031
3 88 0.9706369042396545
3 89 0.2885267436504364
3 90 0.19242145121097565
3 91 0.16641856729984283
3 92 0.9529629945755005
3 93 0.9647456407546997
3 94 0.9695783257484436
3 95 0.1638856679201126
3 96 0.9583638310432434
3 97 0.976412296295166
3 99 0.9722226858139038
3 100 0.9637349247932434
3 101 0.9690485596656799
3 102 0.9737789630889893
3 103 0.09617558121681213
3 104 0.9383295774459839
3 105 0.9706650376319885
3 106 0.9615206122398376
3 107 0.9604517817497253
3 108 0.8869046568870544
3 110 0.9631742238998413
3 111 0.15089266002178192
3 112 0.170437753200531
3 113 0.9726034998893738
3 114 0.2869277000427246
3 115 0.9689695239067078
3 116 0.9763864874839783
3 117 0.1503678262233734
3 118 0.9426687955856323
3 119 0.9647456407546997
3 120 0.10179950296878815
3 121 0.9327836632728577
3 122 0.9779632687568665
3 123 0.9641875624656677
3 124 0.9615465402603149
3 125 0.9578278660774231
3 126 0.9721956849098206
3 127 0.9664239287376404
3 128 0.9742802977561951
3 129 0.9753340482711792
3 130 0.1602926403284073
3 131 0.8461250066757202
3 132 0.9550400376319885
3 133 0.9847915172576904
3 134 0.10179950296878815
3 135 0.9497810006141663
3 136 0.9610392451286316
3 137 0.9599428772926331
3 138 0.9648000597953796
3 139 0.9551719427108765
3 140 0.9577493071556091
3 141 0.9696065187454224
3 142 0.9679089188575745
3 143 0.9706097841262817
3 144 0.3322429358959198
3 145 0.970080554485321
3 146 0.954605758190155
3 147 0.9753340482711792
3 149 0.8486184477806091
3 150 0.9711939096450806
3 151 0.9567549824714661
3 152 0.9642676711082458
3 153 0.9732255339622498
3 154 0.9615734219551086
3 155 0.9716944098472595
3 156 0.9642963409423828
3 157 0.965863823890686
3 159 0.9674035906791687
3 160 0.20281624794006348
3 161 0.9588994979858398
3 162 0.9593097567558289
3 163 0.9594630002975464
3 164 0.25041767954826355
3 165 0.9690768122673035
3 166 0.969499409198761
3 167 0.9578278660774231
3 168 0.12845654785633087
3 169 0.88344806432724
3 170 0.9732255339622498
3 171 0.9605327844619751
3 172 0.9535292983055115
3 173 0.12592339515686035
3 174 0.8915759921073914
3 175 0.9700289964675903
3 176 0.9556809663772583
3 177 0.9695510268211365
3 178 0.7900983691215515
3 179 0.968016505241394
3 180 0.9658097624778748
3 181 0.9716944098472595
3 182 0.9636547565460205
3 183 0.18135042488574982
3 184 0.9600270390510559
3 185 0.9261537194252014
3 186 0.16697856783866882
3 187 0.08481889218091965
3 188 0.9696065187454224
3 189 0.18202029168605804
3 190 0.9684394001960754
3 191 0.967988133430481
3 192 0.9647200703620911
3 193 0.9753340482711792
3 195 0.9657841920852661
3 196 0.19786952435970306
3 198 0.20275592803955078
3 200 0.6468489766120911
3 201 0.9663678407669067
3 202 0.962164044380188
3 203 0.966395378112793
3 204 0.1638856679201126
3 205 0.9674301147460938
3 206 0.965863823890686
3 207 0.9642398953437805
3 208 0.060826774686574936
3 209 0.1649397611618042
3 210 0.13973988592624664
3 211 0.9743062853813171
3 212 0.11588466912508011
3 213 0.9632019400596619
3 214 0.13238516449928284
3 215 0.9653044939041138
3 216 0.9555776715278625
3 217 0.972648561000824
3 218 0.2921479642391205
3 219 0.10632611066102982
3 220 0.05552699789404869
3 221 0.9690768122673035
3 222 0.9300269484519958
3 223 0.10632611066102982
3 224 0.9689948558807373
3 225 0.12416214495897293
3 226 0.9647200703620911
3 227 0.9668471217155457
3 228 0.10760719329118729
3 229 0.10632611066102982
3 230 0.9437860250473022
3 231 0.972648561000824
3 232 0.17340417206287384
3 233 0.9583920240402222
3 234 0.14746923744678497
3 235 0.9716160893440247
3 236 0.9438154101371765
3 237 0.9743331670761108
3 238 0.057348039001226425
3 239 0.25255247950553894
3 240 0.9609614014625549
3 241 0.9706369042396545
3 242 0.9690485596656799
3 243 0.10632611066102982
3 244 0.9673079252243042
3 245 0.954605758190155
3 246 0.06411705911159515
3 247 0.9615465402603149
3 248 0.9690485596656799
3 249 0.07852703332901001
3 250 0.9758604168891907
3 251 0.2244545817375183
3 252 0.9610392451286316
3 253 0.17001602053642273
3 254 0.9626409411430359
3 255 0.9769123196601868
4 5 0.959820568561554
4 6 0.9572658538818359
4 7 0.9594255685806274
4 8 0.9652671217918396
4 9 0.9615431427955627
4 10 0.962044894695282
4 11 0.9560733437538147
4 12 0.16107487678527832
4 13 0.95864337682724
4 14 0.14396314322948456
4 15 0.9635547399520874
4 16 0.17666351795196533
4 17 0.9663746953010559
4 18 0.9696188569068909
4 19 0.9636934399604797
4 20 0.1372634768486023
4 21 0.12071677297353745
4 22 0.9642303586006165
4 23 0.08516974747180939
4 24 0.9540172219276428
4 26 0.964267373085022
4 27 0.964267373085022
4 31 0.9335430264472961
4 32 0.9706138968467712
4 33 0.9400720000267029
4 35 0.19314683973789215
4 36 0.5221825242042542
4 37 0.12467575073242188
4 38 0.9583086371421814
4 40 0.2115417718887329
4 41 0.9696188569068909
4 42 0.9705793857574463
4 43 0.961506724357605
4 44 0.1581723988056183
4 45 0.9442043900489807
4 46 0.9722474813461304
4 47 0.962618887424469
4 48 0.9706138968467712
4 49 0.956146240234375
4 50 0.10676592588424683
4 51 0.9722121953964233
4 52 0.9642303586006165
4 53 0.9594255685806274
4 54 0.9604661464691162
4 56 0.956687331199646
4 57 0.7429344058036804
4 58 0.9621184468269348
4 59 0.9565796256065369
4 60 0.9657341837882996
4 61 0.9652321338653564
4 62 0.9500646591186523
4 63 0.9599272608757019
4 64 0.1403179168701172
4 65 0.20382586121559143
4 66 0.9614713191986084
4 67 0.9674817323684692
4 69 0.964267373085022
4 70 0.16107487678527832
4 72 0.9637306332588196
4 73 0.9642303586006165
4 75 0.9556049108505249
4 76 0.9512255191802979
4 77 0.9575945138931274
4 78 0.9679798483848572
4 79 0.9496297240257263
4 80 0.20941568911075592
4 81 0.09657341986894608
4 82 0.16414323449134827
4 83 0.9679093956947327
4 84 0.9566145539283752
4 85 0.9518068432807922
4 86 0.144561767578125
4 87 0.09161758422851562
4 88 0.9653400182723999
4 89 0.2754130959510803
4 90 0.1879953294992447
4 91 0.1932174116373062
4 92 0.9474097490310669
4 93 0.9593513607978821
4 94 0.9653031229972839
4 95 0.17044085264205933
4 96 0.9528934955596924
4 97 0.9711822271347046
4 98 0.06438227742910385
4 99 0.9690129160881042
4 100 0.959388017654419
4 101 0.9647668600082397
4 102 0.9685142636299133
4 103 0.12071677297353745
4 104 0.9368635416030884
4 105 0.9684786796569824
4 106 0.9539790153503418
4 107 0.9518452286720276
4 108 0.8780460953712463
4 110 0.9567252397537231
4 111 0.15783004462718964
4 112 0.18770499527454376
4 113 0.96312016248703
4 114 0.2881145775318146
4 115 0.9636221528053284
4 116 0.9721778631210327
4 117 0.150989830493927
4 118 0.9380404949188232
4 119 0.9593513607978821
4 120 0.11151337623596191
4 121 0.9258637428283691
4 122 0.9706856608390808
4 123 0.9556428790092468
4 124 0.9571554064750671
4 125 0.9554969072341919
4 126 0.9658758640289307
4 127 0.9621184468269348
4 128 0.9679798483848572
4 129 0.968016505241394
4 130 0.15451745688915253
4 131 0.8448852300643921
4 132 0.9442043900489807
4 133 0.9786496758460999
4 134 0.11151337623596191
4 135 0.946316659450531
4 136 0.9545593857765198
4 137 0.9523887038230896
4 138 0.9625473618507385
4 139 0.950718879699707
4 140 0.9480324387550354
4 141 0.9663746953010559
4 142 0.9594255685806274
4 143 0.9663388133049011
4 144 0.3453231453895569
4 145 0.9637306332588196
4 146 0.9522412419319153
4 147 0.9690485596656799
4 149 0.8426999449729919
4 150 0.9669467806816101
4 151 0.9565128684043884
4 152 0.9588861465454102
4 153 0.9669100642204285
4 154 0.9551013112068176
4 155 0.9674450755119324
4 156 0.9610047936439514
4 157 0.965701162815094
4 159 0.9610047936439514
4 160 0.20862242579460144
4 161 0.9565796256065369
4 162 0.949592113494873
4 163 0.9540172219276428
4 164 0.24739785492420197
4 165 0.9658389687538147
4 166 0.9610422849655151
4 167 0.9523503184318542
4 168 0.12898790836334229
4 169 0.8768271803855896
4 170 0.9689782857894897
4 171 0.9571912884712219
4 172 0.9511536359786987
4 173 0.13346897065639496
4 174 0.8816993236541748
4 175 0.9646956920623779
4 176 0.9491233825683594
4 177 0.9631934762001038
4 178 0.7819055318832397
4 179 0.9647668600082397
4 180 0.9614713191986084
4 181 0.9674450755119324
4 182 0.956146240234375
4 183 0.15933801233768463
4 184 0.9556428790092468
4 185 0.9299847483634949
4 186 0.17345097661018372
4 187 0.08516974747180939
4 188 0.9674093723297119
4 189 0.15144068002700806
4 190 0.9610047936439514
4 191 0.9626561403274536
4 192 0.9614036083221436
4 193 0.9690485596656799
4 195 0.9583086371421814
4 196 0.1887536197900772
4 197 0.06438227742910385
4 198 0.2035946398973465
4 200 0.6369734406471252
4 201 0.962044894695282
4 202 0.9588484764099121
4 203 0.9641591310501099
4 204 0.17044085264205933
4 205 0.9610422849655151
4 206 0.9625826478004456
4 207 0.9598907232284546
4 208 0.09161758422851562
4 209 0.18218424916267395
4 210 0.13293276727199554
4 211 0.968016505241394
4 212 0.12467575073242188
4 213 0.9578062295913696
4 214 0.1403179168701172
4 215 0.9609683752059937
4 216 0.9458077549934387
4 217 0.9642303586006165
4 218 0.2968077063560486
4 219 0.10676592588424683
4 220 0.05575668811798096
4 221 0.9668741822242737
4 222 0.9230652451515198
4 223 0.10676592588424683
4 224 0.9646956920623779
4 225 0.12467575073242188
4 226 0.9582719802856445
4 227 0.9645963907241821
4 228 0.11636403203010559
4 229 0.08735393732786179
4 230 0.9391809701919556
4 231 0.9663039445877075
4 232 0.1795627474784851
4 233 0.9560733437538147
4 234 0.15451745688915253
4 235 0.9663039445877075
4 236 0.9413447380065918
4 237 0.9690850377082825
4 239 0.24567224085330963
4 240 0.9544479846954346
4 241 0.9663746953010559
4 242 0.9647668600082397
4 243 0.0970599353313446
4 244 0.9577317833900452
4 245 0.9511890411376953
4 246 0.06438227742910385
4 247 0.9571554064750671
4 248 0.9637306332588196
4 249 0.0788518637418747
4 250 0.9706138968467712
4 251 0.22538304328918457
4 252 0.95665043592453
4 253 0.1821005791425705
4 254 0.9582719802856445
4 255 0.9696188569068909
5 6 0.9490290284156799
5 7 0.9533362984657288
5 8 0.9603182673454285
5 9 0.9523416757583618
5 10 0.9538868069648743
5 11 0.9530376195907593
5 12 0.1560976356267929
5 13 0.9460972547531128
5 14 0.14509525895118713
5 15 0.9522342681884766
5 16 0.18918107450008392
5 17 0.961460530757904
5 18 0.9627045392990112
5 19 0.9597712159156799
5 20 0.15217716991901398
5 21 0.11355499923229218
5 22 0.9592732787132263
5 23 0.08583950251340866
5 24 0.9499220848083496
5 26 0.9582797884941101
5 27 0.9572359323501587
5 31 0.9224991798400879
5 32 0.9616132974624634
5 33 0.9334520697593689
5 35 0.1784435361623764
5 36 0.49694183468818665
5 37 0.10890201479196548
5 38 0.9584878087043762
5 40 0.22710998356342316
5 41 0.9637430310249329
5 42 0.9605208039283752
5 43 0.952287495136261
5 44 0.15328483283519745
5 45 0.9367269277572632
5 46 0.9664129614830017
5 47 0.9555364847183228
5 48 0.960573673248291
5 49 0.9583992958068848
5 50 0.07825855165719986
5 51 0.9622117280960083
5 52 0.9634531736373901
5 53 0.9585801362991333
5 54 0.9533362984657288
5 56 0.9515789747238159
5 57 0.7501357197761536
5 58 0.9539936780929565
5 59 0.9482623934745789
5 60 0.9597228765487671
5 61 0.9539936780929565
5 62 0.9394691586494446
5 63 0.9517361521720886
5 64 0.1414213478565216
5 65 0.20542870461940765
5 66 0.9501345157623291
5 67 0.9615614414215088
5 69 0.9561920166015625
5 70 0.16234153509140015
5 72 0.956687331199646
5 73 0.958228349685669
5 75 0.9483672380447388
5 76 0.947053074836731
5 77 0.9439830780029297
5 78 0.9599740505218506
5 79 0.9507379531860352
5 80 0.211062490940094
5 81 0.07570332288742065
5 82 0.12089411169290543
5 83 0.9609141945838928
5 84 0.9556983113288879
5 85 0.944484531879425
5 86 0.14569856226444244
5 87 0.10259783267974854
5 88 0.9572893381118774
5 89 0.28478872776031494
5 90 0.19473683834075928
5 91 0.19473683834075928
5 92 0.9378468990325928
5 93 0.9490290284156799
5 94 0.9561920166015625
5 95 0.17178116738796234
5 96 0.9487650990486145
5 97 0.9653257131576538
5 98 0.06488857418298721
5 99 0.9599740505218506
5 100 0.9543339610099792
5 101 0.9587761759757996
5 102 0.9615614414215088
5 103 0.12977714836597443
5 104 0.9312962293624878
5 105 0.9583853483200073
5 106 0.9456496834754944
5 107 0.9455955028533936
5 108 0.8723251819610596
5 110 0.949527382850647
5 111 0.1399826556444168
5 112 0.16692446172237396
5 113 0.9570811986923218
5 114 0.286881685256958
5 115 0.9523416757583618
5 116 0.9631981253623962
5 117 0.13142573833465576
5 118 0.9357480406761169
5 119 0.9542838931083679
5 120 0.11239028722047806
5 121 0.9222813844680786
5 122 0.9637945890426636
5 123 0.9473683834075928
5 124 0.9488677978515625
5 125 0.9439830780029297
5 126 0.9588796496391296
5 127 0.956085741519928
5 128 0.9610152244567871
5 129 0.9600270390510559
5 130 0.15573255717754364
5 131 0.8431691527366638
5 132 0.9399203062057495
5 133 0.9719313383102417
5 134 0.11239028722047806
5 135 0.9473715424537659
5 136 0.9494209289550781
5 137 0.9472063779830933
5 138 0.9533362984657288
5 139 0.9454898238182068
5 140 0.9480642676353455
5 141 0.9583321213722229
5 142 0.9543850421905518
5 143 0.9582797884941101
5 144 0.3450891971588135
5 145 0.956687331199646
5 146 0.9448828101158142
5 147 0.9600270390510559
5 149 0.8540782928466797
5 150 0.9620563983917236
5 151 0.9428703188896179
5 152 0.9538347721099854
5 153 0.9609642028808594
5 154 0.9510270357131958
5 155 0.9615105390548706
5 156 0.9517903327941895
5 157 0.9544370770454407
5 159 0.9549350738525391
5 160 0.18523167073726654
5 161 0.9493183493614197
5 162 0.943265974521637
5 163 0.9488677978515625
5 164 0.2452557384967804
5 165 0.957784116268158
5 166 0.9591755270957947
5 167 0.9513826966285706
5 168 0.1300022453069687
5 169 0.8722155690193176
5 170 0.9609642028808594
5 171 0.9499738216400146
5 172 0.9405859708786011
5 173 0.14159847795963287
5 174 0.8909114599227905
5 175 0.9555364847183228
5 176 0.948112428188324
5 177 0.9561384320259094
5 178 0.784203827381134
5 179 0.9556428790092468
5 180 0.955383837223053
5 181 0.9594271183013916
5 182 0.9520801901817322
5 183 0.1663264036178589
5 184 0.9473683834075928
5 185 0.9187051057815552
5 186 0.18064212799072266
5 187 0.08583950251340866
5 188 0.9572893381118774
5 189 0.1789473593235016
5 190 0.9538868069648743
5 191 0.9545437097549438
5 192 0.9489744305610657
5 193 0.9610671997070312
5 195 0.9500799775123596
5 196 0.20525673031806946
5 197 0.06488857418298721
5 198 0.1949358880519867
5 200 0.6245888471603394
5 201 0.9528385400772095
5 202 0.9527331590652466
5 203 0.9539398550987244
5 204 0.17770466208457947
5 205 0.9549869298934937
5 206 0.963866114616394
5 207 0.9537835717201233
5 208 0.09233804792165756
5 209 0.18918107450008392
5 210 0.11909166723489761
5 211 0.9631474614143372
5 212 0.12565617263317108
5 213 0.954833984375
5 214 0.1414213478565216
5 215 0.9527854323387146
5 216 0.9362232089042664
5 217 0.9571834206581116
5 218 0.2713145911693573
5 219 0.10760551691055298
5 220 0.05619514361023903
5 221 0.957784116268158
5 222 0.9161621928215027
5 223 0.06847623735666275
5 224 0.9565830826759338
5 225 0.12565617263317108
5 226 0.9500264525413513
5 227 0.9511843323707581
5 228 0.10890201479196548
5 229 0.09782319515943527
5 230 0.9358466267585754
5 231 0.958228349685669
5 232 0.17549073696136475
5 233 0.9456496834754944
5 234 0.16222141683101654
5 235 0.9592732787132263
5 236 0.9326850771903992
5 237 0.9631981253623962
5 238 0.07254762947559357
5 239 0.24361056089401245
5 240 0.9460972547531128
5 241 0.961460530757904
5 242 0.9587761759757996
5 243 0.10760551691055298
5 244 0.9568421244621277
5 245 0.940640926361084
5 246 0.06488857418298721
5 247 0.9467592835426331
5 248 0.959820568561554
5 249 0.05298129469156265
5 250 0.9616132974624634
5 251 0.21352609992027283
5 252 0.950474739074707
5 253 0.17779718339443207
5 254 0.9479222893714905
5 255 0.9637430310249329
6 7 0.9528816342353821
6 8 0.956718921661377
6 9 0.9560716152191162
6 10 0.9544773697853088
6 11 0.9483751058578491
6 12 0.16831989586353302
6 13 0.947773277759552
6 14 0.1303800344467163
6 15 0.9528307318687439
6 16 0.161106139421463
6 17 0.9599459767341614
6 18 0.9632617831230164
6 19 0.9582594037055969
6 20 0.15193746984004974
6 21 0.12957270443439484
6 22 0.956718921661377
6 23 0.061217352747917175
6 24 0.9505310654640198
6 26 0.9609392285346985
6 27 0.9588547348976135
6 31 0.9307639598846436
6 32 0.9621744155883789
6 33 0.9266006946563721
6 35 0.1835613250732422
6 36 0.5117861032485962
6 37 0.125458225607872
6 38 0.9548792839050293
6 40 0.20824185013771057
6 41 0.9674093127250671
6 42 0.9631637930870056
6 43 0.9581172466278076
6 44 0.15916511416435242
6 45 0.941628098487854
6 46 0.9648906588554382
6 47 0.961345911026001
6 48 0.9621744155883789
6 49 0.9495289325714111
6 50 0.09766910970211029
6 51 0.963805079460144
6 52 0.958805501461029
6 53 0.9549759030342102
6 54 0.9560230374336243
6 55 0.056106630712747574
6 56 0.9521819353103638
6 57 0.7313156723976135
6 58 0.9566685557365417
6 59 0.9478229284286499
6 60 0.955076277256012
6 61 0.9598016738891602
6 62 0.9401113390922546
6 63 0.9533798694610596
6 64 0.13376706838607788
6 65 0.20510512590408325
6 66 0.9538789391517639
6 67 0.9610857963562012
6 69 0.9588547348976135
6 70 0.15585175156593323
6 72 0.9603942036628723
6 73 0.958805501461029
6 74 0.06478635221719742
6 75 0.9531857967376709
6 76 0.9466188549995422
6 77 0.9446069598197937
6 78 0.9646991491317749
6 79 0.9502986073493958
6 80 0.21073001623153687
6 81 0.09717953205108643
6 82 0.15882061421871185
6 83 0.9583587646484375
6 84 0.9478737115859985
6 85 0.9461646676063538
6 86 0.15208128094673157
6 87 0.10243622213602066
6 88 0.9589048027992249
6 89 0.28434011340141296
6 90 0.17341060936450958
6 91 0.19443008303642273
6 92 0.9469859600067139
6 93 0.9569779634475708
6 94 0.9588547348976135
6 95 0.17742474377155304
6 96 0.9472705721855164
6 97 0.9679504036903381
6 98 0.06478635221719742
6 99 0.9626200795173645
6 100 0.9538789391517639
6 101 0.9593513607978821
6 102 0.9610857963562012
6 103 0.12957270443439484
6 104 0.9330578446388245
6 105 0.9631161689758301
6 106 0.9515363574028015
6 107 0.9504351615905762
6 108 0.8743890523910522
6 110 0.951181173324585
6 111 0.16517344117164612
6 112 0.17777228355407715
6 113 0.9555734992027283
6 114 0.2724575698375702
6 115 0.9539795517921448
6 116 0.9627182483673096
6 117 0.12431247532367706
6 118 0.9342740178108215
6 119 0.9538300037384033
6 120 0.09351105988025665
6 121 0.9229978322982788
6 122 0.9643480181694031
6 123 0.9553348422050476
6 124 0.94737309217453
6 125 0.947773277759552
6 126 0.9604911208152771
6 127 0.9618905186653137
6 128 0.9626200795173645
6 129 0.966822624206543
6 130 0.16196587681770325
6 131 0.8418409824371338
6 132 0.9384397268295288
6 133 0.9734841585159302
6 134 0.09351105988025665
6 135 0.9469420313835144
6 136 0.9521337151527405
6 137 0.9541487693786621
6 138 0.9528816342353821
6 139 0.9450575709342957
6 140 0.945512056350708
6 141 0.9609870910644531
6 142 0.9549759030342102
6 143 0.9619814157485962
6 144 0.33865591883659363
6 145 0.9603942036628723
6 146 0.9423356652259827
6 147 0.9637071490287781
6 149 0.8396868705749512
6 150 0.9646991491317749
6 151 0.9466677904129028
6 152 0.9607135653495789
6 153 0.9604911208152771
6 154 0.9526834487915039
6 155 0.9620760679244995
6 156 0.9534308314323425
6 157 0.9550256133079529
6 159 0.9534308314323425
6 160 0.20493340492248535
6 161 0.9509859085083008
6 162 0.9428394436836243
6 163 0.9526363015174866
6 164 0.21222014725208282
6 165 0.9594005346298218
6 166 0.9555734992027283
6 167 0.9530503749847412
6 168 0.13743260502815247
6 169 0.8685439229011536
6 170 0.9604911208152771
6 171 0.9484773874282837
6 172 0.947583794593811
6 173 0.14844419062137604
6 174 0.8792707324028015
6 175 0.9561212062835693
6 176 0.9434458017349243
6 177 0.9598488211631775
6 178 0.7804056406021118
6 179 0.9635224938392639
6 180 0.9549272060394287
6 181 0.961035966873169
6 182 0.9505804181098938
6 183 0.1775171309709549
6 184 0.9553348422050476
6 185 0.9205338954925537
6 186 0.18035757541656494
6 187 0.08570428937673569
6 188 0.9589048027992249
6 189 0.19968494772911072
6 190 0.9576170444488525
6 191 0.9582594037055969
6 192 0.9516811370849609
6 193 0.9657841920852661
6 195 0.9517313838005066
6 196 0.20493340492248535
6 198 0.16389794647693634
6 200 0.6330775022506714
6 201 0.960756778717041
6 202 0.9564762711524963
6 203 0.9555734992027283
6 204 0.16559642553329468
6 205 0.9566190242767334
6 206 0.9550256133079529
6 207 0.9522812366485596
6 208 0.10243622213602066
6 209 0.16666151583194733
6 210 0.13376706838607788
6 211 0.9637071490287781
6 212 0.125458225607872
6 213 0.9554275274276733
6 214 0.13376706838607788
6 215 0.9523321986198425
6 216 0.9464327096939087
6 217 0.9598488211631775
6 218 0.2882517874240875
6 219 0.058601461350917816
6 220 0.056106630712747574
6 221 0.961483895778656
6 222 0.9255955815315247
6 223 0.09766910970211029
6 224 0.955076277256012
6 225 0.11709434539079666
6 226 0.9527316093444824
6 227 0.9517825245857239
6 228 0.10873046517372131
6 229 0.10743601620197296
6 230 0.9333021640777588
6 231 0.958805501461029
6 232 0.1806897222995758
6 233 0.9462676048278809
6 234 0.12309407442808151
6 235 0.956718921661377
6 236 0.9397689700126648
6 237 0.9637556672096252
6 238 0.07243335247039795
6 239 0.25120145082473755
6 240 0.9456623792648315
6 241 0.9630694389343262
6 242 0.9593513607978821
6 243 0.06836837530136108
6 244 0.9490290284156799
6 245 0.9433944225311279
6 246 0.06478635221719742
6 247 0.9526363015174866
6 248 0.9572658538818359
6 249 0.06612230092287064
6 250 0.9652882218360901
6 251 0.22226165235042572
6 252 0.9479253888130188
6 253 0.1775171309709549
6 254 0.9537820219993591
6 255 0.9632617831230164
7 8 0.9599231481552124
7 9 0.9603345394134521
7 10 0.9577024579048157
7 11 0.9527003765106201
7 12 0.15552569925785065
7 13 0.9521097540855408
7 14 0.08673817664384842
7 15 0.9581595659255981
7 16 0.1884879171848297
7 17 0.9631326198577881
7 18 0.9705590009689331
7 19 0.9604213833808899
7 20 0.1378360092639923
7 21 0.11313892900943756
7 22 0.9661698937416077
7 23 0.07330713421106339
7 24 0.9537946581840515
7 26 0.963089108467102
7 27 0.9610089659690857
7 31 0.9298943281173706
7 32 0.9674118757247925
7 33 0.9300318956375122
7 35 0.15623947978019714
7 36 0.4853745996952057
7 37 0.06677108258008957
7 38 0.9560230374336243
7 40 0.20780619978904724
7 41 0.9664201736450195
7 42 0.9642593860626221
7 43 0.9582027792930603
7 44 0.1588321328163147
7 45 0.9492032527923584
7 46 0.9742364287376404
7 47 0.9572492837905884
7 48 0.9684476852416992
7 49 0.9569864869117737
7 50 0.09746478497982025
7 51 0.9669597148895264
7 52 0.9609642624855042
7 53 0.9561128616333008
7 54 0.9592476487159729
7 56 0.9606777429580688
7 57 0.7473872303962708
7 58 0.9619625806808472
7 59 0.9489964842796326
7 60 0.9582920074462891
7 61 0.9609203934669495
7 62 0.9487332105636597
7 63 0.9566128253936768
7 64 0.11865531653165817
7 65 0.1949295699596405
7 66 0.9592055678367615
7 67 0.9684066772460938
7 69 0.9682893753051758
7 70 0.11197850853204727
7 72 0.9646285176277161
7 73 0.9609642624855042
7 75 0.9564411044120789
7 76 0.9509713053703308
7 77 0.9489501118659973
7 78 0.9668304324150085
7 79 0.9504225850105286
7 80 0.21943214535713196
7 81 0.05387568473815918
7 82 0.14580929279327393
7 83 0.9677885174751282
7 84 0.9542986750602722
7 85 0.95261549949646
7 86 0.11217274516820908
7 87 0.10222192108631134
7 88 0.9631326198577881
7 89 0.26578670740127563
7 90 0.1782917082309723
7 91 0.1782917082309723
7 92 0.941826581954956
7 93 0.9591644406318665
7 94 0.963089108467102
7 95 0.15344642102718353
7 96 0.9537100791931152
7 97 0.9659254550933838
7 99 0.9647557139396667
7 100 0.9560675024986267
7 101 0.9625473618507385
7 102 0.9632225036621094
7 103 0.09697622805833817
7 104 0.9439931511878967
7 105 0.9652529358863831
7 106 0.9537519812583923
7 107 0.9526574611663818
7 108 0.8714161515235901
7 110 0.9554774165153503
7 111 0.12679068744182587
7 112 0.1774003952741623
7 113 0.9650508165359497
7 114 0.2718876004219055
7 115 0.9665976166725159
7 116 0.9679509997367859
7 117 0.12405241280794144
7 118 0.93874192237854
7 119 0.9623057842254639
7 120 0.10264696925878525
7 121 0.9264786243438721
7 122 0.9705998301506042
7 123 0.952287495136261
7 124 0.954845130443573
7 125 0.9489501118659973
7 126 0.9667893052101135
7 127 0.9609203934669495
7 128 0.9678677916526794
7 129 0.9679089188575745
7 130 0.15516197681427002
7 131 0.8424596190452576
7 132 0.9513244032859802
7 133 0.9755508899688721
7 134 0.09331542253494263
7 135 0.9428399205207825
7 136 0.9585408568382263
7 137 0.9532048106193542
7 138 0.9592476487159729
7 139 0.9473000764846802
7 140 0.9477604031562805
7 141 0.9641715884208679
7 142 0.9676071405410767
7 143 0.9651691913604736
7 144 0.33207011222839355
7 145 0.9646285176277161
7 146 0.9477604031562805
7 147 0.9668726325035095
7 149 0.8509489297866821
7 150 0.9637182950973511
7 151 0.9457417130470276
7 152 0.9597492814064026
7 153 0.964712381362915
7 154 0.9548877477645874
7 155 0.9652529358863831
7 156 0.9577024579048157
7 157 0.9603345394134521
7 159 0.9650131464004517
7 160 0.17457714676856995
7 161 0.9553090929985046
7 162 0.9524956941604614
7 163 0.9558955430984497
7 164 0.2525023818016052
7 165 0.9657094478607178
7 166 0.9629641771316528
7 167 0.9521097540855408
7 168 0.12190674990415573
7 169 0.8713127970695496
7 170 0.964712381362915
7 171 0.9517398476600647
7 172 0.9477168321609497
7 173 0.12697169184684753
7 174 0.8899173736572266
7 175 0.9614202976226807
7 176 0.9488604068756104
7 177 0.9630465507507324
7 178 0.7826093435287476
7 179 0.9625473618507385
7 180 0.9592055678367615
7 181 0.9694045186042786
7 182 0.9643316864967346
7 183 0.16000260412693024
7 184 0.9554338455200195
7 185 0.9142493605613708
7 186 0.16256283223628998
7 187 0.08552499115467072
7 188 0.9620936512947083
7 189 0.18353557586669922
7 190 0.9608355760574341
7 191 0.9593797326087952
7 192 0.954931378364563
7 193 0.9689452648162842
7 195 0.9570701718330383
7 196 0.17457714676856995
7 198 0.1942216455936432
7 200 0.642781138420105
7 201 0.956658124923706
7 202 0.9534287452697754
7 203 0.9598342776298523
7 204 0.15934820473194122
7 205 0.9567043781280518
7 206 0.9592906832695007
7 207 0.9628478288650513
7 208 0.06133314594626427
7 209 0.16631287336349487
7 210 0.14090318977832794
7 211 0.9679089188575745
7 212 0.10850300639867783
7 213 0.9586616158485413
7 214 0.11865531653165817
7 215 0.9597492814064026
7 216 0.9423328638076782
7 217 0.9651287794113159
7 218 0.2876487374305725
7 219 0.08771830052137375
7 220 0.05598925054073334
7 221 0.9615514278411865
7 222 0.9182323217391968
7 223 0.09746478497982025
7 224 0.9676768183708191
7 225 0.12519577145576477
7 226 0.9591242074966431
7 227 0.95711350440979
7 228 0.10850300639867783
7 229 0.10721126198768616
7 230 0.9388261437416077
7 231 0.9620053768157959
7 232 0.1475277692079544
7 233 0.9537519812583923
7 234 0.1486968994140625
7 235 0.9661698937416077
7 236 0.938869833946228
7 237 0.9669157266616821
7 238 0.07228181511163712
7 239 0.25067591667175293
7 240 0.9500033855438232
7 241 0.9631326198577881
7 242 0.9646285176277161
7 243 0.09746478497982025
7 244 0.9585801362991333
7 245 0.9456472396850586
7 247 0.9495929479598999
7 248 0.961506724357605
7 249 0.0791807547211647
7 250 0.9684476852416992
7 251 0.2082172930240631
7 252 0.9574909806251526
7 253 0.13714508712291718
7 254 0.9538831114768982
7 255 0.9726284742355347
8 9 0.9651618599891663
8 10 0.9615030884742737
8 11 0.953425943851471
8 12 0.12396799772977829
8 13 0.9528441429138184
8 14 0.14403779804706573
8 15 0.9588432908058167
8 16 0.18780232965946198
8 17 0.9658405184745789
8 18 0.9711526036262512
8 19 0.9631552696228027
8 20 0.13046792149543762
8 21 0.1207793727517128
8 22 0.9636929035186768
8 23 0.07304049283266068
8 24 0.9534652829170227
8 26 0.9668399095535278
8 27 0.9637311697006226
8 31 0.9308062791824341
8 32 0.9711171984672546
8 33 0.9362794160842896
8 35 0.17714306712150574
8 36 0.5030311942100525
8 37 0.10810833424329758
8 38 0.9640220999717712
8 40 0.20705033838748932
8 41 0.9701216220855713
8 42 0.9679834842681885
8 43 0.9630465507507324
8 44 0.1521676927804947
8 45 0.9468073844909668
8 46 0.9727515578269958
8 47 0.9620791673660278
8 48 0.9711171984672546
8 49 0.9555965065956116
8 50 0.10682129114866257
8 51 0.9716858267784119
8 52 0.9647303223609924
8 53 0.9588820338249207
8 54 0.9599231481552124
8 55 0.05578560009598732
8 56 0.958228349685669
8 57 0.7487158179283142
8 58 0.9626173377037048
8 59 0.9528825283050537
8 60 0.9620791673660278
8 61 0.9626173377037048
8 62 0.9463372826576233
8 63 0.9604250192642212
8 64 0.14039067924022675
8 65 0.18936499953269958
8 66 0.9598855376243591
8 67 0.9679834842681885
8 69 0.9647673964500427
8 70 0.14256320893764496
8 72 0.9652671217918396
8 73 0.9657676219940186
8 75 0.9561004042625427
8 76 0.9548736810684204
8 77 0.9549428820610046
8 78 0.9674481749534607
8 79 0.9522265195846558
8 80 0.22318889200687408
8 81 0.06441566348075867
8 82 0.15791189670562744
8 83 0.9715185165405273
8 84 0.9550161957740784
8 85 0.9554502367973328
8 86 0.1249135360121727
8 87 0.10185010731220245
8 88 0.9668757319450378
8 89 0.2791345417499542
8 90 0.18809279799461365
8 91 0.18809279799461365
8 92 0.9457898139953613
8 93 0.9598488211631775
8 94 0.9658036828041077
8 95 0.16464892029762268
8 96 0.9575830101966858
8 97 0.9696250557899475
8 98 0.06441566348075867
8 99 0.9684817790985107
8 100 0.9578010439872742
8 101 0.9673407077789307
8 102 0.9679834842681885
8 103 0.11272741109132767
8 104 0.9405595064163208
8 105 0.9669126868247986
8 106 0.9544737339019775
8 107 0.9523388147354126
8 108 0.8796408176422119
8 110 0.9572213292121887
8 111 0.15159541368484497
8 112 0.16570793092250824
8 113 0.9646590352058411
8 114 0.2813178300857544
8 115 0.9630818367004395
8 116 0.9706190228462219
8 117 0.13046792149543762
8 118 0.9374604225158691
8 119 0.958805501461029
8 120 0.1022736057639122
8 121 0.9306573867797852
8 122 0.972218930721283
8 123 0.962408185005188
8 124 0.9534652829170227
8 125 0.9538935422897339
8 126 0.9663767218589783
8 127 0.9615789651870728
8 128 0.9695153832435608
8 129 0.9695510268211365
8 130 0.15459758043289185
8 131 0.8571791648864746
8 132 0.9457507133483887
8 133 0.9791570901870728
8 134 0.07438080757856369
8 135 0.9499775171279907
8 136 0.9540082812309265
8 137 0.9518342614173889
8 138 0.9630465507507324
8 139 0.9522628784179688
8 140 0.9506295919418335
8 141 0.9648053646087646
8 142 0.9599231481552124
8 143 0.9647673964500427
8 144 0.33671820163726807
8 145 0.9631934762001038
8 146 0.9506295919418335
8 147 0.9685184359550476
8 149 0.8443161249160767
8 150 0.9674481749534607
8 151 0.9507057666778564
8 152 0.9614666700363159
8 153 0.9684460759162903
8 154 0.9545510411262512
8 155 0.9679467678070068
8 156 0.9625437259674072
8 157 0.966201901435852
8 159 0.9646248817443848
8 160 0.19879105687141418
8 161 0.9560273289680481
8 162 0.9521910548210144
8 163 0.9576517343521118
8 164 0.25564172863960266
8 165 0.9642683863639832
8 166 0.9615405201911926
8 167 0.9528441429138184
8 168 0.10628042370080948
8 169 0.8738549947738647
8 170 0.9663767218589783
8 171 0.9576875567436218
8 172 0.9495390057563782
8 173 0.10542488098144531
8 174 0.8878113627433777
8 175 0.9641570448875427
8 176 0.9569768905639648
8 177 0.9636929035186768
8 178 0.7848592400550842
8 179 0.9642303586006165
8 180 0.9661388397216797
8 181 0.9679467678070068
8 182 0.9566420316696167
8 183 0.16511422395706177
8 184 0.958228349685669
8 185 0.9250383973121643
8 186 0.1735409051179886
8 187 0.08521391451358795
8 188 0.9679110050201416
8 189 0.16196879744529724
8 190 0.9594219326972961
8 191 0.9641931653022766
8 192 0.9566799998283386
8 193 0.9685184359550476
8 195 0.9577622413635254
8 196 0.178911954164505
8 197 0.06441566348075867
8 198 0.2037002146244049
8 200 0.6451522707939148
8 201 0.9625437259674072
8 202 0.9593456387519836
8 203 0.9605010151863098
8 204 0.1764095574617386
8 205 0.9656984806060791
8 206 0.9651618599891663
8 207 0.96247398853302
8 208 0.08148008584976196
8 209 0.18227870762348175
8 210 0.13300170004367828
8 211 0.9674859046936035
8 212 0.09979230910539627
8 213 0.9572601318359375
8 214 0.12561272084712982
8 215 0.9604250192642212
8 216 0.9494666457176208
8 217 0.9678422808647156
8 218 0.2762433588504791
8 219 0.10682129114866257
8 220 0.05578560009598732
8 221 0.9673755764961243
8 222 0.9278696775436401
8 223 0.10682129114866257
8 224 0.9651960134506226
8 225 0.10810833424329758
8 226 0.9587688446044922
8 227 0.9609277248382568
8 228 0.10810833424329758
8 229 0.10682129114866257
8 230 0.9407321810722351
8 231 0.9636929035186768
8 232 0.16876763105392456
8 233 0.9544737339019775
8 234 0.16103914380073547
8 235 0.9657676219940186
8 236 0.9397069215774536
8 237 0.9726819396018982
8 238 0.057615119963884354
8 239 0.24976414442062378
8 240 0.9601898193359375
8 241 0.9658405184745789
8 242 0.9642303586006165
8 243 0.10682129114866257
8 244 0.9550934433937073
8 245 0.9495768547058105
8 247 0.9545118808746338
8 248 0.9642303586006165
8 249 0.06574396789073944
8 250 0.9711171984672546
8 251 0.22098992764949799
8 252 0.9561004042625427
8 253 0.16511422395706177
8 254 0.9577244520187378
8 255 0.9721835255622864
9 10 0.9608765244483948
9 11 0.9548577070236206
9 12 0.15536342561244965
9 13 0.9511163830757141
9 14 0.11553024500608444
9 15 0.9571599364280701
9 16 0.16060137748718262
9 17 0.9621278047561646
9 18 0.9695464372634888
9 19 0.9604598879814148
9 20 0.11015376448631287
9 21 0.1130208894610405
9 22 0.9630818367004395
9 23 0.07323065400123596
9 24 0.9538488984107971
9 26 0.965201199054718
9 27 0.9610453844070435
9 31 0.9332296848297119
9 32 0.9684720039367676
9 33 0.9301343560218811
9 35 0.18298621475696564
9 36 0.4984990358352661
9 37 0.1000521183013916
9 38 0.9550256133079529
9 40 0.21681559085845947
9 41 0.9674791693687439
9 42 0.9653248190879822
9 43 0.9572030305862427
9 44 0.1647689789533615
9 45 0.9524507522583008
9 46 0.9701239466667175
9 47 0.9593755602836609
9 48 0.9684720039367676
9 49 0.9559879899024963
9 50 0.10709939897060394
9 51 0.9690501093864441
9 52 0.9620417952537537
9 53 0.9592906832695007
9 54 0.9592906832695007
9 56 0.96177077293396
9 57 0.7425498366355896
9 58 0.9620001316070557
9 59 0.9532613754272461
9 60 0.9614588618278503
9 61 0.9599179029464722
9 62 0.9498588442802429
9 63 0.958747923374176
9 64 0.13334797322750092
9 65 0.18012170493602753
9 66 0.9602946639060974
9 67 0.9642890691757202
9 69 0.9641622304916382
9 70 0.13671982288360596
9 72 0.9646616578102112
9 73 0.9610016942024231
9 75 0.9585896134376526
9 76 0.9510335326194763
9 77 0.9553248882293701
9 78 0.9668580293655396
9 79 0.9525957703590393
9 80 0.19636955857276917
9 81 0.0861111581325531
9 82 0.1646559238433838
9 83 0.9626251459121704
9 84 0.9554027915000916
9 85 0.9505689740180969
9 86 0.14501327276229858
9 87 0.09190374612808228
9 88 0.9642035365104675
9 89 0.2619214653968811
9 90 0.18334409594535828
9 91 0.1728672981262207
9 92 0.9450773000717163
9 93 0.9602557420730591
9 94 0.9631232619285583
9 95 0.15328632295131683
9 96 0.9548182487487793
9 97 0.9669839143753052
9 99 0.9647854566574097
9 100 0.9571599364280701
9 101 0.965701162815094
9 102 0.9653248190879822
9 103 0.1130208894610405
9 104 0.9344256520271301
9 105 0.9642459154129028
9 106 0.9538072943687439
9 107 0.9516635537147522
9 108 0.8865005970001221
9 110 0.9586668610572815
9 111 0.1583230048418045
9 112 0.1772153079509735
9 113 0.9702971577644348
9 114 0.29249656200408936
9 115 0.9728884100914001
9 116 0.9690093398094177
9 117 0.1445768177509308
9 118 0.9420396089553833
9 119 0.9550256133079529
9 120 0.09321806579828262
9 121 0.9265931844711304
9 122 0.9685545563697815
9 123 0.9575800895690918
9 124 0.9559475779533386
9 125 0.9542728066444397
9 126 0.9668179750442505
9 127 0.9640824198722839
9 128 0.9689306020736694
9 129 0.9700047373771667
9 130 0.13562507927417755
9 131 0.8499014377593994
9 132 0.9460940361022949
9 133 0.9776073694229126
9 134 0.09321806579828262
9 135 0.9418562054634094
9 136 0.9564920663833618
9 137 0.9543123841285706
9 138 0.9655537605285645
9 139 0.9505269527435303
9 140 0.9467715620994568
9 141 0.9652414917945862
9 142 0.9592906832695007
9 143 0.971435010433197
9 144 0.3317236602306366
9 145 0.9646616578102112
9 146 0.9467715620994568
9 147 0.966899037361145
9 149 0.8465142846107483
9 150 0.9647854566574097
9 151 0.947914719581604
9 152 0.9608367085456848
9 153 0.9657806158065796
9 154 0.9549397826194763
9 155 0.9663195013999939
9 156 0.9598332047462463
9 157 0.9635035991668701
9 159 0.9598332047462463
9 160 0.169412299990654
9 161 0.9564143419265747
9 162 0.946221649646759
9 163 0.9527995586395264
9 164 0.24410219490528107
9 165 0.9636635780334473
9 166 0.9598750472068787
9 167 0.9500643014907837
9 168 0.09894589334726334
9 169 0.8784205317497253
9 170 0.9678552746772766
9 171 0.9570361971855164
9 172 0.9498979449272156
9 173 0.1127459704875946
9 174 0.8833193182945251
9 175 0.9614588618278503
9 176 0.9499791264533997
9 177 0.9641218781471252
9 178 0.7754056453704834
9 179 0.965701162815094
9 180 0.9623845815658569
9 181 0.9673563241958618
9 182 0.9538915157318115
9 183 0.17696093022823334
9 184 0.9565324187278748
9 185 0.9165611863136292
9 186 0.17399272322654724
9 187 0.08543576300144196
9 188 0.9662793874740601
9 189 0.19905932247638702
9 190 0.9587898850440979
9 191 0.959419310092926
9 192 0.9570764899253845
9 193 0.9720752239227295
9 195 0.9592097401618958
9 196 0.18436044454574585
9 198 0.1991247832775116
9 200 0.6578485369682312
9 201 0.9598332047462463
9 202 0.9555704593658447
9 203 0.9609172344207764
9 204 0.17097321152687073
9 205 0.9598750472068787
9 206 0.9582898616790771
9 207 0.9576614499092102
9 208 0.051057640463113785
9 209 0.1772153079509735
9 210 0.13334797322750092
9 211 0.965863823890686
9 212 0.10838979482650757
9 213 0.9587069153785706
9 214 0.11853152513504028
9 215 0.958747923374176
9 216 0.9455852508544922
9 217 0.9630818367004395
9 218 0.26311445236206055
9 219 0.09736309200525284
9 220 0.055930834263563156
9 221 0.9615867137908936
9 222 0.9205271005630493
9 223 0.09736309200525284
9 224 0.9625005125999451
9 225 0.11672747135162354
9 226 0.9549822211265564
9 227 0.9550700187683105
9 228 0.1000521183013916
9 229 0.10709939897060394
9 230 0.9389135837554932
9 231 0.9672420024871826
9 232 0.18558189272880554
9 233 0.9517063498497009
9 234 0.14208340644836426
9 235 0.9651618599891663
9 236 0.9496138691902161
9 237 0.9700434803962708
9 238 0.07220640033483505
9 239 0.24643957614898682
9 240 0.9542728066444397
9 241 0.9662793874740601
9 242 0.9636221528053284
9 243 0.09736309200525284
9 244 0.9544370770454407
9 245 0.9478271007537842
9 247 0.9527995586395264
9 248 0.9667406678199768
9 249 0.07909814268350601
9 250 0.9705413579940796
9 251 0.19895656406879425
9 252 0.9617360234260559
9 253 0.16554409265518188
9 254 0.9581235647201538
9 255 0.9705801010131836
10 11 0.9532540440559387
10 12 0.15544450283050537
10 13 0.9537180066108704
10 14 0.1444881558418274
10 15 0.9607957601547241
10 16 0.14960342645645142
10 17 0.9636682271957397
10 18 0.9669498801231384
10 19 0.9609610438346863
10 20 0.13776405155658722
10 21 0.12115699052810669
10 22 0.963584303855896
10 23 0.07326886802911758
10 24 0.9511969089508057
10 26 0.9625862836837769
10 27 0.961546778678894
10 31 0.930485725402832
10 32 0.9669067859649658
10 33 0.9316930770874023
10 35 0.18846642971038818
10 36 0.5201901793479919
10 37 0.12513041496276855
10 38 0.9576170444488525
10 40 0.21692872047424316
10 41 0.9659156203269958
10 42 0.9647921919822693
10 43 0.956658124923706
10 44 0.15874920785427094
10 45 0.9508276581764221
10 46 0.969597578048706
10 47 0.9609183073043823
10 48 0.9669067859649658
10 49 0.9512428641319275
10 50 0.10715528577566147
10 51 0.9726566672325134
10 52 0.9615030884742737
10 53 0.9577024579048157
10 54 0.9577024579048157
10 55 0.05596001818776131
10 56 0.9559832811355591
10 57 0.7334645390510559
10 58 0.9625020623207092
10 59 0.9527071714401245
10 60 0.96196049451828
10 61 0.9604187607765198
10 62 0.9450629949569702
10 63 0.9582032561302185
10 64 0.14082962274551392
10 65 0.17534500360488892
10 66 0.9555683732032776
10 67 0.9647921919822693
10 69 0.9625862836837769
10 70 0.1616622805595398
10 72 0.9651650190353394
10 73 0.9615030884742737
10 75 0.9506950974464417
10 76 0.9546944499015808
10 77 0.9484546780586243
10 78 0.9663257002830505
10 79 0.9467599391937256
10 80 0.2101793885231018
10 81 0.09692560136318207
10 82 0.158405601978302
10 83 0.9662443399429321
10 84 0.9516995549201965
10 85 0.9479053020477295
10 86 0.15827883780002594
10 87 0.10216855257749557
10 88 0.968860387802124
10 89 0.25128859281539917
10 90 0.17819862067699432
10 91 0.19916316866874695
10 92 0.9445114731788635
10 93 0.9565705060958862
10 94 0.9636257886886597
10 95 0.1710624247789383
10 96 0.955316424369812
10 97 0.9664548635482788
10 98 0.06461706012487411
10 99 0.963215172290802
10 100 0.9545229077339172
10 101 0.9610047936439514
10 102 0.9668647646903992
10 103 0.10500272363424301
10 104 0.9306197166442871
10 105 0.9626742005348206
10 106 0.9522029757499695
10 107 0.9490038156509399
10 108 0.8892491459846497
10 110 0.9549785256385803
10 111 0.16474182903766632
10 112 0.17176689207553864
10 113 0.9614186882972717
10 114 0.2961330711841583
10 115 0.9619197845458984
10 116 0.9684802889823914
10 117 0.15154045820236206
10 118 0.938251793384552
10 119 0.9586637020111084
10 120 0.09326670318841934
10 121 0.9303219318389893
10 122 0.969059944152832
10 123 0.9538868069648743
10 124 0.9532967209815979
10 125 0.9526653289794922
10 126 0.964208722114563
10 127 0.9604187607765198
10 128 0.9683992862701416
10 129 0.9653320908546448
10 130 0.15508095920085907
10 131 0.8432091474533081
10 132 0.9434076547622681
10 133 0.9760668277740479
10 134 0.10259337723255157
10 135 0.9423476457595825
10 136 0.9517444968223572
10 137 0.9527071714401245
10 138 0.9608355760574341
10 139 0.9478598833084106
10 140 0.9462094902992249
10 141 0.9626297950744629
10 142 0.956658124923706
10 143 0.9625862836837769
10 144 0.3495195508003235
10 145 0.962044894695282
10 146 0.9483216404914856
10 147 0.9694751501083374
10 149 0.8398585915565491
10 150 0.9663257002830505
10 151 0.950516939163208
10 152 0.962382972240448
10 153 0.9631708264350891
10 154 0.9522916078567505
10 155 0.9647489786148071
10 156 0.9582463502883911
10 157 0.9598332047462463
10 159 0.9572024941444397
10 160 0.1944272667169571
10 161 0.9516556262969971
10 162 0.9467153549194336
10 163 0.9553964734077454
10 164 0.24830004572868347
10 165 0.961049497127533
10 166 0.9582903981208801
10 167 0.9526653289794922
10 168 0.08376713842153549
10 169 0.8697119951248169
10 170 0.9652466773986816
10 171 0.9522916078567505
10 172 0.9461649060249329
10 173 0.1410059928894043
10 174 0.8758386373519897
10 175 0.9588338732719421
10 176 0.9462551474571228
10 177 0.9615030884742737
10 178 0.7937037348747253
10 179 0.962044894695282
10 180 0.9545229077339172
10 181 0.965786337852478
10 182 0.9543891549110413
10 183 0.1713418811559677
10 184 0.9528385400772095
10 185 0.9203067421913147
10 186 0.17988631129264832
10 187 0.08548034727573395
10 188 0.9667835235595703
10 189 0.1939220279455185
10 190 0.9603340029716492
10 191 0.962002158164978
10 192 0.9523374438285828
10 193 0.9653320908546448
10 195 0.9586637020111084
10 196 0.15953007340431213
10 197 0.06461706012487411
10 198 0.189011812210083
10 200 0.6251247525215149
10 201 0.9592901468276978
10 202 0.9560690522193909
10 203 0.9635041356086731
10 204 0.1533662974834442
10 205 0.9593331217765808
10 206 0.9567033052444458
10 207 0.9560690522193909
10 208 0.061301130801439285
10 209 0.18838949501514435
10 210 0.12600545585155487
10 211 0.9642963409423828
10 212 0.11678838729858398
10 213 0.9571150541305542
10 214 0.12600545585155487
10 215 0.9571583271026611
10 216 0.9429003000259399
10 217 0.9625437259674072
10 218 0.29442623257637024
10 219 0.09741389006376266
10 220 0.05596001818776131
10 221 0.961049497127533
10 222 0.9199225902557373
10 223 0.10715528577566147
10 224 0.96196049451828
10 225 0.11678838729858398
10 226 0.9554805159568787
10 227 0.9545229077339172
10 228 0.10010432451963425
10 229 0.10715528577566147
10 230 0.9415384531021118
10 231 0.9646248817443848
10 232 0.18021757900714874
10 233 0.951151967048645
10 234 0.15508095920085907
10 235 0.9604625105857849
10 236 0.9458439946174622
10 237 0.9653761386871338
10 238 0.0722440779209137
10 239 0.258498877286911
10 240 0.9495073556900024
10 241 0.9626297950744629
10 242 0.9599647521972656
10 243 0.10715528577566147
10 244 0.9517903327941895
10 245 0.9462094902992249
10 247 0.9522468447685242
10 248 0.9610047936439514
10 249 0.07913941890001297
10 250 0.9679421186447144
10 251 0.2171567678451538
10 252 0.9548923969268799
10 253 0.1713418811559677
10 254 0.9617665410041809
10 255 0.9710865616798401
11 12 0.15651004016399384
11 13 0.9422375559806824
11 14 0.12365680187940598
11 15 0.954750120639801
11 16 0.15620778501033783
11 17 0.9566817879676819
11 18 0.9590004682540894
11 19 0.9528725743293762
11 20 0.14564381539821625
11 21 0.11385500431060791
11 22 0.9565691351890564
11 23 0.08606629818677902
11 24 0.9492605924606323
11 26 0.9576716423034668
11 27 0.9534851908683777
11 31 0.9195147156715393
11 32 0.9589422345161438
11 33 0.9261915683746338
11 35 0.17891499400138855
11 36 0.5159094333648682
11 37 0.11758894473314285
11 38 0.9483751058578491
11 40 0.2091214507818222
11 41 0.961082935333252
11 42 0.9599282741546631
11 43 0.9505972862243652
11 44 0.17213259637355804
11 45 0.9424036145210266
11 46 0.9627283215522766
11 47 0.9538636207580566
11 48 0.9578999280929565
11 49 0.9472037553787231
11 50 0.1078898087143898
11 51 0.9605909585952759
11 52 0.9523782730102539
11 53 0.954803466796875
11 54 0.954803466796875
11 56 0.9467051029205322
11 57 0.7194167375564575
11 58 0.9554653167724609
11 59 0.9444151520729065
11 60 0.9538636207580566
11 61 0.9512701034545898
11 62 0.9430167078971863
11 63 0.9510942697525024
11 64 0.1194063052535057
11 65 0.2108755260705948
11 66 0.9505395293235779
11 67 0.9588848948478699
11 69 0.9555783867835999
11 70 0.15651004016399384
11 72 0.9602620601654053
11 73 0.9523782730102539
11 74 0.06506000459194183
11 75 0.9498162865638733
11 76 0.9410580396652222
11 77 0.9454171657562256
11 78 0.9562467336654663
11 79 0.9404973983764648
11 80 0.22082097828388214
11 81 0.08674667030572891
11 82 0.15949146449565887
11 83 0.9571762681007385
11 84 0.9508198499679565
11 85 0.9406171441078186
11 86 0.15272367000579834
11 87 0.10286889225244522
11 88 0.9577273726463318
11 89 0.23855334520339966
11 90 0.18997427821159363
11 91 0.1846972107887268
11 92 0.9413908123970032
11 93 0.9483751058578491
11 94 0.9534851908683777
11 95 0.17817415297031403
11 96 0.943856418132782
11 97 0.9616316556930542
11 98 0.06506000459194183
11 99 0.9593784809112549
11 100 0.9494868516921997
11 101 0.9560733437538147
11 102 0.9599282741546631
11 103 0.11385500431060791
11 104 0.9207879304885864
11 105 0.9556950330734253
11 106 0.9449735879898071
11 107 0.943856418132782
11 108 0.8631216287612915
11 110 0.9488730430603027
11 111 0.15949146449565887
11 112 0.18410202860832214
11 113 0.9617096185684204
11 114 0.2981630265712738
11 115 0.9569586515426636
11 116 0.9594921469688416
11 117 0.14564381539821625
11 118 0.9328344464302063
11 119 0.9494287967681885
11 120 0.09390603005886078
11 121 0.9138262271881104
11 122 0.9621802568435669
11 123 0.9509267210960388
11 124 0.9439752101898193
11 125 0.9432974457740784
11 126 0.9572330713272095
11 127 0.959660530090332
11 128 0.9604223966598511
11 129 0.9615206122398376
11 130 0.14963801205158234
11 131 0.8370147943496704
11 132 0.9402690529823303
11 133 0.9683052897453308
11 134 0.10329663008451462
11 135 0.9381345510482788
11 136 0.9477031826972961
11 137 0.9465327262878418
11 138 0.9505972862243652
11 139 0.9394952058792114
11 140 0.9452527165412903
11 141 0.9566817879676819
11 142 0.9505972862243652
11 143 0.9545317888259888
11 144 0.34304365515708923
11 145 0.9550261497497559
11 146 0.9388729929924011
11 147 0.9625635147094727
11 149 0.8313235640525818
11 150 0.9583345651626587
11 151 0.9389953017234802
11 152 0.9489901065826416
11 153 0.9582780599594116
11 154 0.9482597708702087
11 155 0.964050829410553
11 156 0.9490500092506409
11 157 0.9496054649353027
11 159 0.9501010179519653
11 160 0.18572105467319489
11 161 0.942297637462616
11 162 0.9446942210197449
11 163 0.9492605924606323
11 164 0.2418053150177002
11 165 0.9540380239486694
11 166 0.9554101824760437
11 167 0.9443573355674744
11 168 0.11501092463731766
11 169 0.8583678603172302
11 170 0.9561880230903625
11 171 0.9472037553787231
11 172 0.9398776888847351
11 173 0.14907118678092957
11 174 0.8727041482925415
11 175 0.9507155418395996
11 176 0.9399958848953247
11 177 0.9565691351890564
11 178 0.7734070420265198
11 179 0.9581676721572876
11 180 0.9484341740608215
11 181 0.9577839970588684
11 182 0.9461477994918823
11 183 0.18401747941970825
11 184 0.9488159418106079
11 185 0.9134563207626343
11 186 0.17527681589126587
11 187 0.08606629818677902
11 188 0.9566817879676819
11 189 0.19525133073329926
11 190 0.9501010179519653
11 191 0.9518243074417114
11 192 0.9493718147277832
11 193 0.9615206122398376
11 195 0.9515363574028015
11 196 0.18572105467319489
11 198 0.20059433579444885
11 200 0.6357515454292297
11 201 0.9490500092506409
11 202 0.9478779435157776
11 203 0.9533103704452515
11 204 0.1662958711385727
11 205 0.9533103704452515
11 206 0.9506559371948242
11 207 0.9520907402038574
11 208 0.09258200228214264
11 209 0.17852318286895752
11 210 0.1343320906162262
11 211 0.9583920240402222
11 212 0.11758894473314285
11 213 0.9520907402038574
11 214 0.11194340884685516
11 215 0.950042188167572
11 216 0.9386966824531555
11 217 0.953425943851471
11 218 0.2755190134048462
11 219 0.09808164834976196
11 220 0.05634361505508423
11 221 0.9571762681007385
11 222 0.9284129738807678
11 223 0.09808164834976196
11 224 0.9538636207580566
11 225 0.1259881556034088
11 226 0.9514815807342529
11 227 0.9494868516921997
11 228 0.1259881556034088
11 229 0.1078898087143898
11 230 0.9286457896232605
11 231 0.9576168656349182
11 232 0.17045579850673676
11 233 0.9439153075218201
11 234 0.162650004029274
11 235 0.9544737339019775
11 236 0.9340755939483643
11 237 0.9605339169502258
11 238 0.058191437274217606
11 239 0.2602708339691162
11 240 0.9443573355674744
11 241 0.9587728977203369
11 242 0.9539790153503418
11 243 0.09808164834976196
11 244 0.9530376195907593
11 245 0.9452527165412903
11 247 0.9439752101898193
11 248 0.9592148661613464
11 249 0.07968190312385559
11 250 0.9620692133903503
11 251 0.2095351368188858
11 252 0.9466466903686523
11 253 0.16676583886146545
11 254 0.9483169913291931
11 255 0.961082935333252
12 13 0.1504887044429779
12 15 0.15568846464157104
12 17 0.16701066493988037
12 18 0.15400442481040955
12 19 0.1674436628818512
12 22 0.16115839779376984
12 24 0.16885226964950562
12 25 0.13608276844024658
12 26 0.15479950606822968
12 27 0.16718345880508423
12 31 0.16037507355213165
12 32 0.1603289693593979
12 33 0.121480792760849
12 35 0.06415002793073654
12 36 0.09284141659736633
12 37 0.24845200777053833
12 38 0.14961767196655273
12 40 0.0824786126613617
12 41 0.16016460955142975
12 42 0.16049383580684662
12 43 0.15552569925785065
12 44 0.2182178795337677
12 45 0.1515379697084427
12 46 0.14761754870414734
12 47 0.16140975058078766
12 48 0.1479959636926651
12 49 0.16867424547672272
12 51 0.1539255827665329
12 52 0.16735678911209106
12 53 0.1679677516222
12 54 0.1679677516222
12 56 0.13736592233181
12 57 0.14509524405002594
12 58 0.15512098371982574
12 59 0.16912035644054413
12 60 0.1489936113357544
12 61 0.16753067076206207
12 62 0.17020563781261444
12 63 0.15560701489448547
12 65 0.08703882992267609
12 66 0.16191600263118744
12 67 0.14814814925193787
12 69 0.16718345880508423
12 70 0.25925925374031067
12 72 0.16727006435394287
12 73 0.148761585354805
12 75 0.15001171827316284
12 76 0.13824181258678436
12 77 0.16302943229675293
12 78 0.16675245761871338
12 79 0.16346381604671478
12 81 0.25660011172294617
12 83 0.14234189689159393
12 84 0.1626843959093094
12 85 0.1505686491727829
12 86 0.19641855359077454
12 88 0.1422683447599411
12 92 0.15768243372440338
12 93 0.14338362216949463
12 94 0.13622356951236725
12 95 0.21081849932670593
12 96 0.15667593479156494
12 97 0.1539255827665329
12 99 0.16675245761871338
12 100 0.16191600263118744
12 101 0.13009893894195557
12 102 0.16049383580684662
12 104 0.12787452340126038
12 105 0.1544799953699112
12 106 0.16277045011520386
12 107 0.16294297575950623
12 108 0.15659308433532715
12 110 0.15593357384204865
12 111 0.07548514008522034
12 112 0.0990147516131401
12 113 0.14907120168209076
12 114 0.08300971239805222
12 115 0.161577969789505
12 116 0.14792005717754364
12 117 0.08206099271774292
12 118 0.15294381976127625
12 119 0.14961767196655273
12 121 0.1482052356004715
12 122 0.1600007563829422
12 123 0.1560976356267929
12 124 0.16259847581386566
12 125 0.1442183554172516
12 126 0.16692446172237396
12 127 0.16753067076206207
12 128 0.14822439849376678
12 129 0.16658100485801697
12 132 0.1515379697084427
12 133 0.16489490866661072
12 134 0.0555555559694767
12 135 0.17048022150993347
12 136 0.1687631756067276
12 137 0.15032920241355896
12 138 0.14930467307567596
12 139 0.16957001388072968
12 140 0.1572607010602951
12 141 0.16082507371902466
12 142 0.15552569925785065
12 143 0.16099147498607635
12 144 0.1224682405591011
12 145 0.14868450164794922
12 146 0.16355112195014954
12 147 0.1480720043182373
12 149 0.12682977318763733
12 150 0.16057643294334412
12 151 0.16947980225086212
12 152 0.14938272535800934
12 153 0.1545596867799759
12 154 0.1499326527118683
12 155 0.1544799953699112
12 156 0.16788005828857422
12 157 0.11186166852712631
12 159 0.14922671020030975
12 161 0.15032920241355896
12 162 0.1447571963071823
12 163 0.15009090304374695
12 165 0.16709700226783752
12 166 0.16770510375499725
12 167 0.16302943229675293
12 168 0.09072183817625046
12 169 0.17063751816749573
12 170 0.16692446172237396
12 171 0.1499326527118683
12 172 0.15742897987365723
12 173 0.293972373008728
12 174 0.12839889526367188
12 175 0.15520167350769043
12 176 0.15080922842025757
12 177 0.16735678911209106
12 178 0.16749058663845062
12 179 0.16727006435394287
12 180 0.11832323670387268
12 181 0.1544799953699112
12 182 0.1499326527118683
12 183 0.17010346055030823
12 184 0.14985373616218567
12 185 0.1297498345375061
12 188 0.15463949739933014
12 189 0.12487810105085373
12 190 0.16788005828857422
12 191 0.1426372081041336
12 192 0.1622561663389206
12 193 0.16041132807731628
12 195 0.16831989586353302
12 196 0.26726123690605164
12 200 0.07503554970026016
12 201 0.16788005828857422
12 202 0.14953923225402832
12 203 0.16149379312992096
12 205 0.16770510375499725
12 206 0.15536342561244965
12 207 0.13707764446735382
12 211 0.16041132807731628
12 212 0.09938079863786697
12 213 0.16823163628578186
12 215 0.15560701489448547
12 216 0.1577671617269516
12 217 0.14256320893764496
12 218 0.10316407680511475
12 221 0.16090822219848633
12 222 0.15508419275283813
12 224 0.1489936113357544
12 226 0.1622561663389206
12 227 0.16191600263118744
12 230 0.14625079929828644
12 231 0.16115839779376984
12 232 0.09759000688791275
12 233 0.150249645113945
12 235 0.148761585354805
12 236 0.16514678299427032
12 237 0.13559339940547943
12 240 0.13794799149036407
12 241 0.16701066493988037
12 242 0.16727006435394287
12 244 0.16234153509140015
12 245 0.16355112195014954
12 247 0.16259847581386566
12 248 0.14868450164794922
12 250 0.1603289693593979
12 251 0.08084520697593689
12 252 0.16251268982887268
12 253 0.10206206887960434
12 254 0.16849678754806519
12 255 0.13552390038967133
13 14 0.11656805127859116
13 15 0.9457259774208069
13 16 0.16763177514076233
13 17 0.9561095833778381
13 18 0.9584404826164246
13 19 0.9512388706207275
13 20 0.14587555825710297
13 21 0.130327045917511
13 22 0.9549428820610046
13 23 0.06157374009490013
13 24 0.9412420988082886
13 26 0.9560505151748657
13 27 0.9529055953025818
13 31 0.9231498837471008
13 32 0.9583799839019775
13 33 0.9244178533554077
13 35 0.19549055397510529
13 36 0.5167303681373596
13 37 0.10936346650123596
13 38 0.9530503749847412
13 40 0.20014509558677673
13 41 0.9584404826164246
13 42 0.9583204388618469
13 43 0.9510565400123596
13 44 0.16009171307086945
13 45 0.9364202618598938
13 46 0.9611361622810364
13 47 0.9522281885147095
13 48 0.9594239592552185
13 49 0.9434226155281067
13 50 0.09823770821094513
13 51 0.9610770344734192
13 52 0.9517947435379028
13 53 0.9478968977928162
13 54 0.9510565400123596
13 55 0.05643326789140701
13 56 0.9492685794830322
13 57 0.7314790487289429
13 58 0.9527837038040161
13 59 0.9427365064620972
13 60 0.9553813338279724
13 61 0.9506826996803284
13 62 0.9381137490272522
13 63 0.9515538811683655
13 64 0.1420205980539322
13 65 0.21121105551719666
13 66 0.9478346109390259
13 67 0.9583204388618469
13 69 0.9539539217948914
13 70 0.15675906836986542
13 72 0.9513015151023865
13 73 0.9570416808128357
13 74 0.0651635229587555
13 75 0.9513275623321533
13 76 0.9436191320419312
13 77 0.9416135549545288
13 78 0.9567225575447083
13 79 0.9377361536026001
13 80 0.17509475350379944
13 81 0.09774527698755264
13 82 0.1533554047346115
13 83 0.9566037654876709
13 84 0.9427987337112427
13 85 0.944238007068634
13 86 0.1130623146891594
13 87 0.08242606371641159
13 88 0.9529678821563721
13 89 0.2678944766521454
13 90 0.20084744691848755
13 91 0.19027653336524963
13 92 0.9332782626152039
13 93 0.947773277759552
13 94 0.9529055953025818
13 95 0.14276611804962158
13 96 0.9389922022819519
13 97 0.9589921832084656
13 98 0.0651635229587555
13 99 0.9588137865066528
13 100 0.9467803239822388
13 101 0.9523503184318542
13 102 0.957275390625
13 103 0.11403615772724152
13 104 0.9330775141716003
13 105 0.9593079090118408
13 106 0.9464771151542664
13 107 0.9442972540855408
13 108 0.8817847967147827
13 110 0.9440469741821289
13 111 0.1597452163696289
13 112 0.1843949407339096
13 113 0.9516724944114685
13 114 0.2775571644306183
13 115 0.9521685242652893
13 116 0.9578884243965149
13 117 0.10419682413339615
13 118 0.9364764094352722
13 119 0.947773277759552
13 120 0.10346099734306335
13 121 0.9174620509147644
13 122 0.9585018157958984
13 123 0.9492685794830322
13 124 0.9454771876335144
13 125 0.9426752328872681
13 126 0.954569399356842
13 127 0.956985592842102
13 128 0.9567225575447083
13 129 0.958872377872467
13 130 0.156392440199852
13 131 0.8311503529548645
13 132 0.9342823028564453
13 133 0.9667441248893738
13 134 0.11286653578281403
13 135 0.9374892711639404
13 136 0.9418036937713623
13 137 0.9437969326972961
13 138 0.9478968977928162
13 139 0.9388634562492371
13 140 0.9403668642044067
13 141 0.9529678821563721
13 142 0.9531629681587219
13 143 0.951857328414917
13 144 0.34655147790908813
13 145 0.95864337682724
13 146 0.9393019080162048
13 147 0.9557387828826904
13 149 0.8445752859115601
13 150 0.9556769728660583
13 151 0.9404894113540649
13 152 0.9483925104141235
13 153 0.958756148815155
13 154 0.9423649907112122
13 155 0.9540772438049316
13 156 0.9526653289794922
13 157 0.9605854749679565
13 159 0.9558233618736267
13 160 0.19104403257369995
13 161 0.9406155943870544
13 162 0.9398040175437927
13 163 0.9475947022438049
13 164 0.24629496037960052
13 165 0.9534605145454407
13 166 0.9495694041252136
13 167 0.9458598494529724
13 168 0.12287351489067078
13 169 0.863200306892395
13 170 0.954569399356842
13 171 0.944480299949646
13 172 0.9360426068305969
13 173 0.14219845831394196
13 174 0.8706603646278381
13 175 0.9490751624107361
13 176 0.9372361898422241
13 177 0.9549428820610046
13 178 0.7836600542068481
13 179 0.9554969072341919
13 180 0.9488889575004578
13 181 0.9561694860458374
13 182 0.9476532340049744
13 183 0.1555117815732956
13 184 0.9450401663780212
13 185 0.9127129912376404
13 186 0.1580001413822174
13 187 0.08620323240756989
13 188 0.9550623893737793
13 189 0.16384923458099365
13 190 0.9547706842422485
13 191 0.9554386138916016
13 192 0.9487693309783936
13 193 0.9609614014625549
13 195 0.9456623792648315
13 196 0.18601655960083008
13 197 0.0651635229587555
13 198 0.20606516301631927
13 200 0.6097681522369385
13 201 0.9484546780586243
13 202 0.9493861198425293
13 203 0.9516724944114685
13 204 0.14276611804962158
13 205 0.9506209492683411
13 206 0.9511163830757141
13 207 0.9483312368392944
13 208 0.10303258150815964
13 209 0.17880722880363464
13 210 0.13454583287239075
13 211 0.9567833542823792
13 212 0.1177760437130928
13 213 0.9462214708328247
13 214 0.1420205980539322
13 215 0.9505001306533813
13 216 0.9337798357009888
13 217 0.9538935422897339
13 218 0.28992989659309387
13 219 0.09823770821094513
13 220 0.05643326789140701
13 221 0.9524127244949341
13 222 0.912386417388916
13 223 0.10806147754192352
13 224 0.9501261711120605
13 225 0.12618862092494965
13 226 0.944543182849884
13 227 0.9499432444572449
13 228 0.12618862092494965
13 229 0.09823770821094513
13 230 0.936582624912262
13 231 0.9538935422897339
13 232 0.17623433470726013
13 233 0.9507166147232056
13 234 0.13684339821338654
13 235 0.9549428820610046
13 236 0.9334110617637634
13 237 0.9568449854850769
13 238 0.05828402563929558
13 239 0.23662172257900238
13 240 0.9394904971122742
13 241 0.9540151357650757
13 242 0.9523503184318542
13 243 0.08841393142938614
13 244 0.9429259896278381
13 245 0.9393019080162048
13 246 0.0651635229587555
13 247 0.9454771876335144
13 248 0.9513015151023865
13 249 0.07980868965387344
13 250 0.9583799839019775
13 251 0.1824943721294403
13 252 0.9428618550300598
13 253 0.1785505712032318
13 254 0.9487693309783936
13 255 0.9594833850860596
14 15 0.13747917115688324
14 16 0.1150447353720665
14 17 0.13655290007591248
14 18 0.12167714536190033
14 19 0.12970130145549774
14 21 0.11180339008569717
14 22 0.12963402271270752
14 23 0.16903086006641388
14 24 0.11625991016626358
14 26 0.13669419288635254
14 27 0.13669419288635254
14 28 0.15811388194561005
14 31 0.09689628332853317
14 32 0.1361316442489624
14 33 0.11886140704154968
14 35 0.18633900582790375
14 36 0.17529195547103882
14 37 0.3464101254940033
14 38 0.1448667049407959
14 39 0.22360678017139435
14 40 0.2555505931377411
14 41 0.12167714536190033
14 42 0.14344382286071777
14 43 0.13010726869106293
14 44 0.12677313387393951
14 45 0.11004451662302017
14 46 0.10719756036996841
14 47 0.1370493322610855
14 48 0.11463717371225357
14 49 0.12339592725038528
14 50 0.1348399668931961
14 51 0.13592249155044556
14 52 0.12963402271270752
14 53 0.13733544945716858
14 54 0.12287908792495728
14 55 0.25819888710975647
14 56 0.11607620120048523
14 57 0.12175615131855011
14 58 0.11534995585680008
14 59 0.14555563032627106
14 60 0.12983621656894684
14 61 0.12976869940757751
14 62 0.10986726731061935
14 63 0.13017529249191284
14 64 0.051298920065164566
14 65 0.1348399668931961
14 66 0.10853619128465652
14 67 0.12909944355487823
14 68 0.15811388194561005
14 69 0.11511089652776718
14 70 0.21516574919223785
14 71 0.15811388194561005
14 72 0.10797236114740372
14 73 0.11523023992776871
14 74 0.22360678017139435
14 75 0.09441133588552475
14 76 0.12411735951900482
14 77 0.1384245604276657
14 78 0.1291659027338028
14 79 0.10226882249116898
14 80 0.06324554979801178
14 81 0.07453560084104538
14 82 0.08770579844713211
14 83 0.1294327825307846
14 84 0.11632134765386581
14 85 0.10205122083425522
14 86 0.18257418274879456
14 88 0.14373990893363953
14 89 0.12422600388526917
14 90 0.10882143676280975
14 91 0.07254762947559357
14 92 0.13923992216587067
14 93 0.10865002125501633
14 94 0.12949976325035095
14 95 0.1632993072271347
14 96 0.11650622636079788
14 97 0.13592249155044556
14 98 0.22360678017139435
14 99 0.11481413245201111
14 100 0.14471492171287537
14 101 0.11517051607370377
14 102 0.14344382286071777
14 103 0.16770507395267487
14 104 0.11886140704154968
14 105 0.1220528855919838
14 106 0.0800132304430008
14 107 0.1092245876789093
14 108 0.13448087871074677
14 110 0.10870707035064697
14 111 0.17541159689426422
14 113 0.10103628784418106
14 114 0.12056070566177368
14 115 0.10108895599842072
14 116 0.12173953652381897
14 117 0.19069251418113708
14 118 0.09625668823719025
14 119 0.11589335650205612
14 120 0.12909944355487823
14 121 0.13476437330245972
14 122 0.12155266106128693
14 123 0.11607620120048523
14 124 0.14532488584518433
14 125 0.13113905489444733
14 126 0.11493256688117981
14 127 0.10093121230602264
14 128 0.10763824731111526
14 129 0.10035906732082367
14 130 0.08944272249937057
14 131 0.11523512005805969
14 132 0.09537191689014435
14 133 0.12772706151008606
14 134 0.12909944355487823
14 135 0.13938972353935242
14 136 0.1161985769867897
14 137 0.10188893973827362
14 138 0.13010726869106293
14 139 0.1313483715057373
14 140 0.10963224619626999
14 141 0.12936590611934662
14 142 0.06505363434553146
14 143 0.12230532616376877
14 144 0.12196733802556992
14 145 0.14396314322948456
14 146 0.1242498829960823
14 147 0.13620159029960632
14 149 0.08186826854944229
14 150 0.13634178042411804
14 151 0.13127849996089935
14 152 0.12294332683086395
14 153 0.14366571605205536
14 154 0.13065451383590698
14 155 0.1220528855919838
14 156 0.1444881558418274
14 157 0.11553024500608444
14 159 0.12281493097543716
14 160 0.17251639068126678
14 161 0.12372228503227234
14 162 0.10969085991382599
14 163 0.12352615594863892
14 164 0.08451542258262634
14 165 0.13662348687648773
14 166 0.1154700443148613
14 167 0.11656805127859116
14 168 0.05270462855696678
14 169 0.11895774304866791
14 170 0.1221158504486084
14 171 0.13065451383590698
14 172 0.11706620454788208
14 173 0.09759000688791275
14 174 0.11777845025062561
14 175 0.12983621656894684
14 176 0.13871939480304718
14 177 0.1080283522605896
14 178 0.07961173355579376
14 179 0.12956683337688446
14 180 0.1302434355020523
14 181 0.1220528855919838
14 182 0.11613734066486359
14 183 0.15811388194561005
14 184 0.11607620120048523
14 185 0.14321789145469666
14 188 0.12217891216278076
14 190 0.10836611688137054
14 191 0.12249567359685898
14 192 0.13051705062389374
14 193 0.10752756893634796
14 194 0.22360678017139435
14 195 0.1303800344467163
14 196 0.1380131095647812
14 197 0.4472135603427887
14 198 0.1060660108923912
14 200 0.14167305827140808
14 201 0.13003933429718018
14 202 0.14479075372219086
14 203 0.13712067902088165
14 204 0.12247447669506073
14 205 0.13712067902088165
14 206 0.12997151911258698
14 207 0.10135351866483688
14 208 0.2121320217847824
14 209 0.1150447353720665
14 210 0.051298920065164566
14 211 0.12903308868408203
14 212 0.1154700443148613
14 213 0.09411398321390152
14 214 0.1538967490196228
14 215 0.13740724325180054
14 216 0.12465005367994308
14 217 0.1080283522605896
14 218 0.11986582726240158
14 219 0.1348399668931961
14 221 0.13662348687648773
14 222 0.13514366745948792
14 223 0.20225994288921356
14 224 0.10098371654748917
14 225 0.1154700443148613
14 226 0.12326610833406448
14 227 0.13747917115688324
14 228 0.17320506274700165
14 230 0.1182108223438263
14 231 0.1080283522605896
14 232 0.1511857807636261
14 233 0.13093073666095734
14 234 0.13416408002376556
14 235 0.1080283522605896
14 236 0.11808197945356369
14 237 0.13606183230876923
14 240 0.10928254574537277
14 241 0.12936590611934662
14 242 0.12236867845058441
14 243 0.20225994288921356
14 244 0.1233309656381607
14 245 0.13155870139598846
14 246 0.11180339008569717
14 247 0.1380586475133896
14 248 0.12956683337688446
14 249 0.18257418274879456
14 250 0.11463717371225357
14 251 0.09393364191055298
14 252 0.09441133588552475
14 253 0.15811388194561005
14 254 0.11601515859365463
14 255 0.09304722398519516
15 16 0.17203648388385773
15 17 0.9620605111122131
15 18 0.9643242359161377
15 19 0.957255482673645
15 20 0.1310812532901764
15 21 0.12134714424610138
15 22 0.9598855376243591
15 23 0.08561450242996216
15 24 0.9526897668838501
15 26 0.9588913321495056
15 27 0.9630559086799622
15 31 0.9243956804275513
15 32 0.9673875570297241
15 33 0.9310052394866943
15 35 0.18876221776008606
15 36 0.5249093174934387
15 37 0.11697167903184891
15 38 0.9538789391517639
15 40 0.20340093970298767
15 41 0.9674316048622131
15 42 0.9642305374145508
15 43 0.9592055678367615
15 44 0.17122900485992432
15 45 0.9448882937431335
15 46 0.9669824838638306
15 47 0.9603387117385864
15 48 0.9632400870323181
15 49 0.95168536901474
15 50 0.09756678342819214
15 51 0.967971682548523
15 52 0.9609277248382568
15 53 0.9550215005874634
15 54 0.9581595659255981
15 56 0.9532841444015503
15 57 0.734615683555603
15 58 0.9567095637321472
15 59 0.9531491994857788
15 60 0.9624264240264893
15 61 0.9640126824378967
15 62 0.9433663487434387
15 63 0.9534277319908142
15 64 0.12620322406291962
15 65 0.20489025115966797
15 66 0.9581151604652405
15 67 0.9631926417350769
15 69 0.9640970826148987
15 70 0.16814354062080383
15 72 0.9635547399520874
15 73 0.9598855376243591
15 74 0.06471847742795944
15 75 0.9500852227210999
15 76 0.9477402567863464
15 77 0.9499432444572449
15 78 0.9657654762268066
15 79 0.9482458233833313
15 80 0.21508552134037018
15 81 0.09707771986722946
15 82 0.15865422785282135
15 83 0.9635984301567078
15 84 0.9521411061286926
15 85 0.9472832083702087
15 86 0.15192195773124695
15 87 0.08186312019824982
15 88 0.9672608375549316
15 89 0.25887393951416016
15 90 0.1837276667356491
15 91 0.18897703289985657
15 92 0.9470544457435608
15 93 0.9549272060394287
15 94 0.9588913321495056
15 95 0.17723886668682098
15 96 0.9568157196044922
15 97 0.9659010767936707
15 98 0.06471847742795944
15 99 0.9647269248962402
15 100 0.9581151604652405
15 101 0.9583463072776794
15 102 0.967344343662262
15 103 0.09707771241664886
15 104 0.9310052394866943
15 105 0.9610681533813477
15 106 0.9515921473503113
15 107 0.9526006579399109
15 108 0.8688938617706299
15 110 0.9554286003112793
15 111 0.16500039398670197
15 112 0.166486918926239
15 113 0.9587500095367432
15 114 0.2896190881729126
15 115 0.9613395929336548
15 116 0.9668912887573242
15 117 0.15177829563617706
15 118 0.9300806522369385
15 119 0.9570236206054688
15 120 0.0934130847454071
15 121 0.9252812266349792
15 122 0.9685114026069641
15 123 0.9522342681884766
15 124 0.9526897668838501
15 125 0.9520519375801086
15 126 0.9657220244407654
15 127 0.9587961435317993
15 128 0.9626500606536865
15 129 0.9647723436355591
15 130 0.1617961972951889
15 131 0.8385767340660095
15 132 0.9406415820121765
15 133 0.9745180606842041
15 134 0.1027543917298317
15 135 0.9438266158103943
15 136 0.9553401470184326
15 137 0.9499896168708801
15 138 0.95711350440979
15 139 0.9461795091629028
15 140 0.9445214867591858
15 141 0.9620605111122131
15 142 0.9581595659255981
15 143 0.9609736204147339
15 144 0.3500681221485138
15 145 0.959388017654419
15 146 0.9476945400238037
15 147 0.9709966778755188
15 149 0.8423615097999573
15 150 0.9647269248962402
15 151 0.9509532451629639
15 152 0.9576139450073242
15 153 0.9615639448165894
15 154 0.9579879641532898
15 155 0.9621071219444275
15 156 0.9566138386726379
15 157 0.9550700187683105
15 159 0.9576593637466431
15 160 0.19972556829452515
15 161 0.9468300342559814
15 162 0.9471429586410522
15 163 0.9516382813453674
15 164 0.23645910620689392
15 165 0.9615171551704407
15 166 0.9597944021224976
15 167 0.9478346109390259
15 168 0.1372886300086975
15 169 0.8687816262245178
15 170 0.9636430144309998
15 171 0.9548366665840149
15 172 0.942355751991272
15 173 0.14828866720199585
15 174 0.8794858455657959
15 175 0.9582510590553284
15 176 0.9435140490531921
15 177 0.9578010439872742
15 178 0.7667869329452515
15 179 0.9604296684265137
15 180 0.9549738168716431
15 181 0.9641851186752319
15 182 0.9527358412742615
15 183 0.1716107875108719
15 184 0.9522342681884766
15 185 0.9173877835273743
15 186 0.16273294389247894
15 187 0.08561450242996216
15 188 0.9620605111122131
15 189 0.18897703289985657
15 190 0.9566138386726379
15 191 0.9603837728500366
15 192 0.9527828097343445
15 193 0.9637349247932434
15 195 0.9559754133224487
15 196 0.16976672410964966
15 198 0.17907556891441345
15 200 0.6497622728347778
15 201 0.9566138386726379
15 202 0.9523311853408813
15 203 0.9577056169509888
15 204 0.15951497852802277
15 205 0.9577056169509888
15 206 0.9571599364280701
15 207 0.9533788561820984
15 208 0.10232890397310257
15 209 0.18313559889793396
15 210 0.14105066657066345
15 211 0.9637349247932434
15 212 0.10026143491268158
15 213 0.9533788561820984
15 214 0.1187795028090477
15 215 0.9555208086967468
15 216 0.9433190822601318
15 217 0.9619699716567993
15 218 0.3018268942832947
15 219 0.07805342227220535
15 221 0.9635984301567078
15 222 0.920279860496521
15 223 0.08781010657548904
15 224 0.9603387117385864
15 225 0.11697167903184891
15 226 0.9580294489860535
15 227 0.9591623544692993
15 228 0.11697167903184891
15 229 0.09756678342819214
15 230 0.9451545476913452
15 231 0.9598855376243591
15 232 0.19143983721733093
15 233 0.9505395293235779
15 234 0.15532435476779938
15 235 0.9588432908058167
15 236 0.9419883489608765
15 237 0.9648186564445496
15 238 0.07235746085643768
15 239 0.23898883163928986
15 240 0.9499432444572449
15 241 0.9610204100608826
15 242 0.959388017654419
15 243 0.09756678342819214
15 244 0.9564337730407715
15 245 0.9445214867591858
15 247 0.9484837055206299
15 248 0.9625130295753479
15 249 0.07926362752914429
15 250 0.9663506746292114
15 251 0.22655999660491943
15 252 0.9490342736244202
15 253 0.1487293392419815
15 254 0.9527828097343445
15 255 0.9653600454330444
16 17 0.1819017082452774
16 18 0.18664422631263733
16 19 0.18237332999706268
16 20 0.07312723994255066
16 22 0.18227870762348175
16 23 0.06482037156820297
16 24 0.1783345639705658
16 25 0.12126781791448593
16 26 0.1600184142589569
16 27 0.1820899099111557
16 31 0.17721520364284515
16 32 0.18683575093746185
16 33 0.182325080037117
16 35 0.08574929088354111
16 38 0.18332765996456146
16 40 0.2694977819919586
16 41 0.17566514015197754
16 42 0.18702787160873413
16 43 0.1774003952741623
16 44 0.09723055362701416
16 45 0.10690703988075256
16 46 0.1863580346107483
16 47 0.18256299197673798
16 48 0.18683575093746185
16 49 0.189280703663826
16 50 0.05170876905322075
16 51 0.18106193840503693
16 52 0.18227870762348175
16 53 0.16631287336349487
16 54 0.16631287336349487
16 56 0.15023201704025269
16 57 0.1867654025554657
16 58 0.1769387573003769
16 59 0.1897813230752945
16 60 0.16596637666225433
16 61 0.1769387573003769
16 62 0.16852867603302002
16 63 0.16639980673789978
16 65 0.05170876905322075
16 66 0.17758604884147644
16 67 0.18702787160873413
16 69 0.1876078099012375
16 70 0.06600983440876007
16 72 0.15458057820796967
16 73 0.14913713932037354
16 75 0.1503904014825821
16 76 0.16238918900489807
16 77 0.1732195019721985
16 78 0.1816204935312271
16 79 0.17368105053901672
16 80 0.1455213725566864
16 83 0.1764807254076004
16 84 0.1784287989139557
16 85 0.1733115166425705
16 87 0.10846523195505142
16 88 0.16536518931388855
16 89 0.17149858176708221
16 90 0.08346223086118698
16 92 0.14613661170005798
16 93 0.17777228355407715
16 94 0.1765720546245575
16 95 0.06262243539094925
16 96 0.16754287481307983
16 97 0.18106193840503693
16 99 0.17061319947242737
16 100 0.17758604884147644
16 101 0.1711427867412567
16 102 0.17602622509002686
16 104 0.18802273273468018
16 105 0.17620761692523956
16 106 0.16736547648906708
16 107 0.17312763631343842
16 108 0.15167959034442902
16 110 0.1778656244277954
16 112 0.0882352888584137
16 113 0.16605278849601746
16 115 0.14398743212223053
16 116 0.1812475621700287
16 117 0.10969085246324539
16 118 0.15900878608226776
16 119 0.16666151583194733
16 121 0.14929713308811188
16 122 0.18645328283309937
16 123 0.1391037255525589
16 124 0.17276160418987274
16 125 0.15645632147789001
16 126 0.17629851400852203
16 127 0.13270406424999237
16 128 0.17061319947242737
16 129 0.14844578504562378
16 130 0.06859943270683289
16 131 0.17676259577274323
16 132 0.17442727088928223
16 133 0.17959730327129364
16 135 0.17442727088928223
16 136 0.16153043508529663
16 137 0.15070869028568268
16 138 0.1774003952741623
16 139 0.19028593599796295
16 140 0.16256257891654968
16 141 0.1598530262708664
16 142 0.1774003952741623
16 143 0.1710541695356369
16 145 0.17666351795196533
16 146 0.1849849969148636
16 147 0.170437753200531
16 149 0.1632542461156845
16 150 0.17611683905124664
16 151 0.18459099531173706
16 152 0.1719464659690857
16 153 0.18180783092975616
16 154 0.17257946729660034
16 155 0.17620761692523956
16 156 0.18838949501514435
16 157 0.1882912665605545
16 159 0.18838949501514435
16 160 0.10585121810436249
16 161 0.1897813230752945
16 162 0.18508389592170715
16 163 0.1393238753080368
16 164 0.1512475311756134
16 165 0.18199573457241058
16 166 0.1881931573152542
16 167 0.16204404830932617
16 168 0.12126780301332474
16 169 0.1885552555322647
16 170 0.18180783092975616
16 171 0.189280703663826
16 172 0.19079457223415375
16 174 0.17464175820350647
16 175 0.18809522688388824
16 176 0.1903873234987259
16 177 0.17123152315616608
16 178 0.1628250926733017
16 179 0.15458057820796967
16 180 0.18868517875671387
16 181 0.17620761692523956
16 182 0.189280703663826
16 184 0.15579617023468018
16 185 0.14453038573265076
16 188 0.15434084832668304
16 190 0.18284861743450165
16 191 0.16026747226715088
16 192 0.1779591143131256
16 193 0.1649397611618042
16 195 0.17777228355407715
16 196 0.10585121810436249
16 197 0.08574929088354111
16 198 0.10846523195505142
16 200 0.1253749430179596
16 201 0.17730776965618134
16 202 0.18323156237602234
16 203 0.17158788442611694
16 205 0.17158788442611694
16 206 0.1882912665605545
16 207 0.18878404796123505
16 209 0.05882352963089943
16 211 0.18693174421787262
16 213 0.17767909169197083
16 214 0.11803340911865234
16 215 0.18303978443145752
16 216 0.17433345317840576
16 217 0.16570793092250824
16 218 0.11031946539878845
16 219 0.206835076212883
16 221 0.18199573457241058
16 222 0.12092554569244385
16 223 0.1034175381064415
16 224 0.18809522688388824
16 226 0.1835203319787979
16 227 0.18868517875671387
16 230 0.13599532842636108
16 231 0.15466073155403137
16 232 0.0579771026968956
16 233 0.18968088924884796
16 234 0.13719886541366577
16 235 0.1767551302909851
16 236 0.13584710657596588
16 237 0.17026287317276
16 240 0.1843949407339096
16 241 0.1708773672580719
16 242 0.18218424916267395
16 243 0.1034175381064415
16 244 0.18918107450008392
16 245 0.179379403591156
16 247 0.1783345639705658
16 248 0.17666351795196533
16 249 0.07001400738954544
16 250 0.14836956560611725
16 251 0.0960584208369255
16 252 0.1671004444360733
16 254 0.1612754464149475
16 255 0.17566514015197754
17 18 0.9712016582489014
17 19 0.9653061628341675
17 20 0.15075567364692688
17 21 0.12052956223487854
17 22 0.9699813723564148
17 23 0.07288942486047745
17 24 0.9567155241966248
17 26 0.9658743143081665
17 27 0.9669085144996643
17 31 0.931023895740509
17 32 0.9711683392524719
17 33 0.9386141896247864
17 35 0.18213355541229248
17 36 0.5136199593544006
17 37 0.1161835715174675
17 38 0.9599459767341614
17 40 0.22039690613746643
17 41 0.9712016582489014
17 42 0.9711360335350037
17 43 0.9620936512947083
17 44 0.17007532715797424
17 45 0.9480127096176147
17 46 0.9738214015960693
17 47 0.9663101434707642
17 48 0.9701384902000427
17 49 0.9577935338020325
17 50 0.10660036653280258
17 51 0.9717327356338501
17 52 0.9689461588859558
17 53 0.9610546827316284
17 54 0.9641715884208679
17 56 0.9593749046325684
17 57 0.7565910816192627
17 58 0.9647715091705322
17 59 0.9571883082389832
17 60 0.9694206118583679
17 61 0.9678803086280823
17 62 0.949644148349762
17 63 0.9625967144966125
17 64 0.13272660970687866
17 65 0.21320073306560516
17 66 0.9599803686141968
17 67 0.9742288589477539
17 69 0.9669085144996643
17 70 0.16701066493988037
17 72 0.9653400182723999
17 73 0.9668757319450378
17 75 0.9593424201011658
17 76 0.9539481997489929
17 77 0.9540151357650757
17 78 0.9706045985221863
17 79 0.9513070583343506
17 80 0.209090918302536
17 81 0.09642364829778671
17 82 0.1575852781534195
17 83 0.9684755206108093
17 84 0.9561759829521179
17 85 0.954521894454956
17 86 0.15089836716651917
17 87 0.10163945704698563
17 88 0.9679751992225647
17 89 0.285699725151062
17 90 0.18770378828048706
17 91 0.1981317698955536
17 92 0.9491006135940552
17 93 0.9609870910644531
17 94 0.9658743143081665
17 95 0.17017653584480286
17 96 0.9545558094978333
17 97 0.9717327356338501
17 98 0.06428243219852448
17 99 0.9695731401443481
17 100 0.9610204100608826
17 101 0.9653400182723999
17 102 0.9701051115989685
17 103 0.12856486439704895
17 104 0.9407498240470886
17 105 0.9690408110618591
17 106 0.9587728977203369
17 107 0.9556024670600891
17 108 0.8857811093330383
17 110 0.9604499936103821
17 111 0.1575852781534195
17 112 0.1598530262708664
17 113 0.968887984752655
17 114 0.28766775131225586
17 115 0.9621278047561646
17 116 0.970670223236084
17 117 0.14390315115451813
17 118 0.9387143850326538
17 119 0.9599459767341614
17 120 0.11134044080972672
17 121 0.9276564717292786
17 122 0.9722636342048645
17 123 0.9593749046325684
17 124 0.9577599763870239
17 125 0.9550623893737793
17 126 0.9674755930900574
17 127 0.9647715091705322
17 128 0.96854168176651
17 129 0.9716672897338867
17 130 0.1607060730457306
17 131 0.8447580933570862
17 132 0.9469581842422485
17 133 0.9801918268203735
17 134 0.11134044080972672
17 135 0.9553943276405334
17 136 0.9572546482086182
17 137 0.9571883082389832
17 138 0.9610546827316284
17 139 0.9576356410980225
17 140 0.9507644772529602
17 141 0.9679751992225647
17 142 0.9620936512947083
17 143 0.9669085144996643
17 144 0.3477095067501068
17 145 0.9725826978683472
17 146 0.9528656601905823
17 147 0.9696065187454224
17 149 0.8672820925712585
17 150 0.96854168176651
17 151 0.958174467086792
17 152 0.9615572094917297
17 153 0.9674755930900574
17 154 0.956750214099884
17 155 0.9690408110618591
17 156 0.9647066593170166
17 157 0.9662793874740601
17 159 0.9678219556808472
17 160 0.19342041015625
17 161 0.9592806100845337
17 162 0.9533751010894775
17 163 0.9598488211631775
17 164 0.25106358528137207
17 165 0.9674419164657593
17 166 0.9647386074066162
17 167 0.9561095833778381
17 168 0.12878787517547607
17 169 0.8834469318389893
17 170 0.9695407152175903
17 171 0.9598802328109741
17 172 0.9496785998344421
17 173 0.14728955924510956
17 174 0.8927469253540039
17 175 0.9663101434707642
17 176 0.9518492817878723
17 177 0.9648053646087646
17 178 0.7883217930793762
17 179 0.9674093723297119
17 180 0.9620605111122131
17 181 0.9680087566375732
17 182 0.9598802328109741
17 183 0.16477271914482117
17 184 0.9604177474975586
17 185 0.9263755679130554
17 186 0.16163651645183563
17 187 0.08503766357898712
17 188 0.9669421315193176
17 189 0.1981317698955536
17 190 0.9657451510429382
17 191 0.9663418531417847
17 192 0.9578281044960022
17 193 0.9706369042396545
17 195 0.9609870910644531
17 196 0.20829890668392181
17 197 0.06428243219852448
17 198 0.18803298473358154
17 200 0.6359856724739075
17 201 0.9626297950744629
17 202 0.9636051654815674
17 203 0.9637011885643005
17 204 0.16430838406085968
17 205 0.9626638889312744
17 206 0.9631656408309937
17 207 0.9594427347183228
17 208 0.08131156116724014
17 209 0.18741388618946075
17 210 0.14010031521320343
17 211 0.9706369042396545
17 212 0.12448239326477051
17 213 0.9594427347183228
17 214 0.14010031521320343
17 215 0.9605176448822021
17 216 0.947502851486206
17 217 0.9658405184745789
17 218 0.29634740948677063
17 219 0.10660036653280258
17 220 0.05567022040486336
17 221 0.9705427289009094
17 222 0.9227129817008972
17 223 0.09690941870212555
17 224 0.9642365574836731
17 225 0.12448239326477051
17 226 0.9599125981330872
17 227 0.9631005525588989
17 228 0.10788474231958389
17 229 0.10660036653280258
17 230 0.9419724345207214
17 231 0.9679110050201416
17 232 0.18471716344356537
17 233 0.9577273726463318
17 234 0.15427783131599426
17 235 0.9658405184745789
17 236 0.9430674314498901
17 237 0.970670223236084
17 238 0.05749595910310745
17 239 0.24529124796390533
17 240 0.9540151357650757
17 241 0.9669421315193176
17 242 0.9663746953010559
17 243 0.10660036653280258
17 244 0.9604177474975586
17 245 0.9518150687217712
17 246 0.06428243219852448
17 247 0.9567155241966248
17 248 0.9663746953010559
17 249 0.07872957736253738
17 250 0.9701384902000427
17 251 0.21603219211101532
17 252 0.9572546482086182
17 253 0.1818181723356247
17 254 0.9588702917098999
17 255 0.9732592701911926
18 19 0.9685623049736023
18 20 0.13648778200149536
18 21 0.11203227192163467
18 22 0.9711526036262512
18 24 0.9600675702095032
18 26 0.9732364416122437
18 27 0.9701467752456665
18 31 0.9389371275901794
18 32 0.9774364233016968
18 33 0.9379497170448303
18 35 0.1813855767250061
18 36 0.5115106105804443
18 37 0.09091220051050186
18 38 0.9674093127250671
18 40 0.2103462964296341
18 41 0.9764344096183777
18 42 0.974334716796875
18 43 0.9653854370117188
18 44 0.1330818235874176
18 45 0.9546213150024414
18 46 0.9790292382240295
18 47 0.9695696234703064
18 48 0.9794876575469971
18 49 0.9621725678443909
18 50 0.09651143103837967
18 51 0.9790067672729492
18 52 0.9701216220855713
18 53 0.9653854370117188
18 54 0.9664201736450195
18 55 0.05544159188866615
18 56 0.9710126519203186
18 57 0.7454395890235901
18 58 0.968033492565155
18 59 0.9595082998275757
18 60 0.9675045013427734
18 61 0.970097541809082
18 62 0.9520351886749268
18 63 0.9658902287483215
18 64 0.13952495157718658
18 65 0.19784842431545258
18 66 0.9663957953453064
18 67 0.974334716796875
18 69 0.9732364416122437
18 70 0.12320355325937271
18 72 0.9727100729942322
18 73 0.9711526036262512
18 75 0.9606006145477295
18 76 0.9594367742538452
18 77 0.9573975801467896
18 78 0.9738090634346008
18 79 0.9568114876747131
18 80 0.21275900304317474
18 81 0.0960276648402214
18 82 0.1569380909204483
18 83 0.9717037081718445
18 84 0.9616155624389648
18 85 0.9641669392585754
18 86 0.11107552796602249
18 87 0.10122203826904297
18 88 0.9732592701911926
18 89 0.28808295726776123
18 90 0.19731807708740234
18 91 0.19731807708740234
18 92 0.9546443819999695
18 93 0.9663724303245544
18 94 0.9763261079788208
18 95 0.16363359987735748
18 96 0.9621016383171082
18 97 0.976958692073822
18 98 0.06401844322681427
18 99 0.9748362898826599
18 100 0.9715747833251953
18 101 0.9758012890815735
18 102 0.9733080267906189
18 103 0.11203227192163467
18 104 0.9464572668075562
18 105 0.9753386378288269
18 106 0.9590004682540894
18 107 0.9621016383171082
18 108 0.8798785209655762
18 110 0.9689546823501587
18 111 0.1569380909204483
18 112 0.18115466833114624
18 113 0.9690413475036621
18 114 0.26922816038131714
18 115 0.9674791693687439
18 116 0.9759098887443542
18 117 0.13648778200149536
18 118 0.947578489780426
18 119 0.9642987251281738
18 120 0.10164292901754379
18 121 0.9377794861793518
18 122 0.9795296788215637
18 123 0.9637430310249329
18 124 0.9600675702095032
18 125 0.9605263471603394
18 126 0.9727569222450256
18 127 0.968033492565155
18 128 0.972781777381897
18 129 0.9758861660957336
18 130 0.15364424884319305
18 131 0.8495367169380188
18 132 0.9514707326889038
18 133 0.9853083491325378
18 134 0.06468185782432556
18 135 0.9535711407661438
18 136 0.9616402983665466
18 137 0.96055006980896
18 138 0.9705590009689331
18 139 0.9568365812301636
18 140 0.9583687782287598
18 141 0.9712016582489014
18 142 0.9705590009689331
18 143 0.9701467752456665
18 144 0.331731915473938
18 145 0.970649242401123
18 146 0.9573224782943726
18 147 0.9748600125312805
18 149 0.8555167317390442
18 150 0.9748362898826599
18 151 0.956327497959137
18 152 0.9658902287483215
18 153 0.9758418202400208
18 154 0.9632115960121155
18 155 0.9753386378288269
18 156 0.9659156203269958
18 157 0.9695464372634888
18 159 0.9721207022666931
18 160 0.18768692016601562
18 161 0.9647173285484314
18 162 0.9546938538551331
18 163 0.9631880521774292
18 164 0.25406530499458313
18 165 0.9737623929977417
18 166 0.9731737375259399
18 167 0.9615692496299744
18 168 0.12071432918310165
18 169 0.8820892572402954
18 170 0.9727569222450256
18 171 0.9611335396766663
18 172 0.9552047848701477
18 173 0.13271470367908478
18 174 0.8958246111869812
18 175 0.9685370326042175
18 176 0.9604818820953369
18 177 0.9711526036262512
18 178 0.786350667476654
18 179 0.970649242401123
18 180 0.9705389738082886
18 181 0.9743108749389648
18 182 0.9632115960121155
18 183 0.15277905762195587
18 184 0.9627045392990112
18 185 0.9236501455307007
18 186 0.17247077822685242
18 187 0.08468843251466751
18 188 0.9732592701911926
18 189 0.18174031376838684
18 190 0.9669498801231384
18 191 0.9685623049736023
18 192 0.9663501381874084
18 193 0.9738338589668274
18 195 0.9642987251281738
18 196 0.20250430703163147
18 197 0.06401844322681427
18 198 0.19738295674324036
18 200 0.6442939639091492
18 201 0.9669498801231384
18 202 0.9648295044898987
18 203 0.966975212097168
18 204 0.17532171308994293
18 205 0.968008279800415
18 206 0.9705801010131836
18 207 0.9669021368026733
18 208 0.08097762614488602
18 209 0.18115466833114624
18 210 0.1321815401315689
18 211 0.9769123196601868
18 212 0.12397117912769318
18 213 0.9648295044898987
18 214 0.1321815401315689
18 215 0.9669255018234253
18 216 0.9530583024024963
18 217 0.9721835255622864
18 218 0.2951303720474243
18 219 0.10616257041692734
18 220 0.05544159188866615
18 221 0.9706743359565735
18 222 0.9296712875366211
18 223 0.10616257041692734
18 224 0.9695696234703064
18 225 0.10744168609380722
18 226 0.9653121829032898
18 227 0.9643242359161377
18 228 0.1157064288854599
18 229 0.09651143103837967
18 230 0.9476224184036255
18 231 0.9701216220855713
18 232 0.17313747107982635
18 233 0.9621241688728333
18 234 0.14724242687225342
18 235 0.9763073325157166
18 236 0.9444767236709595
18 237 0.9759098887443542
18 238 0.07157479226589203
18 239 0.260044127702713
18 240 0.9605263471603394
18 241 0.9732592701911926
18 242 0.9696188569068909
18 243 0.10616257041692734
18 244 0.9637430310249329
18 245 0.9562762379646301
18 247 0.9600675702095032
18 248 0.9716796278953552
18 249 0.07840625196695328
18 250 0.9743594527244568
18 251 0.1972162425518036
18 252 0.9678779244422913
18 253 0.1584375500679016
18 254 0.9642741680145264
18 255 0.980532705783844
19 20 0.12366534769535065
19 21 0.1047297790646553
19 22 0.9631552696228027
19 23 0.06089867651462555
19 24 0.9602431058883667
19 26 0.9642313718795776
19 27 0.9694154262542725
19 31 0.9323636293411255
19 32 0.9674910306930542
19 33 0.9356947541236877
19 35 0.18797652423381805
19 36 0.4974626302719116
19 37 0.1081644594669342
19 38 0.9582594037055969
19 40 0.21176132559776306
19 41 0.9706252217292786
19 42 0.9674522876739502
19 43 0.9614630341529846
19 44 0.17051629722118378
19 45 0.9451843500137329
19 46 0.9742863774299622
19 47 0.9636179804801941
19 48 0.9685235619544983
19 49 0.9592307209968567
19 50 0.08744460344314575
19 51 0.969097375869751
19 52 0.9683446884155273
19 53 0.9604213833808899
19 54 0.9614630341529846
19 56 0.9566347002983093
19 57 0.751803994178772
19 58 0.9631170034408569
19 59 0.9523283839225769
19 60 0.9625784754753113
19 61 0.9631170034408569
19 62 0.955272912979126
19 63 0.9598813652992249
19 64 0.13307073712348938
19 65 0.2040373980998993
19 66 0.9582982063293457
19 67 0.9664187431335449
19 69 0.9652681350708008
19 70 0.1550404280424118
19 72 0.9636934399604797
19 73 0.9652311205863953
19 75 0.9555500745773315
19 76 0.9490562677383423
19 77 0.9522888660430908
19 78 0.9679503440856934
19 79 0.9569316506385803
19 80 0.22330474853515625
19 81 0.07519061118364334
19 82 0.13903459906578064
19 83 0.9689139723777771
19 84 0.9565596580505371
19 85 0.953845202922821
19 86 0.14471180737018585
19 87 0.10190297663211823
19 88 0.9642704129219055
19 89 0.2828599512577057
19 90 0.18819044530391693
19 91 0.1411428302526474
19 92 0.9462807178497314
19 93 0.9593032002449036
19 94 0.9663049578666687
19 95 0.17061775922775269
19 96 0.9580800533294678
19 97 0.9742521643638611
19 99 0.9679503440856934
19 100 0.9593409299850464
19 101 0.9678428173065186
19 102 0.9705531597137451
19 103 0.12889818847179413
19 104 0.9335535764694214
19 105 0.9663798213005066
19 106 0.9560173749923706
19 107 0.9580800533294678
19 108 0.8789573907852173
19 110 0.958762526512146
19 111 0.13903459906578064
19 112 0.16579394042491913
19 113 0.9661998152732849
19 114 0.27103927731513977
19 115 0.9615004658699036
19 116 0.9700908660888672
19 117 0.13740594685077667
19 118 0.9358128905296326
19 119 0.9593032002449036
19 120 0.11162911355495453
19 121 0.9322194457054138
19 122 0.9727235436439514
19 123 0.9566347002983093
19 124 0.9550073146820068
19 125 0.9533388018608093
19 126 0.9699839949607849
19 127 0.9620780944824219
19 128 0.9700186252593994
19 129 0.967988133430481
19 130 0.13534310460090637
19 131 0.8457620739936829
19 132 0.9536424279212952
19 133 0.9806879758834839
19 134 0.10232669115066528
19 135 0.9472988247871399
19 136 0.9555500745773315
19 137 0.955474853515625
19 138 0.9604213833808899
19 139 0.9496024250984192
19 140 0.9532296061515808
19 141 0.9642704129219055
19 142 0.9625046849250793
19 143 0.9704521894454956
19 144 0.3368930220603943
19 145 0.9626561403274536
19 146 0.9574427604675293
19 147 0.9669550657272339
19 149 0.8624517321586609
19 150 0.9669162631034851
19 151 0.9501482248306274
19 152 0.9609235525131226
19 153 0.965843141078949
19 154 0.9592307209968567
19 155 0.9694838523864746
19 156 0.9599199295043945
19 157 0.9615004658699036
19 159 0.962002158164978
19 160 0.15911538898944855
19 161 0.9544259905815125
19 162 0.9495237469673157
19 163 0.9550073146820068
19 164 0.2517145276069641
19 165 0.9647688865661621
19 166 0.9630797505378723
19 167 0.9512388706207275
19 168 0.12152638286352158
19 169 0.8800230026245117
19 170 0.966878354549408
19 171 0.9571385383605957
19 172 0.9510864019393921
19 173 0.1476714313030243
19 174 0.8927984237670898
19 175 0.9646574854850769
19 176 0.9532648921012878
19 177 0.9641931653022766
19 178 0.795464813709259
19 179 0.9636934399604797
19 180 0.9593409299850464
19 181 0.9694838523864746
19 182 0.9613227844238281
19 183 0.16519993543624878
19 184 0.9587256908416748
19 185 0.9211733341217041
19 186 0.1736309975385666
19 187 0.08525814861059189
19 188 0.9715205430984497
19 189 0.1986454725265503
19 190 0.962002158164978
19 191 0.9615784287452698
19 192 0.9571766257286072
19 193 0.9710873365402222
19 195 0.960347056388855
19 196 0.20386658608913422
19 198 0.19871079921722412
19 200 0.6329229474067688
19 201 0.962002158164978
19 202 0.9588003158569336
19 203 0.960999608039856
19 204 0.17061775922775269
19 205 0.9620397090911865
19 206 0.9625411033630371
19 207 0.959843635559082
19 208 0.0815223827958107
19 209 0.15474100410938263
19 210 0.11089228093624115
19 211 0.969021201133728
19 212 0.11648479849100113
19 213 0.9619302749633789
19 214 0.1256779134273529
19 215 0.9598813652992249
19 216 0.9478460550308228
19 217 0.9641931653022766
19 218 0.26947706937789917
19 219 0.09716066718101501
19 220 0.055814556777477264
19 221 0.965805172920227
19 222 0.9283512830734253
19 223 0.08744460344314575
19 224 0.9625784754753113
19 225 0.11648479849100113
19 226 0.9550866484642029
19 227 0.9593409299850464
19 228 0.08320343494415283
19 229 0.08744460344314575
19 230 0.9390910267829895
19 231 0.9652311205863953
19 232 0.18519607186317444
19 233 0.9518243074417114
19 234 0.14178802073001862
19 235 0.9641931653022766
19 236 0.9412582516670227
19 237 0.9700908660888672
19 238 0.07205627858638763
19 239 0.24592719972133636
19 240 0.9564886093139648
19 241 0.9663418531417847
19 242 0.9699175953865051
19 243 0.08744460344314575
19 244 0.9587256908416748
19 245 0.9479631185531616
19 246 0.06444909423589706
19 247 0.9560545086860657
19 248 0.9688801765441895
19 250 0.9716212153434753
19 251 0.2256169617176056
19 252 0.9565966725349426
19 253 0.17659303545951843
19 254 0.9571766257286072
19 255 0.9706252217292786
20 21 0.10660035163164139
20 22 0.144201397895813
20 23 0.16116458177566528
20 24 0.12470565736293793
20 26 0.13719241321086884
20 27 0.15091165900230408
20 28 0.15075567364692688
20 31 0.14924049377441406
20 32 0.12979644536972046
20 33 0.15582863986492157
20 36 0.1157083809375763
20 37 0.11009637266397476
20 38 0.13121873140335083
20 41 0.12283899635076523
20 42 0.1436067521572113
20 43 0.14472781121730804
20 45 0.13989776372909546
20 46 0.13627848029136658
20 47 0.1306714117527008
20 48 0.10930226743221283
20 49 0.1453365534543991
20 51 0.129597008228302
20 52 0.1373346596956253
20 53 0.14472781121730804
20 54 0.14472781121730804
20 55 0.12309149652719498
20 56 0.1452600359916687
20 57 0.10715993493795395
20 58 0.14435119926929474
20 59 0.1457209289073944
20 60 0.1306714117527008
20 61 0.1374773383140564
20 62 0.12570519745349884
20 63 0.1448034942150116
20 65 0.16070608794689178
20 66 0.1310812532901764
20 67 0.15044516324996948
20 69 0.1303327977657318
20 70 0.12309148907661438
20 72 0.1372634768486023
20 73 0.1373346596956253
20 74 0.21320070326328278
20 75 0.14541317522525787
20 76 0.11834125220775604
20 77 0.11808973550796509
20 78 0.12999679148197174
20 79 0.13929927349090576
20 80 0.09045340120792389
20 81 0.07106690108776093
20 83 0.13712146878242493
20 84 0.13170331716537476
20 85 0.11120231449604034
20 86 0.08703882992267609
20 87 0.1348399668931961
20 88 0.13019807636737823
20 91 0.20751431584358215
20 92 0.13276004791259766
20 93 0.13121873140335083
20 94 0.1303327977657318
20 96 0.13885541260242462
20 97 0.129597008228302
20 98 0.10660035163164139
20 99 0.1505226045846939
20 100 0.13798026740550995
20 101 0.12353713065385818
20 102 0.15044516324996948
20 103 0.21320070326328278
20 104 0.1416623890399933
20 105 0.13690924644470215
20 106 0.13870839774608612
20 107 0.11108432710170746
20 108 0.1282224953174591
20 110 0.09673824161291122
20 111 0.0836242064833641
20 113 0.11697740107774734
20 114 0.09196009486913681
20 115 0.11015376448631287
20 116 0.12290197610855103
20 118 0.13413584232330322
20 119 0.1381249725818634
20 120 0.12309149652719498
20 121 0.10707731544971466
20 122 0.14316555857658386
20 123 0.1452600359916687
20 124 0.13163375854492188
20 125 0.12503619492053986
20 126 0.11643289774656296
20 127 0.15122507512569427
20 128 0.12315485626459122
20 129 0.1503678262233734
20 130 0.1705605685710907
20 131 0.10987237095832825
20 132 0.13290287554264069
20 133 0.12854868173599243
20 134 0.12309149652719498
20 135 0.14689265191555023
20 136 0.15233762562274933
20 137 0.1457209289073944
20 138 0.08959340304136276
20 139 0.11827821284532547
20 140 0.13240498304367065
20 141 0.14390315115451813
20 142 0.1378360092639923
20 143 0.1234731674194336
20 144 0.1356731802225113
20 145 0.14412665367126465
20 146 0.11846762150526047
20 147 0.1230282261967659
20 149 0.11708749085664749
20 150 0.1505226045846939
20 151 0.1321229785680771
20 152 0.1448034942150116
20 153 0.143828883767128
20 154 0.13149496912956238
20 155 0.12321832031011581
20 156 0.1308758407831192
20 157 0.12392298877239227
20 159 0.13776405155658722
20 160 0.16448792815208435
20 161 0.1457209289073944
20 162 0.13247577846050262
20 163 0.15241803228855133
20 165 0.14397753775119781
20 166 0.1445014923810959
20 167 0.14587555825710297
20 168 0.15075565874576569
20 169 0.09073739498853683
20 170 0.10958389937877655
20 171 0.13149496912956238
20 172 0.13254667818546295
20 173 0.18609683215618134
20 174 0.09732435643672943
20 175 0.13754884898662567
20 176 0.11834125220775604
20 177 0.13046792149543762
20 178 0.15181361138820648
20 179 0.14412665367126465
20 180 0.1310812532901764
20 181 0.13006378710269928
20 182 0.11765339970588684
20 183 0.07537783682346344
20 184 0.15217716991901398
20 185 0.12936590611934662
20 186 0.11487593501806259
20 187 0.08058229088783264
20 188 0.10278795659542084
20 189 0.06917144358158112
20 190 0.12398763746023178
20 191 0.1442762315273285
20 192 0.1313566267490387
20 193 0.12986312806606293
20 194 0.21320070326328278
20 195 0.11049997806549072
20 196 0.0657951682806015
20 197 0.10660035163164139
20 201 0.1308758407831192
20 202 0.15185782313346863
20 203 0.12385842204093933
20 205 0.12385842204093933
20 206 0.1445768177509308
20 207 0.1173446774482727
20 208 0.20225994288921356
20 209 0.14625447988510132
20 211 0.12986312806606293
20 213 0.1380525678396225
20 214 0.19564637541770935
20 215 0.1310126781463623
20 216 0.132831409573555
20 217 0.12360119074583054
20 218 0.11428758502006531
20 220 0.36927446722984314
20 221 0.1508336067199707
20 222 0.12169584631919861
20 224 0.13754884898662567
20 225 0.11009637266397476
20 226 0.14518363773822784
20 227 0.13798026740550995
20 228 0.275240957736969
20 229 0.06428243219852448
20 230 0.11975394934415817
20 231 0.13046792149543762
20 233 0.14564381539821625
20 234 0.12792041897773743
20 235 0.12360119074583054
20 236 0.14073343575000763
20 237 0.12972986698150635
20 239 0.05248638987541199
20 240 0.11114327609539032
20 241 0.12334555387496948
20 242 0.1372634768486023
20 244 0.13834288716316223
20 245 0.13937367498874664
20 246 0.21320070326328278
20 247 0.13856184482574463
20 248 0.08922125399112701
20 250 0.12296505272388458
20 252 0.12463986873626709
20 253 0.11306674778461456
20 254 0.12444311380386353
20 255 0.13648778200149536
21 22 0.12883132696151733
21 23 0.09449111670255661
21 24 0.11373472213745117
21 26 0.12065427005290985
21 27 0.12869788706302643
21 28 0.1767766922712326
21 31 0.10833333432674408
21 32 0.12015774846076965
21 33 0.10797401517629623
21 36 0.10552897304296494
21 37 0.19364915788173676
21 38 0.08908123522996902
21 40 0.0714285746216774
21 41 0.12003457546234131
21 42 0.12830005586147308
21 43 0.12122028321027756
21 45 0.11483127623796463
21 46 0.0958804115653038
21 47 0.10483870655298233
21 48 0.10413671284914017
21 49 0.08926878124475479
21 50 0.15075567364692688
21 51 0.11197492480278015
21 52 0.12883132696151733
21 53 0.12122028321027756
21 54 0.11313892900943756
21 55 0.14433757960796356
21 56 0.11355499923229218
21 58 0.09672387689352036
21 59 0.11391529440879822
21 60 0.12096773833036423
21 61 0.11284452676773071
21 62 0.10645728558301926
21 63 0.12128367274999619
21 65 0.07537783682346344
21 66 0.12134714424610138
21 67 0.10424379259347916
21 69 0.11261065304279327
21 72 0.08047784864902496
21 73 0.1207793727517128
21 74 0.125
21 75 0.12179433554410934
21 76 0.11427904665470123
21 77 0.11403615772724152
21 78 0.12034322321414948
21 79 0.08983858674764633
21 80 0.1060660108923912
21 81 0.1666666567325592
21 83 0.10451295226812363
21 84 0.11379481106996536
21 85 0.08964744210243225
21 86 0.10206206887960434
21 87 0.07905694097280502
21 88 0.12052956223487854
21 91 0.1216660588979721
21 92 0.12290128320455551
21 93 0.10527782142162323
21 94 0.12065427005290985
21 96 0.09769344329833984
21 97 0.11997313052415848
21 98 0.125
21 99 0.1283661127090454
21 100 0.12943695485591888
21 101 0.10462120175361633
21 102 0.12028130143880844
21 103 0.0625
21 104 0.09136263281106949
21 105 0.1284322589635849
21 106 0.11385500431060791
21 107 0.08955232799053192
21 108 0.08844364434480667
21 110 0.09723055362701416
21 111 0.1961161494255066
21 112 0.08574929088354111
21 113 0.10489329695701599
21 114 0.10783278197050095
21 115 0.1130208894610405
21 116 0.11208970099687576
21 117 0.10660035163164139
21 118 0.12417490780353546
21 119 0.11337611824274063
21 120 0.07216878980398178
21 121 0.10044743120670319
21 122 0.10392353683710098
21 123 0.12977714836597443
21 124 0.12998253107070923
21 125 0.12218160182237625
21 126 0.09637387841939926
21 127 0.12896516919136047
21 128 0.11232034116983414
21 129 0.12021948397159576
21 130 0.05000000447034836
21 131 0.08282364159822464
21 132 0.09842680394649506
21 133 0.10313563048839569
21 134 0.14433757960796356
21 135 0.09022457897663116
21 136 0.11367471516132355
21 137 0.11391529440879822
21 138 0.12122028321027756
21 139 0.12237662076950073
21 140 0.11440107971429825
21 141 0.12856486439704895
21 142 0.11313892900943756
21 143 0.09652341157197952
21 144 0.09090908616781235
21 145 0.1287645548582077
21 146 0.11440107971429825
21 147 0.1282341182231903
21 149 0.09153150767087936
21 150 0.11232034116983414
21 151 0.12231151759624481
21 152 0.12128367274999619
21 153 0.12849850952625275
21 154 0.10549946129322052
21 155 0.10435120761394501
21 156 0.12923412024974823
21 157 0.1130208894610405
21 159 0.12115699052810669
21 160 0.19287918508052826
21 161 0.12205210328102112
21 162 0.12263811379671097
21 163 0.10561081022024155
21 165 0.10451295226812363
21 166 0.09682457894086838
21 167 0.12218160182237625
21 168 0.0589255653321743
21 169 0.1241322010755539
21 170 0.12046735733747482
21 171 0.12173014879226685
21 172 0.09816299378871918
21 174 0.08778687566518784
21 175 0.10483870655298233
21 176 0.11427904665470123
21 177 0.1207793727517128
21 178 0.11867816001176834
21 179 0.12071677297353745
21 180 0.10516752302646637
21 181 0.10435120761394501
21 182 0.11361480504274368
21 183 0.0883883461356163
21 184 0.12977714836597443
21 185 0.11798497289419174
21 188 0.12052956223487854
21 190 0.10500272363424301
21 191 0.12084205448627472
21 192 0.12160208821296692
21 193 0.12021948397159576
21 194 0.25
21 195 0.09717952460050583
21 197 0.125
21 200 0.07310552150011063
21 201 0.09692559391260147
21 202 0.11331667751073837
21 203 0.12909944355487823
21 205 0.12103072553873062
21 206 0.1130208894610405
21 207 0.10522262752056122
21 208 0.15811388194561005
21 209 0.12862393260002136
21 210 0.05735393241047859
21 211 0.11220484972000122
21 213 0.12141072750091553
21 214 0.11470786482095718
21 215 0.12128367274999619
21 216 0.07378040999174118
21 217 0.10467544943094254
21 218 0.1340140700340271
21 219 0.07537783682346344
21 221 0.12059187144041061
21 222 0.09233596920967102
21 223 0.07537783682346344
21 224 0.10483870655298233
21 225 0.06454972177743912
21 226 0.08106806129217148
21 227 0.12134714424610138
21 228 0.19364915788173676
21 229 0.07537783682346344
21 230 0.0991227850317955
21 231 0.1207793727517128
21 233 0.12198750674724579
21 234 0.15000000596046448
21 235 0.08857154101133347
21 236 0.13201966881752014
21 237 0.12810252606868744
21 238 0.11180339008569717
21 239 0.06154574826359749
21 240 0.10589072108268738
21 241 0.09642364829778671
21 242 0.10462120175361633
21 244 0.09733285009860992
21 245 0.10622957348823547
21 246 0.125
21 247 0.12998253107070923
21 248 0.11266898363828659
21 249 0.10206206887960434
21 250 0.12015774846076965
21 252 0.10555508732795715
21 253 0.13258251547813416
21 254 0.10538846999406815
21 255 0.10402996093034744
22 23 0.08521391451358795
22 24 0.9576517343521118
22 26 0.9678761959075928
22 27 0.9647673964500427
22 31 0.9329534769058228
22 32 0.9690532088279724
22 33 0.935209333896637
22 35 0.17177510261535645
22 36 0.5166265964508057
22 37 0.11642436683177948
22 38 0.9598488211631775
22 40 0.21165147423744202
22 41 0.9690907001495361
22 42 0.9690165519714355
22 43 0.9599231481552124
22 44 0.16434112191200256
22 45 0.9510341882705688
22 46 0.9727515578269958
22 47 0.9631180763244629
22 48 0.9700852036476135
22 49 0.9576875567436218
22 50 0.10682129114866257
22 51 0.9696250557899475
22 52 0.9647303223609924
22 53 0.9599231481552124
22 54 0.9651287794113159
22 55 0.05578560009598732
22 56 0.9613631963729858
22 57 0.7352254390716553
22 58 0.9615789651870728
22 59 0.9549790620803833
22 60 0.9631180763244629
22 61 0.9646941423416138
22 62 0.9484473466873169
22 63 0.958341658115387
22 64 0.14039067924022675
22 65 0.20878705382347107
22 66 0.9640544056892395
22 67 0.9679834842681885
22 69 0.9647673964500427
22 70 0.148761585354805
22 72 0.9663039445877075
22 73 0.9657676219940186
22 75 0.9571464657783508
22 76 0.9496155977249146
22 77 0.9517947435379028
22 78 0.9695153832435608
22 79 0.953278660774231
22 80 0.2140791416168213
22 81 0.096623495221138
22 82 0.1452789455652237
22 83 0.9663398265838623
22 84 0.9560633897781372
22 85 0.9523004293441772
22 86 0.15121112763881683
22 87 0.09166509658098221
22 88 0.9679110050201416
22 89 0.23261211812496185
22 90 0.16719360649585724
22 91 0.18809279799461365
22 92 0.9457898139953613
22 93 0.958805501461029
22 94 0.9658036828041077
22 95 0.15876860916614532
22 96 0.9544364809989929
22 97 0.9706554412841797
22 98 0.06441566348075867
22 99 0.9684817790985107
22 100 0.9598855376243591
22 101 0.9642303586006165
22 102 0.9669504165649414
22 103 0.11272741109132767
22 104 0.9362794160842896
22 105 0.9700150489807129
22 106 0.9544737339019775
22 107 0.9533876776695251
22 108 0.8819197416305542
22 110 0.9582651853561401
22 111 0.16422836482524872
22 112 0.17123152315616608
22 113 0.9677775502204895
22 114 0.2882639765739441
22 115 0.966201901435852
22 116 0.9695875644683838
22 117 0.15106812119483948
22 118 0.9438594579696655
22 119 0.9598488211631775
22 120 0.1022736057639122
22 121 0.9252654314041138
22 122 0.970159113407135
22 123 0.9571834206581116
22 124 0.9545118808746338
22 125 0.9538935422897339
22 126 0.9663767218589783
22 127 0.9678094387054443
22 128 0.9674481749534607
22 129 0.9705835580825806
22 130 0.1481560319662094
22 131 0.8465089201927185
22 132 0.9510341882705688
22 133 0.9781349897384644
22 134 0.11157120019197464
22 135 0.9446939826011658
22 136 0.9561004042625427
22 137 0.9518342614173889
22 138 0.9609642624855042
22 139 0.9533140063285828
22 140 0.9537877440452576
22 141 0.9668757319450378
22 142 0.9588820338249207
22 143 0.9668399095535278
22 144 0.34257420897483826
22 145 0.9683775305747986
22 146 0.9527350068092346
22 147 0.9674859046936035
22 149 0.8454952836036682
22 150 0.9664146304130554
22 151 0.9528067708015442
22 152 0.9625083804130554
22 153 0.9663767218589783
22 154 0.9555965065956116
22 155 0.9679467678070068
22 156 0.963584303855896
22 157 0.9620417952537537
22 159 0.963584303855896
22 160 0.1888515055179596
22 161 0.9560273289680481
22 162 0.9511377811431885
22 163 0.9586983919143677
22 164 0.24346832931041718
22 165 0.9653041362762451
22 166 0.9625800251960754
22 167 0.9528441429138184
22 168 0.10628042370080948
22 169 0.8829933404922485
22 170 0.9663767218589783
22 171 0.9566420316696167
22 172 0.9463774561882019
22 173 0.14056651294231415
22 174 0.8878113627433777
22 175 0.9620791673660278
22 176 0.9506672024726868
22 177 0.9699170589447021
22 178 0.7899556756019592
22 179 0.9704511761665344
22 180 0.9588432908058167
22 181 0.9669126868247986
22 182 0.9566420316696167
22 183 0.17650140821933746
22 184 0.9592732787132263
22 185 0.9250383973121643
22 186 0.14461742341518402
22 187 0.08521391451358795
22 188 0.9689461588859558
22 189 0.19331759214401245
22 190 0.963584303855896
22 191 0.9631552696228027
22 192 0.9556355476379395
22 193 0.972648561000824
22 195 0.9577622413635254
22 196 0.1938212662935257
22 198 0.18842269480228424
22 200 0.6310248374938965
22 201 0.9604625105857849
22 202 0.9593456387519836
22 203 0.9646590352058411
22 204 0.15876860916614532
22 205 0.9625800251960754
22 206 0.9641218781471252
22 207 0.96247398853302
22 208 0.08148008584976196
22 209 0.18780232965946198
22 210 0.14039067924022675
22 211 0.9674859046936035
22 212 0.11642436683177948
22 213 0.9635167121887207
22 214 0.10344576835632324
22 215 0.958341658115387
22 216 0.9462981820106506
22 217 0.9647303223609924
22 218 0.2935085594654083
22 219 0.08739923685789108
22 220 0.05578560009598732
22 221 0.9642683863639832
22 222 0.922462522983551
22 223 0.09711026400327682
22 224 0.9641570448875427
22 225 0.10810833424329758
22 226 0.9566799998283386
22 227 0.9598855376243591
22 228 0.11642436683177948
22 229 0.09711026400327682
22 230 0.9396679997444153
22 231 0.9688796401023865
22 232 0.1742117553949356
22 233 0.9544737339019775
22 234 0.16103914380073547
22 235 0.9647303223609924
22 236 0.9471480250358582
22 237 0.9695875644683838
22 238 0.07201889902353287
22 239 0.2537286579608917
22 240 0.9538935422897339
22 241 0.9668757319450378
22 242 0.9663039445877075
22 243 0.08739923685789108
22 244 0.9571834206581116
22 245 0.9548405408859253
22 247 0.9545118808746338
22 248 0.9652671217918396
22 249 0.07889275252819061
22 250 0.9690532088279724
22 251 0.21196992695331573
22 252 0.9571464657783508
22 253 0.1708078235387802
22 254 0.9587688446044922
22 255 0.9732145071029663
23 24 0.0736931711435318
23 26 0.06080404296517372
23 27 0.07296484708786011
23 32 0.060553815215826035
23 33 0.05022811517119408
23 35 0.0629940778017044
23 36 0.13675269484519958
23 37 0.1951800137758255
23 38 0.061217352747917175
23 40 0.1079898476600647
23 41 0.07259008288383484
23 42 0.08486250787973404
23 43 0.07330713421106339
23 44 0.0714285746216774
23 45 0.07440367341041565
23 46 0.0724787786602974
23 48 0.060553815215826035
23 49 0.08588472008705139
23 50 0.11396057158708572
23 51 0.07255292683839798
23 52 0.060867082327604294
23 53 0.08552499115467072
23 56 0.0613139346241951
23 58 0.0853024423122406
23 59 0.0738101676106453
23 60 0.08534681797027588
23 61 0.07311637699604034
23 62 0.08666446805000305
23 63 0.061121225357055664
23 65 0.05698028579354286
23 66 0.08561450242996216
23 67 0.07273928821086884
23 69 0.07296484708786011
23 70 0.2182178795337677
23 72 0.06083554029464722
23 73 0.07304049283266068
23 74 0.18898223340511322
23 75 0.07365428656339645
23 76 0.06170488893985748
23 77 0.08620323240756989
23 78 0.0849061980843544
23 79 0.06173780933022499
23 80 0.053452249616384506
23 82 0.14824986457824707
23 83 0.08508162200450897
23 84 0.07373210787773132
23 85 0.061606451869010925
23 86 0.07715167850255966
23 88 0.07288942486047745
23 90 0.0613139346241951
23 92 0.061936426907777786
23 93 0.061217352747917175
23 94 0.06080404296517372
23 97 0.07255292683839798
23 99 0.07277674227952957
23 100 0.08561450242996216
23 102 0.08486250787973404
23 103 0.09449111670255661
23 104 0.05022811517119408
23 105 0.06067853793501854
23 106 0.07377111166715622
23 108 0.0802285298705101
23 112 0.19446110725402832
23 113 0.06099375709891319
23 114 0.163027822971344
23 115 0.07323065400123596
23 116 0.07262729853391647
23 117 0.08058229088783264
23 118 0.05006261542439461
23 119 0.061217352747917175
23 120 0.10910893976688385
23 121 0.06327593326568604
23 122 0.06042985990643501
23 123 0.08583950251340866
23 124 0.08597537130117416
23 125 0.07388848066329956
23 126 0.06070984527468681
23 127 0.060930319130420685
23 128 0.0849061980843544
23 129 0.06058492511510849
23 130 0.07559289038181305
23 132 0.06200306490063667
23 133 0.059971701353788376
23 134 0.2182178795337677
23 135 0.07440367341041565
23 136 0.07365428656339645
23 137 0.0738101676106453
23 138 0.06108928471803665
23 139 0.06167202442884445
23 141 0.08503766357898712
23 143 0.07296484708786011
23 144 0.10308121144771576
23 145 0.0730026438832283
23 147 0.08481889218091965
23 150 0.0849061980843544
23 151 0.07396704703569412
23 153 0.07285180687904358
23 154 0.07361546903848648
23 155 0.07281424105167389
23 156 0.07326886802911758
23 157 0.07323065400123596
23 159 0.06105739250779152
23 160 0.11664237082004547
23 161 0.061508480459451675
23 162 0.0865253210067749
23 163 0.08597537130117416
23 164 0.0952381044626236
23 165 0.08508162200450897
23 166 0.07319250702857971
23 168 0.08908707648515701
23 169 0.053620073944330215
23 170 0.08499377965927124
23 171 0.08588472008705139
23 172 0.07420425117015839
23 175 0.08534681797027588
23 179 0.06083554029464722
23 180 0.061153218150138855
23 181 0.07281424105167389
23 182 0.061346229165792465
23 183 0.20044592022895813
23 184 0.0613139346241951
23 185 0.08918825536966324
23 188 0.07288942486047745
23 189 0.0613139346241951
23 190 0.06105739250779152
23 191 0.08525814861059189
23 192 0.0857943668961525
23 193 0.07270190864801407
23 195 0.07346081733703613
23 197 0.18898223340511322
23 198 0.05976143106818199
23 200 0.07368344068527222
23 201 0.06105739250779152
23 202 0.08565936237573624
23 203 0.08539125323295593
23 205 0.06099375709891319
23 207 0.061185259371995926
23 208 0.11952286213636398
23 209 0.12964074313640594
23 210 0.17342199385166168
23 211 0.06058492511510849
23 213 0.061185259371995926
23 214 0.17342199385166168
23 215 0.07334546744823456
23 218 0.08104409277439117
23 219 0.22792114317417145
23 221 0.07292710244655609
23 222 0.0634540244936943
23 223 0.22792114317417145
23 224 0.08534681797027588
23 225 0.29277002811431885
23 226 0.07353802770376205
23 227 0.08561450242996216
23 228 0.1951800137758255
23 231 0.08521391451358795
23 233 0.08606629818677902
23 234 0.22677867114543915
23 236 0.07484811544418335
23 237 0.07262729853391647
23 240 0.06157374009490013
23 241 0.06074119359254837
23 242 0.0730026438832283
23 243 0.11396057158708572
23 244 0.08583950251340866
23 246 0.18898223340511322
23 247 0.08597537130117416
23 248 0.08516974747180939
23 249 0.15430335700511932
23 250 0.07266457378864288
23 251 0.10585121810436249
23 252 0.06137857586145401
23 253 0.06681530922651291
23 254 0.06128169223666191
23 255 0.060491736978292465
24 26 0.9577054381370544
24 27 0.9587509036064148
24 31 0.9217928051948547
24 32 0.9600115418434143
24 33 0.9241334199905396
24 35 0.15164628624916077
24 36 0.5055666565895081
24 37 0.10907437652349472
24 38 0.9494783878326416
24 40 0.2042582780122757
24 41 0.9683888554573059
24 42 0.9609987139701843
24 43 0.9590468406677246
24 44 0.17195074260234833
24 45 0.9392756223678589
24 46 0.9637883305549622
24 47 0.9580971002578735
24 48 0.9620939493179321
24 49 0.952532172203064
24 50 0.08818021416664124
24 51 0.9606157541275024
24 52 0.9597449898719788
24 53 0.9569460153579712
24 54 0.954845130443573
24 56 0.9457049369812012
24 57 0.7295454740524292
24 58 0.9534081220626831
24 59 0.9434173107147217
24 60 0.9518076777458191
24 61 0.9638851284980774
24 62 0.9462781548500061
24 63 0.9521914124488831
24 64 0.1267351657152176
24 65 0.1959560364484787
24 66 0.9568959474563599
24 67 0.9589141011238098
24 69 0.960841953754425
24 70 0.1563446968793869
24 72 0.9613397121429443
24 73 0.9586983919143677
24 75 0.9509235620498657
24 76 0.9411247968673706
24 77 0.9465359449386597
24 78 0.9667075276374817
24 79 0.951181173324585
24 80 0.22977882623672485
24 81 0.08665502071380615
24 82 0.10833960771560669
24 83 0.9561650156974792
24 84 0.9498152732849121
24 85 0.9459794163703918
24 86 0.15256230533123016
24 87 0.08220817148685455
24 88 0.9556710124015808
24 89 0.26718631386756897
24 90 0.16341613233089447
24 91 0.13705869019031525
24 92 0.9457212686538696
24 93 0.9505310654640198
24 94 0.9597964286804199
24 95 0.17205305397510529
24 96 0.9513249397277832
24 97 0.9689328074455261
24 99 0.9625362157821655
24 100 0.9526897668838501
24 101 0.95820152759552
24 102 0.9620410203933716
24 103 0.11373472213745117
24 104 0.9262925982475281
24 105 0.9588587880134583
24 106 0.948203444480896
24 107 0.9534412622451782
24 108 0.862209677696228
24 110 0.9562961459159851
24 111 0.09559377282857895
24 112 0.16161569952964783
24 113 0.9585959911346436
24 114 0.2768234610557556
24 115 0.9559475779533386
24 116 0.96576327085495
24 117 0.13163375854492188
24 118 0.9243165850639343
24 119 0.95368891954422
24 120 0.11256817728281021
24 121 0.9248291254043579
24 122 0.9611636400222778
24 123 0.9467592835426331
24 124 0.9493136405944824
24 125 0.9454771876335144
24 126 0.967704713344574
24 127 0.9596943855285645
24 128 0.9625362157821655
24 129 0.9615465402603149
24 130 0.12348341196775436
24 131 0.8456997871398926
24 132 0.9478048086166382
24 133 0.972438395023346
24 134 0.11256817728281021
24 135 0.9360771775245667
24 136 0.947757363319397
24 137 0.9539937973022461
24 138 0.9537946581840515
24 139 0.9480467438697815
24 140 0.9569998383522034
24 141 0.9608932733535767
24 142 0.9558955430984497
24 143 0.9618874788284302
24 144 0.32791051268577576
24 145 0.9540172219276428
24 146 0.9495648145675659
24 147 0.9594630002975464
24 149 0.8589993119239807
24 150 0.9594076871871948
24 151 0.9454224705696106
24 152 0.9532424211502075
24 153 0.9603973031044006
24 154 0.957806408405304
24 155 0.9599021077156067
24 156 0.9511969089508057
24 157 0.9517502188682556
24 159 0.9511969089508057
24 160 0.1604539304971695
24 161 0.9455326199531555
24 162 0.9447588920593262
24 163 0.9482576847076416
24 164 0.20470324158668518
24 165 0.9551200270652771
24 166 0.9596447348594666
24 167 0.9454771876335144
24 168 0.1378673017024994
24 169 0.8805111050605774
24 170 0.9603973031044006
24 171 0.9451481699943542
24 172 0.941011369228363
24 173 0.14891371130943298
24 174 0.8820517659187317
24 175 0.9580971002578735
24 176 0.9400637745857239
24 177 0.9576517343521118
24 178 0.7815885543823242
24 179 0.95820152759552
24 180 0.9516382813453674
24 181 0.957815408706665
24 182 0.9514773488044739
24 183 0.1665896475315094
24 184 0.9478135108947754
24 185 0.9103003144264221
24 186 0.15174607932567596
24 187 0.08597537130117416
24 188 0.9619377851486206
24 189 0.18450206518173218
24 190 0.9564464092254639
24 191 0.9560545086860657
24 192 0.9494225382804871
24 193 0.9615465402603149
24 195 0.9515836834907532
24 196 0.19555321335792542
24 198 0.1490023136138916
24 200 0.6445822715759277
24 201 0.9553964734077454
24 202 0.9479285478591919
24 203 0.9523032307624817
24 204 0.17205305397510529
24 205 0.9575471878051758
24 206 0.9517502188682556
24 207 0.9500327110290527
24 208 0.09248419106006622
24 209 0.16161569952964783
24 210 0.11928015947341919
24 211 0.9625882506370544
24 212 0.11746471375226974
24 213 0.9658139944076538
24 214 0.10437013953924179
24 215 0.9511404633522034
24 216 0.9440984129905701
24 217 0.9597449898719788
24 218 0.2856796085834503
24 219 0.07838241010904312
24 220 0.056284088641405106
24 221 0.96138995885849
24 222 0.9187033772468567
24 223 0.0685846135020256
24 224 0.9528558850288391
24 225 0.1006840392947197
24 226 0.9462613463401794
24 227 0.9484837055206299
24 228 0.07551303505897522
24 229 0.10777582228183746
24 230 0.9287383556365967
24 231 0.9576517343521118
24 232 0.19224676489830017
24 233 0.9460893273353577
24 234 0.13648167252540588
24 235 0.9545118808746338
24 236 0.9363062381744385
24 237 0.9636819362640381
24 238 0.07266244292259216
24 239 0.2559959292411804
24 240 0.9528884887695312
24 241 0.9619377851486206
24 242 0.9634318947792053
24 243 0.07838241010904312
24 244 0.9594107866287231
24 245 0.9453161954879761
24 246 0.06499126553535461
24 247 0.9482576847076416
24 248 0.956109344959259
24 249 0.06633143872022629
24 250 0.965217649936676
24 251 0.22751493752002716
24 252 0.947757363319397
24 253 0.1378673017024994
24 254 0.9483688473701477
24 255 0.9611076712608337
25 40 0.2020305097103119
25 44 0.13363061845302582
25 57 0.05923488363623619
25 70 0.13608276844024658
25 80 0.10000000894069672
25 86 0.14433757960796356
25 87 0.22360678017139435
25 95 0.12909944355487823
25 108 0.050031278282403946
25 114 0.07624928653240204
25 149 0.05177803710103035
25 168 0.1666666567325592
25 169 0.050156984478235245
25 173 0.15430334210395813
25 178 0.055945418775081635
25 183 0.125
25 196 0.10910893976688385
25 200 0.06892455369234085
25 251 0.0990147516131401
26 27 0.9658384919166565
26 31 0.9394946694374084
26 32 0.9701113104820251
26 33 0.9342406988143921
26 35 0.15550994873046875
26 36 0.5102709531784058
26 37 0.12461119890213013
26 38 0.9619814157485962
26 40 0.1976431906223297
26 41 0.9732364416122437
26 42 0.9700769186019897
26 43 0.9651691913604736
26 44 0.16417090594768524
26 45 0.9553272724151611
26 46 0.9727723598480225
26 47 0.9652342200279236
26 48 0.9721731543540955
26 49 0.9566956758499146
26 50 0.08730871230363846
26 51 0.9717088341712952
26 52 0.9647673964500427
26 53 0.9641291499137878
26 54 0.9641291499137878
26 55 0.05572781711816788
26 56 0.963499128818512
26 57 0.7398545742034912
26 58 0.9626576900482178
26 59 0.9550371766090393
26 60 0.962120532989502
26 61 0.9668070673942566
26 62 0.9464110732078552
26 63 0.9646332263946533
26 64 0.13286393880844116
26 65 0.2037203311920166
26 66 0.9620147347450256
26 67 0.9680128693580627
26 69 0.9668737053871155
26 70 0.15479950606822968
26 72 0.9673745632171631
26 73 0.9678761959075928
26 74 0.06434894353151321
26 75 0.959290087223053
26 76 0.9559857249259949
26 77 0.951857328414917
26 78 0.9685112237930298
26 79 0.9522913098335266
26 80 0.22750788927078247
26 81 0.07507377117872238
26 82 0.1514384001493454
26 83 0.967408299446106
26 84 0.9571653008460999
26 85 0.9565584063529968
26 86 0.1379193216562271
26 87 0.09157015383243561
26 88 0.9700108170509338
26 89 0.2395210713148117
26 90 0.1618010401725769
26 91 0.18789799511432648
26 92 0.9532461166381836
26 93 0.9588547348976135
26 94 0.9689441323280334
26 95 0.17622683942317963
26 96 0.9576389193534851
26 97 0.9747968912124634
26 98 0.06434894353151321
26 99 0.9705763459205627
26 100 0.9609736204147339
26 101 0.969446063041687
26 102 0.9680128693580627
26 103 0.1045670360326767
26 104 0.93851637840271
26 105 0.971076488494873
26 106 0.9555783867835999
26 107 0.9576389193534851
26 108 0.8764532804489136
26 110 0.9593581557273865
26 111 0.13250860571861267
26 112 0.1765720546245575
26 113 0.9657368063926697
26 114 0.28796541690826416
26 115 0.9641622304916382
26 116 0.9706441164016724
26 117 0.11661355197429657
26 118 0.9439473152160645
26 119 0.9619814157485962
26 120 0.10216767340898514
26 121 0.9307708144187927
26 122 0.9722407460212708
26 123 0.9614114165306091
26 124 0.9577054381370544
26 125 0.9560505151748657
26 126 0.9684766530990601
26 127 0.9709564447402954
26 128 0.9705763459205627
26 129 0.972672700881958
26 130 0.14156769216060638
26 131 0.8444477915763855
26 132 0.9468823671340942
26 133 0.982227087020874
26 134 0.09287970513105392
26 135 0.9458267688751221
26 136 0.959290087223053
26 137 0.9550371766090393
26 138 0.9641291499137878
26 139 0.9554765224456787
26 140 0.95805823802948
26 141 0.9669085144996643
26 142 0.9620490670204163
26 143 0.9668737053871155
26 144 0.32174474000930786
26 145 0.9653031229972839
26 146 0.9506966471672058
26 147 0.9695783257484436
26 149 0.8516876101493835
26 150 0.9685112237930298
26 151 0.9518199563026428
26 152 0.9635926485061646
26 153 0.9695102572441101
26 154 0.9587845206260681
26 155 0.971076488494873
26 156 0.961546778678894
26 157 0.9620842933654785
26 159 0.9636257886886597
26 160 0.18865591287612915
26 161 0.9550371766090393
26 162 0.9501526951789856
26 163 0.960841953754425
26 164 0.23510895669460297
26 165 0.965338945388794
26 166 0.9626215100288391
26 167 0.9529055953025818
26 168 0.12133754044771194
26 169 0.8786554336547852
26 170 0.9664095044136047
26 171 0.9566956758499146
26 172 0.947502851486206
26 173 0.14042091369628906
26 174 0.8857620358467102
26 175 0.9652342200279236
26 176 0.9528341889381409
26 177 0.9720212817192078
26 178 0.7929559350013733
26 179 0.9704817533493042
26 180 0.9599325060844421
26 181 0.9679772853851318
26 182 0.9566956758499146
26 183 0.1592555046081543
26 184 0.9582797884941101
26 185 0.9219110608100891
26 186 0.16180375218391418
26 187 0.08512565493583679
26 188 0.9679425954818726
26 189 0.18789799511432648
26 190 0.9636257886886597
26 191 0.9663049578666687
26 192 0.9577757716178894
26 193 0.9695783257484436
26 195 0.959896981716156
26 196 0.18865591287612915
26 198 0.19331477582454681
26 200 0.6460522413253784
26 201 0.9625862836837769
26 202 0.9593937397003174
26 203 0.9657368063926697
26 204 0.17035260796546936
26 205 0.9678136706352234
26 206 0.9631232619285583
26 207 0.9625187516212463
26 208 0.09157015383243561
26 209 0.1710541695356369
26 210 0.12548260390758514
26 211 0.9695783257484436
26 212 0.12461119890213013
26 213 0.9604353904724121
26 214 0.10333861410617828
26 215 0.9594302773475647
26 216 0.9537584781646729
26 217 0.9678761959075928
26 218 0.27940669655799866
26 219 0.08730871230363846
26 220 0.05572781711816788
26 221 0.968442976474762
26 222 0.9279889464378357
26 223 0.08730871230363846
26 224 0.9652342200279236
26 225 0.08307413756847382
26 226 0.9588190913200378
26 227 0.9588913321495056
26 228 0.09968895465135574
26 229 0.10671065002679825
26 230 0.9461362957954407
26 231 0.9658036828041077
26 232 0.1794697791337967
26 233 0.9534851908683777
26 234 0.1351327896118164
26 235 0.9668399095535278
26 236 0.9482908844947815
26 237 0.9737353324890137
26 238 0.07194431126117706
26 239 0.2495054304599762
26 240 0.9550022482872009
26 241 0.9720790982246399
26 242 0.969446063041687
26 243 0.07760774344205856
26 244 0.9572359323501587
26 245 0.9538516402244568
26 247 0.9577054381370544
26 248 0.9663388133049011
26 249 0.05254069343209267
26 250 0.9711422324180603
26 251 0.22076104581356049
26 252 0.9572001695632935
26 253 0.1592555046081543
26 254 0.9619491100311279
26 255 0.9722065329551697
27 31 0.9341322779655457
27 32 0.9732041954994202
27 33 0.933171808719635
27 35 0.18768441677093506
27 36 0.5122111439704895
27 37 0.12461119890213013
27 38 0.957812488079071
27 40 0.22062495350837708
27 41 0.9722065329551697
27 42 0.9680128693580627
27 43 0.9620490670204163
27 44 0.17025130987167358
27 45 0.9447711706161499
27 46 0.9717440605163574
27 47 0.9704236388206482
27 48 0.96908038854599
27 49 0.9598289132118225
27 50 0.08730871230363846
27 51 0.9706794619560242
27 52 0.9689124822616577
27 53 0.9620490670204163
27 54 0.9620490670204163
27 55 0.05572781711816788
27 56 0.9561920166015625
27 57 0.7398545742034912
27 58 0.9626576900482178
27 59 0.9529427886009216
27 60 0.962120532989502
27 61 0.9668070673942566
27 62 0.9506267309188843
27 63 0.9667144417762756
27 64 0.13286393880844116
27 65 0.2037203311920166
27 66 0.9609736204147339
27 67 0.9711089134216309
27 69 0.9668737053871155
27 70 0.15479950606822968
27 72 0.9673745632171631
27 73 0.9658036828041077
27 74 0.06434894353151321
27 75 0.9572001695632935
27 76 0.9507330656051636
27 77 0.9570988416671753
27 78 0.9674786925315857
27 79 0.9522913098335266
27 80 0.22295773029327393
27 81 0.09652341902256012
27 82 0.1514384001493454
27 83 0.965338945388794
27 84 0.9571653008460999
27 85 0.9523629546165466
27 86 0.1576220691204071
27 87 0.1017446219921112
27 88 0.9689767360687256
27 89 0.28242039680480957
27 90 0.19311736524105072
27 91 0.18267859518527985
27 92 0.9479737281799316
27 93 0.957812488079071
27 94 0.9668737053871155
27 95 0.17622683942317963
27 96 0.9555434584617615
27 97 0.9717088341712952
27 99 0.9685112237930298
27 100 0.9599325060844421
27 101 0.9653031229972839
27 102 0.9721408486366272
27 103 0.12869788706302643
27 104 0.9342406988143921
27 105 0.9679772853851318
27 106 0.9545317888259888
27 107 0.9555434584617615
27 108 0.8753150701522827
27 110 0.9614437818527222
27 111 0.15774832665920258
27 112 0.1820899099111557
27 113 0.964698314666748
27 114 0.28796541690826416
27 115 0.9620842933654785
27 116 0.9696137309074402
27 117 0.14405202865600586
27 118 0.9375548958778381
27 119 0.9609392285346985
27 120 0.10216767340898514
27 121 0.9296935796737671
27 122 0.9722407460212708
27 123 0.9561920166015625
27 124 0.9545688033103943
27 125 0.9550022482872009
27 126 0.9715774655342102
27 127 0.9636949896812439
27 128 0.9674786925315857
27 129 0.9695783257484436
27 130 0.15443746745586395
27 131 0.8373416066169739
27 132 0.954271674156189
27 133 0.9801849722862244
27 134 0.11145563423633575
27 135 0.9447711706161499
27 136 0.9582451581954956
27 137 0.9592259526252747
27 138 0.9610089659690857
27 139 0.9512766003608704
27 140 0.951748251914978
27 141 0.9669085144996643
27 142 0.9620490670204163
27 143 0.9658384919166565
27 144 0.33929443359375
27 145 0.964267373085022
27 146 0.9538516402244568
27 147 0.9685468673706055
27 149 0.8540435433387756
27 150 0.9674786925315857
27 151 0.9570670127868652
27 152 0.9604708552360535
27 153 0.96744304895401
27 154 0.9577401280403137
27 155 0.9690102934837341
27 156 0.9636257886886597
27 157 0.9610453844070435
27 159 0.9605072736740112
27 160 0.18369126319885254
27 161 0.9550371766090393
27 162 0.9491004347801208
27 163 0.9566598534584045
27 164 0.2432161569595337
27 165 0.96637362241745
27 166 0.9678136706352234
27 167 0.951857328414917
27 168 0.13650473952293396
27 169 0.8809376358985901
27 170 0.96744304895401
27 171 0.9566956758499146
27 172 0.9527667164802551
27 173 0.14744196832180023
27 174 0.8868918418884277
27 175 0.9662720561027527
27 176 0.9559857249259949
27 177 0.9658036828041077
27 178 0.7891374826431274
27 179 0.9663388133049011
27 180 0.9588913321495056
27 181 0.9679772853851318
27 182 0.9577401280403137
27 183 0.17631860077381134
27 184 0.9603675007820129
27 185 0.9197419285774231
27 186 0.1733611673116684
27 187 0.08512565493583679
27 188 0.9679425954818726
27 189 0.19833676517009735
27 190 0.9605072736740112
27 191 0.9631944894790649
27 192 0.9588190913200378
27 193 0.9695783257484436
27 195 0.957812488079071
27 196 0.20851442217826843
27 198 0.18822753429412842
27 200 0.6350756287574768
27 201 0.9657047986984253
27 202 0.9593937397003174
27 203 0.9626215100288391
27 204 0.1644783765077591
27 205 0.963659942150116
27 206 0.9620842933654785
27 207 0.9593937397003174
27 208 0.1017446219921112
27 209 0.1655362993478775
27 210 0.11810127645730972
27 211 0.9737042188644409
27 212 0.12461119890213013
27 213 0.9614771008491516
27 214 0.13286393880844116
27 215 0.9615114331245422
27 216 0.9516484141349792
27 217 0.9647673964500427
27 218 0.29320454597473145
27 219 0.08730871230363846
27 220 0.05572781711816788
27 221 0.96637362241745
27 222 0.9247480034828186
27 223 0.09700968116521835
27 224 0.963158369064331
27 225 0.11630378663539886
27 226 0.9588190913200378
27 227 0.9630559086799622
27 228 0.107996366918087
27 229 0.10671065002679825
27 230 0.9397578239440918
27 231 0.9637311697006226
27 232 0.19034674763679504
27 233 0.9545317888259888
27 234 0.14800257980823517
27 235 0.9668399095535278
27 236 0.9440432190895081
27 237 0.9706441164016724
27 238 0.07194431126117706
27 239 0.25742626190185547
27 240 0.9560505151748657
27 241 0.9669085144996643
27 242 0.9653031229972839
27 243 0.09700968116521835
27 244 0.9603675007820129
27 245 0.952799916267395
27 246 0.06434894353151321
27 247 0.9556143283843994
27 248 0.964267373085022
27 249 0.06567586958408356
27 250 0.9711422324180603
27 251 0.22526636719703674
27 252 0.9551101922988892
27 253 0.17063090205192566
27 254 0.9588190913200378
27 255 0.9701467752456665
28 37 0.18257418274879456
28 55 0.40824827551841736
28 65 0.10660035163164139
28 70 0.13608276844024658
28 74 0.3535533845424652
28 81 0.2357022613286972
28 86 0.14433757960796356
28 91 0.11470786482095718
28 98 0.3535533845424652
28 111 0.1386750489473343
28 114 0.07624928653240204
28 144 0.06428243219852448
28 160 0.2182178795337677
28 186 0.1270001232624054
28 194 0.7071067690849304
28 196 0.10910893976688385
28 197 0.3535533845424652
28 208 0.22360678017139435
28 209 0.12126781791448593
28 218 0.15161961317062378
28 228 0.18257418274879456
28 234 0.1414213627576828
31 32 0.9377644658088684
31 33 0.9169486165046692
31 35 0.138888880610466
31 36 0.46834760904312134
31 37 0.0774596706032753
31 38 0.9286043643951416
31 40 0.20000000298023224
31 41 0.9368031620979309
31 42 0.9376595616340637
31 43 0.9277393221855164
31 44 0.1511857956647873
31 45 0.9153692722320557
31 46 0.9438894391059875
31 47 0.9290322661399841
31 48 0.9388325810432434
31 49 0.9240670800209045
31 50 0.07035264372825623
31 51 0.939522922039032
31 52 0.9318798780441284
31 53 0.9309718012809753
31 54 0.9320493936538696
31 55 0.05773502588272095
31 56 0.9311510324478149
31 57 0.7190325856208801
31 58 0.9285492300987244
31 59 0.9265110492706299
31 60 0.932258129119873
31 61 0.9285492300987244
31 62 0.9128029942512512
31 63 0.9271461963653564
31 64 0.1300022453069687
31 65 0.20100755989551544
31 66 0.9330248236656189
31 67 0.9355212450027466
31 69 0.9352047443389893
31 70 0.14754506945610046
31 72 0.937835156917572
31 73 0.9318798780441284
31 75 0.9310500025749207
31 76 0.9207625985145569
31 77 0.9209778308868408
31 78 0.9338634014129639
31 79 0.922342836856842
31 80 0.2121320366859436
31 81 0.08888889104127884
31 82 0.15689291059970856
31 83 0.9304332733154297
31 84 0.9287824630737305
31 85 0.9236403107643127
31 86 0.1428869068622589
31 87 0.10540925711393356
31 88 0.9331666827201843
31 89 0.2629629671573639
31 90 0.16762879490852356
31 91 0.17303617298603058
31 92 0.9100157618522644
31 93 0.9318436980247498
31 94 0.933059811592102
31 95 0.17040257155895233
31 96 0.9270022511482239
31 97 0.9373900890350342
31 98 0.06666667014360428
31 99 0.9349331259727478
31 100 0.9265528917312622
31 101 0.9335430264472961
31 102 0.9333828687667847
31 103 0.09166666865348816
31 104 0.911411464214325
31 105 0.9364852905273438
31 106 0.9271050095558167
31 107 0.9270022511482239
31 108 0.8431627154350281
31 110 0.9280116558074951
31 111 0.14381851255893707
31 112 0.16578197479248047
31 113 0.931667685508728
31 114 0.27677080035209656
31 115 0.9278477430343628
31 116 0.9383509755134583
31 117 0.1137070432305336
31 118 0.9139273762702942
31 119 0.9286043643951416
31 120 0.09622504562139511
31 121 0.8895178437232971
31 122 0.9411741495132446
31 123 0.9224991798400879
31 124 0.9228760600090027
31 125 0.9209778308868408
31 126 0.9358974695205688
31 127 0.9317733645439148
31 128 0.9349331259727478
31 129 0.9382462501525879
31 130 0.12000000476837158
31 131 0.8061501383781433
31 132 0.918650209903717
31 133 0.9477900266647339
31 134 0.06735753268003464
31 135 0.918650209903717
31 136 0.9321327209472656
31 137 0.9178317785263062
31 138 0.9309718012809753
31 139 0.934413492679596
31 140 0.9206562638282776
31 141 0.9353094100952148
31 142 0.9288167953491211
31 143 0.9373496770858765
31 144 0.3272727131843567
31 145 0.9324699640274048
31 146 0.9173877239227295
31 147 0.9361090660095215
31 149 0.8152406215667725
31 150 0.9360028505325317
31 151 0.9176081418991089
31 152 0.9325366616249084
31 153 0.9305433630943298
31 154 0.9262312054634094
31 155 0.9332744479179382
31 156 0.9261779189109802
31 157 0.9310769438743591
31 159 0.9272549152374268
31 160 0.19545091688632965
31 161 0.9275959730148315
31 162 0.9135177135467529
31 163 0.9228760600090027
31 164 0.24777673184871674
31 165 0.9336490631103516
31 166 0.9338193535804749
31 167 0.9253220558166504
31 168 0.117851123213768
31 169 0.8547389507293701
31 170 0.9316142797470093
31 171 0.9251490831375122
31 172 0.9205507636070251
31 173 0.14547859132289886
31 174 0.8509474992752075
31 175 0.9344086050987244
31 176 0.9196742177009583
31 177 0.9361742734909058
31 178 0.7753639817237854
31 179 0.9324699640274048
31 180 0.9276315569877625
31 181 0.9354149699211121
31 182 0.9251490831375122
31 183 0.1590990126132965
31 184 0.9300695061683655
31 185 0.8955621719360352
31 186 0.17361845076084137
31 187 0.07559289783239365
31 188 0.9342380166053772
31 189 0.18385092914104462
31 190 0.930485725402832
31 191 0.9323636293411255
31 192 0.9263376593589783
31 193 0.9382462501525879
31 195 0.9275246262550354
31 196 0.18002057075500488
31 198 0.163384348154068
31 200 0.5945916175842285
31 201 0.9294087886810303
31 202 0.9313551783561707
31 203 0.9348951578140259
31 204 0.17040257155895233
31 205 0.931667685508728
31 206 0.9300004839897156
31 207 0.9302759766578674
31 208 0.07378648221492767
31 209 0.18864843249320984
31 210 0.12235505878925323
31 211 0.9329031705856323
31 212 0.08606629818677902
31 213 0.928117573261261
31 214 0.10706067830324173
31 215 0.9249900579452515
31 216 0.9137840270996094
31 217 0.9329534769058228
31 218 0.275175541639328
31 219 0.07035264372825623
31 220 0.05773502588272095
31 221 0.9368647933006287
31 222 0.8987367153167725
31 223 0.07035264372825623
31 224 0.9397849440574646
31 225 0.09467293322086334
31 226 0.9263376593589783
31 227 0.9243956804275513
31 228 0.10327955335378647
31 229 0.10050377994775772
31 230 0.9174365401268005
31 231 0.9286591410636902
31 232 0.15212777256965637
31 233 0.9271050095558167
31 234 0.12666666507720947
31 235 0.9340271353721619
31 236 0.9131361246109009
31 237 0.9362159371376038
31 238 0.07453560084104538
31 239 0.21746164560317993
31 240 0.9209778308868408
31 241 0.9374521374702454
31 242 0.9367620944976807
31 243 0.08040302246809006
31 244 0.9246621131896973
31 245 0.9239249229431152
31 247 0.9239591956138611
31 248 0.9303238987922668
31 249 0.054433103650808334
31 250 0.935628354549408
31 251 0.21470962464809418
31 252 0.9278022050857544
31 253 0.1473139077425003
31 254 0.9284994602203369
31 255 0.941071093082428
32 33 0.9367832541465759
32 35 0.19225239753723145
32 36 0.5139676332473755
32 37 0.1075519397854805
32 38 0.9642502665519714
32 40 0.21971701085567474
32 41 0.9743594527244568
32 42 0.972251296043396
32 43 0.9643046259880066
32 44 0.1634952872991562
32 45 0.9545496106147766
32 46 0.9759377241134644
32 47 0.9684972763061523
32 48 0.978439450263977
32 49 0.9621198177337646
32 50 0.10627152025699615
32 51 0.9769360423088074
32 52 0.9711171984672546
32 53 0.9643046259880066
32 54 0.9694834351539612
32 55 0.05549848824739456
32 56 0.9616132974624634
32 57 0.7475466132164001
32 58 0.9669607281684875
32 59 0.9636214971542358
32 60 0.9684972763061523
32 61 0.9669607281684875
32 62 0.9530121088027954
32 63 0.9658451080322266
32 64 0.13966813683509827
32 65 0.19805145263671875
32 66 0.9642770290374756
32 67 0.972251296043396
32 69 0.9711422324180603
32 70 0.1479959636926651
32 72 0.9695824384689331
32 73 0.9680211544036865
32 75 0.9605457186698914
32 76 0.9593750834465027
32 77 0.9583799839019775
32 78 0.974808394908905
32 79 0.9546530842781067
32 80 0.20844590663909912
32 81 0.09612619876861572
32 82 0.1445312350988388
32 83 0.9696096181869507
32 84 0.9605188369750977
32 85 0.9578445553779602
32 86 0.1438923180103302
32 87 0.10132590681314468
32 88 0.9732280969619751
32 89 0.2883785665035248
32 90 0.19232265651226044
32 91 0.19752056896686554
32 92 0.9535238146781921
32 93 0.9632123112678528
32 94 0.9711422324180603
32 95 0.1579514592885971
32 96 0.9589151740074158
32 97 0.9748858213424683
32 98 0.06408413499593735
32 99 0.9737800359725952
32 100 0.9663506746292114
32 101 0.9695824384689331
32 102 0.9784177541732788
32 103 0.11214722692966461
32 104 0.9389122724533081
32 105 0.9773683547973633
32 106 0.9589422345161438
32 107 0.9599586129188538
32 108 0.8841821551322937
32 110 0.9668336510658264
32 111 0.1633831262588501
32 112 0.1758454144001007
32 113 0.9679675102233887
32 114 0.28678035736083984
32 115 0.9715760946273804
32 116 0.9748590588569641
32 117 0.1502906233072281
32 118 0.9411237239837646
32 119 0.9632123112678528
32 120 0.10174723714590073
32 121 0.9312318563461304
32 122 0.9774610996246338
32 123 0.9616132974624634
32 124 0.9600115418434143
32 125 0.9615119695663452
32 126 0.9716964960098267
32 127 0.9679937958717346
32 128 0.972751796245575
32 129 0.9727786779403687
32 130 0.15380191802978516
32 131 0.8468701243400574
32 132 0.9524470567703247
32 133 0.9842859506607056
32 134 0.10174723714590073
32 135 0.9503445625305176
32 136 0.9595050811767578
32 137 0.9594499468803406
32 138 0.9694834351539612
32 139 0.9567727446556091
32 140 0.9593521952629089
32 141 0.9711683392524719
32 142 0.9674118757247925
32 143 0.9701113104820251
32 144 0.3378981351852417
32 145 0.9695824384689331
32 146 0.9624941349029541
32 147 0.9738059639930725
32 149 0.848182737827301
32 150 0.9717234969139099
32 151 0.9583539366722107
32 152 0.9658451080322266
32 153 0.9716964960098267
32 154 0.9610795974731445
32 155 0.9722242951393127
32 156 0.9658715724945068
32 157 0.9674373269081116
32 159 0.9679421186447144
32 160 0.19282372295856476
32 161 0.9615357518196106
32 162 0.9535777568817139
32 163 0.958970308303833
32 164 0.2543260157108307
32 165 0.9706400036811829
32 166 0.9690016508102417
32 167 0.9562920928001404
32 168 0.12083819508552551
32 169 0.8784488439559937
32 170 0.9768431782722473
32 171 0.960039496421814
32 172 0.9582818746566772
32 173 0.11886659264564514
32 174 0.8866175413131714
32 175 0.9664300680160522
32 176 0.958328902721405
32 177 0.9721491932868958
32 178 0.7820873260498047
32 179 0.9695824384689331
32 180 0.968424379825592
32 181 0.9722242951393127
32 182 0.9652401208877563
32 183 0.16992871463298798
32 184 0.9616132974624634
32 185 0.9256781339645386
32 186 0.17264775931835175
32 187 0.08477533608675003
32 188 0.9721982479095459
32 189 0.18712475895881653
32 190 0.9669067859649658
32 191 0.9674910306930542
32 192 0.9663028120994568
32 193 0.9727786779403687
32 195 0.9642502665519714
32 196 0.1977679282426834
32 197 0.06408413499593735
32 198 0.20265181362628937
32 200 0.6465167999267578
32 201 0.9720830321311951
32 202 0.9627074003219604
32 203 0.9658991694450378
32 204 0.17550162971019745
32 205 0.9669333696365356
32 206 0.9674373269081116
32 207 0.9658195972442627
32 208 0.07092813402414322
32 209 0.1758454144001007
32 210 0.1323171705007553
32 211 0.9738059639930725
32 212 0.12409839779138565
32 213 0.9637447595596313
32 214 0.12496621906757355
32 215 0.9648088216781616
32 216 0.9519348740577698
32 217 0.9711171984672546
32 218 0.28856268525123596
32 219 0.09661047160625458
32 220 0.05549848824739456
32 221 0.9696096181869507
32 222 0.9284734725952148
32 223 0.10627152025699615
32 224 0.9684972763061523
32 225 0.1075519397854805
32 226 0.9663028120994568
32 227 0.9653138518333435
32 228 0.09927871078252792
32 229 0.10627152025699615
32 230 0.944360077381134
32 231 0.9711171984672546
32 232 0.1733151376247406
32 233 0.9610269069671631
32 234 0.15380191802978516
32 235 0.9731811881065369
32 236 0.9465035200119019
32 237 0.9758852124214172
32 238 0.057318586856126785
32 239 0.25636687874794006
32 240 0.9604679346084595
32 241 0.9711683392524719
32 242 0.968550980091095
32 243 0.10627152025699615
32 244 0.9616132974624634
32 245 0.9583048224449158
32 247 0.9620939493179321
32 248 0.968550980091095
32 249 0.07848671078681946
32 250 0.9753593802452087
32 251 0.2288261353969574
32 252 0.962627112865448
32 253 0.17559300363063812
32 254 0.9621466398239136
32 255 0.9764107465744019
33 35 0.160576730966568
33 36 0.49484196305274963
33 37 0.07720275223255157
33 38 0.9352101683616638
33 40 0.22306720912456512
33 41 0.9400766491889954
33 42 0.9398776888847351
33 43 0.9311058521270752
33 44 0.16324137151241302
33 45 0.9188733100891113
33 46 0.9471296072006226
33 47 0.933452844619751
33 48 0.9399767518043518
33 49 0.9328652620315552
33 50 0.07011930644512177
33 51 0.9395954012870789
33 52 0.935209333896637
33 53 0.928957998752594
33 54 0.9386233687400818
33 55 0.05754353106021881
33 56 0.9269846677780151
33 57 0.7375208735466003
33 58 0.9361809492111206
33 59 0.9331698417663574
33 60 0.935596227645874
33 61 0.931896448135376
33 62 0.9173932671546936
33 63 0.9305182099342346
33 64 0.12194923311471939
33 65 0.2153664380311966
33 66 0.9331552982330322
33 67 0.9409433007240295
33 69 0.935309648513794
33 70 0.1534494161605835
33 72 0.9347245693206787
33 73 0.9341393113136292
33 74 0.06644555181264877
33 75 0.9279619455337524
33 76 0.9209629893302917
33 77 0.9200880527496338
33 78 0.9360968470573425
33 79 0.9236249327659607
33 80 0.23492048680782318
33 81 0.06644554436206818
33 82 0.14985701441764832
33 83 0.9380309581756592
33 84 0.9311027526855469
33 85 0.9227429032325745
33 86 0.13563142716884613
33 87 0.10505963861942291
33 88 0.933275043964386
33 89 0.2547079622745514
33 90 0.17246226966381073
33 91 0.19402004778385162
33 92 0.9135304689407349
33 93 0.93198162317276
33 94 0.9342406988143921
33 95 0.1455748975276947
33 96 0.9271732568740845
33 97 0.9427840709686279
33 98 0.06644555181264877
33 99 0.9360968470573425
33 100 0.9288550615310669
33 101 0.9379330277442932
33 102 0.9356151819229126
33 103 0.12458540499210358
33 104 0.9116997718811035
33 105 0.9376460313796997
33 106 0.9294337630271912
33 107 0.9260913729667664
33 108 0.853294849395752
33 110 0.9313942193984985
33 111 0.1628880500793457
33 112 0.11395318061113358
33 113 0.9371556043624878
33 114 0.29018279910087585
33 115 0.9290615916252136
33 116 0.9394946098327637
33 117 0.1274961531162262
33 118 0.9108960628509521
33 119 0.9373626112937927
33 120 0.11508706212043762
33 121 0.8899046182632446
33 122 0.9444266557693481
33 123 0.925906777381897
33 124 0.9262925982475281
33 125 0.9276652336120605
33 126 0.9370623826980591
33 127 0.9361809492111206
33 128 0.9371631145477295
33 129 0.9383295774459839
33 130 0.1528247594833374
33 131 0.8242664337158203
33 132 0.922143280506134
33 133 0.9499179124832153
33 134 0.10549648106098175
33 135 0.9177833199501038
33 136 0.9333571195602417
33 137 0.9212754964828491
33 138 0.9311058521270752
33 139 0.9237250685691833
33 140 0.9186885952949524
33 141 0.9407498240470886
33 142 0.9332537055015564
33 143 0.9363785982131958
33 144 0.3412885069847107
33 145 0.9357941150665283
33 146 0.9284619092941284
33 147 0.9361994862556458
33 149 0.8307821750640869
33 150 0.9382292628288269
33 151 0.9243171811103821
33 152 0.9358906745910645
33 153 0.9338606595993042
33 154 0.9296298623085022
33 155 0.9355125427246094
33 156 0.9295463562011719
33 157 0.9387169480323792
33 159 0.9295463562011719
33 160 0.1948026567697525
33 161 0.9288446307182312
33 162 0.9256988167762756
33 163 0.9252130389213562
33 164 0.2385835498571396
33 165 0.9380309581756592
33 166 0.932866632938385
33 167 0.9265828132629395
33 168 0.14095228910446167
33 169 0.8471908569335938
33 170 0.9359951615333557
33 171 0.9350221753120422
33 172 0.9229329824447632
33 173 0.11599685996770859
33 174 0.8597911596298218
33 175 0.9345245361328125
33 176 0.9198782444000244
33 177 0.935209333896637
33 178 0.771477997303009
33 179 0.9379330277442932
33 180 0.934230387210846
33 181 0.9387127161026001
33 182 0.9317867755889893
33 183 0.1526983082294464
33 184 0.9269846677780151
33 185 0.8993114233016968
33 186 0.16707561910152435
33 187 0.05022811517119408
33 188 0.933275043964386
33 189 0.1670728176832199
33 190 0.9349132776260376
33 191 0.9356947541236877
33 192 0.9243425130844116
33 193 0.9383295774459839
33 195 0.9330578446388245
33 196 0.19992902874946594
33 198 0.18910735845565796
33 200 0.6039537787437439
33 201 0.9327664375305176
33 202 0.9357955455780029
33 203 0.9360833764076233
33 204 0.1334436684846878
33 205 0.9317943453788757
33 206 0.9333528876304626
33 207 0.9304174184799194
33 208 0.10505963861942291
33 209 0.18802273273468018
33 210 0.11432740092277527
33 211 0.9372645020484924
33 212 0.07720275223255157
33 213 0.928266167640686
33 214 0.11432740092277527
33 215 0.9326671361923218
33 216 0.9183791279792786
33 217 0.9373494386672974
33 218 0.26357728242874146
33 219 0.08013635128736496
33 220 0.05754353106021881
33 221 0.9380309581756592
33 222 0.894640326499939
33 223 0.06010225787758827
33 224 0.9398830533027649
33 225 0.1115150898694992
33 226 0.9264971613883972
33 227 0.9331552982330322
33 228 0.1115150898694992
33 229 0.10017043352127075
33 230 0.9165890216827393
33 231 0.9319992661476135
33 232 0.17408590018749237
33 233 0.9315952658653259
33 234 0.13953565061092377
33 235 0.9341393113136292
33 236 0.9068178534507751
33 237 0.940558671951294
33 238 0.07428838312625885
33 239 0.21265092492103577
33 240 0.9233354330062866
33 241 0.9375463128089905
33 242 0.9379330277442932
33 243 0.08013635128736496
33 244 0.9269846677780151
33 245 0.9273759722709656
33 246 0.06644555181264877
33 247 0.9262925982475281
33 248 0.9347245693206787
33 250 0.9389122724533081
33 251 0.21864959597587585
33 252 0.9258038997650146
33 253 0.15857133269309998
33 254 0.9254198670387268
33 255 0.9390131831169128
35 36 0.17085643112659454
35 37 0.12909944355487823
35 38 0.17816245555877686
35 39 0.1666666567325592
35 40 0.1666666567325592
35 41 0.16004610061645508
35 42 0.18175841867923737
35 43 0.15623947978019714
35 45 0.16951283812522888
35 46 0.16512738168239594
35 47 0.1827957034111023
35 48 0.18691204488277435
35 49 0.1677170842885971
35 50 0.15075565874576569
35 51 0.1919570118188858
35 52 0.18251104652881622
35 53 0.17240218818187714
35 54 0.17240218818187714
35 56 0.16762879490852356
35 57 0.13263706862926483
35 58 0.18270066380500793
35 59 0.1898588091135025
35 60 0.19354839622974396
35 61 0.16658002138137817
35 62 0.1856178343296051
35 63 0.17249232530593872
35 65 0.10050377994775772
35 66 0.17797580361366272
35 67 0.18175841867923737
35 68 0.1178511306643486
35 69 0.1769595891237259
35 70 0.09622504562139511
35 71 0.1178511306643486
35 72 0.14486011862754822
35 73 0.18787901103496552
35 75 0.17321860790252686
35 76 0.16869765520095825
35 77 0.19549055397510529
35 78 0.16580623388290405
35 79 0.1687876433134079
35 81 0.1666666567325592
35 82 0.0980580672621727
35 83 0.18758735060691833
35 84 0.16256402432918549
35 85 0.1792948693037033
35 86 0.10206206887960434
35 87 0.10540925711393356
35 88 0.18749041855335236
35 89 0.07407407462596893
35 90 0.08111070841550827
35 91 0.08111070841550827
35 92 0.1802552044391632
35 93 0.16196587681770325
35 94 0.18232201039791107
35 96 0.1736772209405899
35 97 0.17062844336032867
35 98 0.0833333283662796
35 99 0.18185199797153473
35 100 0.19415543973445892
35 101 0.16632089018821716
35 102 0.19245009124279022
35 103 0.0833333283662796
35 104 0.15503960847854614
35 105 0.1872970312833786
35 106 0.17891499400138855
35 107 0.1736772209405899
35 108 0.18278352916240692
35 110 0.17825601994991302
35 111 0.2941742241382599
35 113 0.17213259637355804
35 114 0.053916383534669876
35 115 0.18298621475696564
35 116 0.17614096403121948
35 117 0.21320070326328278
35 118 0.1710854321718216
35 119 0.1403704285621643
35 121 0.17857320606708527
35 122 0.17587058246135712
35 123 0.18385092914104462
35 124 0.1787259727716446
35 125 0.19006025791168213
35 126 0.17668543756008148
35 127 0.16658002138137817
35 128 0.16580623388290405
35 129 0.1709788292646408
35 131 0.16564728319644928
35 132 0.1531083583831787
35 133 0.17982622981071472
35 134 0.14433756470680237
35 135 0.16951283812522888
35 136 0.15697936713695526
35 137 0.18443429470062256
35 138 0.17778974771499634
35 139 0.17404675483703613
35 140 0.15798243880271912
35 141 0.18213355541229248
35 142 0.17240218818187714
35 143 0.1769595891237259
35 144 0.1515151411294937
35 145 0.17705126106739044
35 146 0.17432545125484467
35 147 0.1870080828666687
35 149 0.14034831523895264
35 150 0.18185199797153473
35 151 0.18482628464698792
35 152 0.17249232530593872
35 153 0.17668543756008148
35 154 0.17312732338905334
35 155 0.1872970312833786
35 156 0.19385120272636414
35 157 0.19375009834766388
35 159 0.15077315270900726
35 160 0.05143444985151291
35 161 0.1573115885257721
35 162 0.16351749002933502
35 163 0.15706223249435425
35 164 0.1259881556034088
35 165 0.1822277158498764
35 166 0.17213259637355804
35 167 0.15747849643230438
35 169 0.1536874920129776
35 170 0.1873936504125595
35 171 0.18394778668880463
35 172 0.19632600247859955
35 174 0.13460654020309448
35 175 0.17204301059246063
35 176 0.17958135902881622
35 177 0.16640713810920715
35 178 0.10549169778823853
35 179 0.18241645395755768
35 180 0.18336902558803558
35 181 0.18194569647312164
35 182 0.17312732338905334
35 183 0.1178511306643486
35 184 0.16762879490852356
35 185 0.1629316359758377
35 187 0.0629940778017044
35 188 0.1767766773700714
35 189 0.08111070841550827
35 190 0.1723121702671051
35 191 0.1933472901582718
35 192 0.18915879726409912
35 193 0.17632189393043518
35 195 0.18896017968654633
35 196 0.12858612835407257
35 197 0.2499999850988388
35 198 0.10540925711393356
35 200 0.15433388948440552
35 201 0.18846642971038818
35 202 0.18886113166809082
35 203 0.1613743007183075
35 204 0.06085805967450142
35 205 0.18827001750469208
35 206 0.17760424315929413
35 207 0.1618809849023819
35 208 0.05270462855696678
35 209 0.11433238536119461
35 211 0.18166500329971313
35 213 0.1726730465888977
35 214 0.11470786482095718
35 215 0.19405387341976166
35 216 0.14756081998348236
35 217 0.16103915870189667
35 218 0.07147417217493057
35 219 0.10050377994775772
35 221 0.16078916192054749
35 222 0.1454990953207016
35 223 0.20100755989551544
35 224 0.15591397881507874
35 225 0.08606629818677902
35 226 0.17294518649578094
35 227 0.18336902558803558
35 228 0.17213259637355804
35 230 0.17621828615665436
35 231 0.18251104652881622
35 232 0.16903084516525269
35 233 0.1897583305835724
35 235 0.18251104652881622
35 236 0.1705254167318344
35 237 0.17614096403121948
35 239 0.08206099271774292
35 240 0.17376938462257385
35 241 0.17141981422901154
35 242 0.17705126106739044
35 243 0.10050377994775772
35 244 0.17303617298603058
35 245 0.1634301096200943
35 246 0.0833333283662796
35 247 0.1787259727716446
35 248 0.19314683973789215
35 249 0.06804138422012329
35 250 0.17089101672172546
35 252 0.18404477834701538
35 253 0.2357022613286972
35 254 0.17834971845149994
35 255 0.1707158386707306
36 37 0.20240971446037292
36 38 0.5039725303649902
36 39 0.06030227243900299
36 40 0.08614610135555267
36 41 0.5211617350578308
36 42 0.5222330093383789
36 43 0.5224112272262573
36 44 0.14814874529838562
36 45 0.5104409456253052
36 46 0.49916261434555054
36 47 0.5174323916435242
36 48 0.5043066143989563
36 49 0.505033552646637
36 50 0.09090909361839294
36 51 0.5208948850631714
36 52 0.4991467595100403
36 53 0.5107154846191406
36 54 0.5146139860153198
36 55 0.10444659739732742
36 56 0.5184629559516907
36 57 0.39907386898994446
36 58 0.5152191519737244
36 59 0.5142200589179993
36 60 0.5135419368743896
36 61 0.5249402523040771
36 62 0.49974244832992554
36 63 0.5090321898460388
36 64 0.05533716082572937
36 65 0.15454545617103577
36 66 0.5132012367248535
36 67 0.5086936354637146
36 69 0.5083308219909668
36 70 0.19728800654411316
36 71 0.08528028428554535
36 72 0.5027704834938049
36 73 0.5146844387054443
36 74 0.12060454487800598
36 75 0.5072583556175232
36 76 0.50601726770401
36 77 0.5226246118545532
36 78 0.5244370698928833
36 79 0.48067739605903625
36 80 0.11086437106132507
36 81 0.14070528745651245
36 82 0.16556747257709503
36 83 0.5061286687850952
36 84 0.49995195865631104
36 85 0.4816204309463501
36 86 0.14770978689193726
36 88 0.5233108997344971
36 89 0.07370277494192123
36 90 0.11738783866167068
36 91 0.20542871952056885
36 92 0.5217503309249878
36 93 0.500065803527832
36 94 0.514151394367218
36 95 0.11009638011455536
36 96 0.49485546350479126
36 97 0.5112487077713013
36 98 0.09045340120792389
36 99 0.5244370698928833
36 100 0.5190552473068237
36 101 0.4930644929409027
36 102 0.5202988386154175
36 103 0.07537783682346344
36 104 0.47080105543136597
36 105 0.5130901336669922
36 106 0.5061013102531433
36 107 0.4771820604801178
36 108 0.4821350574493408
36 110 0.49055635929107666
36 111 0.20104621350765228
36 112 0.11375929415225983
36 113 0.4924006164073944
36 114 0.2535998821258545
36 115 0.5121298432350159
36 116 0.5117728114128113
36 117 0.1414213627576828
36 118 0.49720513820648193
36 119 0.5020191669464111
36 120 0.08703883737325668
36 121 0.4825575649738312
36 122 0.5148438215255737
36 123 0.510637104511261
36 124 0.5036070346832275
36 125 0.520659863948822
36 126 0.4959201514720917
36 127 0.5132749080657959
36 128 0.5070203542709351
36 129 0.5180981159210205
36 130 0.15678590536117554
36 131 0.41287481784820557
36 132 0.47087186574935913
36 133 0.5185950398445129
36 134 0.08703883737325668
36 135 0.49065640568733215
36 136 0.5052998661994934
36 137 0.5083319544792175
36 138 0.5009689331054688
36 139 0.4762294292449951
36 140 0.4967024326324463
36 141 0.515558123588562
36 142 0.5048675537109375
36 143 0.4947494566440582
36 144 0.31795743107795715
36 145 0.5221825242042542
36 146 0.4888182580471039
36 147 0.5180981159210205
36 148 0.06030227243900299
36 149 0.44818806648254395
36 150 0.5108906626701355
36 151 0.5113792419433594
36 152 0.49733030796051025
36 153 0.5114176273345947
36 154 0.4932885766029358
36 155 0.5014730095863342
36 156 0.5104488134384155
36 157 0.4946044981479645
36 159 0.49486255645751953
36 160 0.16748715937137604
36 161 0.5083319544792175
36 162 0.5226052403450012
36 163 0.5114452838897705
36 164 0.05318159982562065
36 165 0.5080678462982178
36 166 0.5118630528450012
36 167 0.50887131690979
36 168 0.08528027683496475
36 169 0.4598207473754883
36 170 0.5114176273345947
36 171 0.5030760169029236
36 172 0.481448769569397
36 173 0.131590336561203
36 174 0.4213823080062866
36 175 0.49019911885261536
36 176 0.48239004611968994
36 177 0.5108000040054321
36 178 0.43416479229927063
36 179 0.5202412605285645
36 180 0.48978525400161743
36 181 0.5092177391052246
36 182 0.46784114837646484
36 183 0.14924049377441406
36 184 0.5008547902107239
36 185 0.4777054488658905
36 186 0.07581424713134766
36 187 0.09116846323013306
36 188 0.5116817355155945
36 189 0.1369524747133255
36 190 0.5065522789955139
36 191 0.5188379883766174
36 192 0.5025467872619629
36 193 0.5045657157897949
36 194 0.06030227243900299
36 195 0.5039725303649902
36 196 0.08374357968568802
36 197 0.12060454487800598
36 198 0.12395013123750687
36 200 0.29683420062065125
36 201 0.5007073879241943
36 202 0.5134701728820801
36 203 0.5215942859649658
36 204 0.05504819005727768
36 205 0.5274330973625183
36 206 0.5043408274650574
36 207 0.4919942319393158
36 208 0.11441550403833389
36 209 0.16546806693077087
36 210 0.12450861185789108
36 211 0.508432149887085
36 212 0.06227991729974747
36 213 0.5076131224632263
36 214 0.05533716082572937
36 215 0.49733030796051025
36 216 0.5141212344169617
36 217 0.5127422213554382
36 218 0.24567310512065887
36 219 0.072727270424366
36 221 0.5119462013244629
36 222 0.49606427550315857
36 223 0.12727272510528564
36 224 0.4960348606109619
36 225 0.06227991729974747
36 226 0.516234815120697
36 227 0.5171039700508118
36 228 0.14012981951236725
36 229 0.05454545095562935
36 230 0.5160427093505859
36 231 0.5166265964508057
36 232 0.08154355734586716
36 233 0.5198327302932739
36 234 0.14472544193267822
36 235 0.5010889768600464
36 236 0.5095095038414001
36 237 0.5137040019035339
36 239 0.15587663650512695
36 240 0.5029770731925964
36 241 0.49036169052124023
36 242 0.4988880753517151
36 243 0.05454545095562935
36 244 0.49694183468818665
36 245 0.5183839201927185
36 246 0.06030227243900299
36 247 0.5094857811927795
36 248 0.5047116875648499
36 249 0.07385489344596863
36 250 0.5139676332473755
36 251 0.06755205243825912
36 252 0.4935486912727356
36 253 0.10660035908222198
36 254 0.5045022964477539
36 255 0.5057199001312256
37 38 0.10036658495664597
37 40 0.07377111166715622
37 41 0.12397117912769318
37 42 0.12422599643468857
37 43 0.10850300639867783
37 44 0.14638501405715942
37 45 0.11859723180532455
37 46 0.06601657718420029
37 47 0.12493494898080826
37 48 0.08273226767778397
37 49 0.1089593768119812
37 50 0.07784989476203918
37 51 0.11564719676971436
37 52 0.11642436683177948
37 53 0.12519577145576477
37 54 0.1168493926525116
37 55 0.14907120168209076
37 56 0.10052493959665298
37 57 0.08651808649301529
37 58 0.1082206591963768
37 59 0.11765120923519135
37 60 0.12493494898080826
37 61 0.11654532700777054
37 62 0.11840619891881943
37 63 0.11691047996282578
37 65 0.11677483469247818
37 66 0.10026143491268158
37 67 0.08281733095645905
37 68 0.18257418274879456
37 69 0.09138154983520508
37 70 0.2981424033641815
37 72 0.1080523133277893
37 73 0.10810833424329758
37 74 0.25819888710975647
37 75 0.09224501252174377
37 76 0.0927354246377945
37 77 0.1177760437130928
37 78 0.11600395292043686
37 79 0.08434990048408508
37 81 0.3442651927471161
37 82 0.05063696950674057
37 83 0.0913342833518982
37 84 0.10913200676441193
37 85 0.07575339078903198
37 86 0.3162277936935425
37 88 0.12448239326477051
37 91 0.12565617263317108
37 92 0.12693190574645996
37 93 0.08363882452249527
37 94 0.12461119890213013
37 95 0.18856181204319
37 96 0.10089734941720963
37 97 0.11564719676971436
37 98 0.12909944355487823
37 99 0.11600395292043686
37 100 0.12532679736614227
37 101 0.06649373471736908
37 102 0.12422599643468857
37 103 0.12909944355487823
37 104 0.05146849900484085
37 105 0.11606372892856598
37 106 0.10079052299261093
37 107 0.09248924255371094
37 108 0.11874745786190033
37 110 0.09205102175474167
37 111 0.20254787802696228
37 112 0.13284222781658173
37 113 0.06666667014360428
37 114 0.22273842990398407
37 115 0.10838979482650757
37 116 0.10749676823616028
37 117 0.16514456272125244
37 118 0.08549819886684418
37 119 0.09200270473957062
37 121 0.1123867928981781
37 122 0.09907547384500504
37 123 0.12565617263317108
37 124 0.12585505843162537
37 125 0.1177760437130928
37 126 0.10782905668020248
37 127 0.11654532700777054
37 128 0.09943195432424545
37 129 0.10760719329118729
37 131 0.06653102487325668
37 132 0.07624107599258423
37 133 0.10651802271604538
37 134 0.14907120168209076
37 135 0.1016547679901123
37 136 0.10901682078838348
37 137 0.10924755036830902
37 138 0.08346385508775711
37 139 0.11796402931213379
37 140 0.10127393156290054
37 141 0.1161835715174675
37 142 0.06677108258008957
37 143 0.107996366918087
37 144 0.23472626507282257
37 145 0.12467575073242188
37 146 0.10127393156290054
37 147 0.10760719329118729
37 149 0.0756266638636589
37 150 0.10771795362234116
37 151 0.12632279098033905
37 152 0.11691047996282578
37 153 0.11612360179424286
37 154 0.11734087020158768
37 155 0.11606372892856598
37 156 0.12513041496276855
37 157 0.06670141220092773
37 159 0.0834202766418457
37 160 0.07968190312385559
37 161 0.09244024008512497
37 162 0.08444006741046906
37 163 0.11746471375226974
37 165 0.10794050991535187
37 166 0.10833333432674408
37 167 0.1177760437130928
37 169 0.09157370775938034
37 170 0.09953451156616211
37 171 0.1089593768119812
37 172 0.08448526263237
37 173 0.28171807527542114
37 174 0.06346612423658371
37 175 0.10827695578336716
37 176 0.0927354246377945
37 177 0.11642436683177948
37 178 0.12257027626037598
37 179 0.11636403203010559
37 180 0.06684096157550812
37 181 0.0994831994175911
37 182 0.07543341815471649
37 183 0.2282177358865738
37 184 0.09214786440134048
37 185 0.13055823743343353
37 188 0.12448239326477051
37 189 0.12565617263317108
37 190 0.10010432451963425
37 191 0.11648479849100113
37 192 0.11721741408109665
37 193 0.10760719329118729
37 194 0.25819888710975647
37 195 0.11709434539079666
37 196 0.11952285468578339
37 197 0.25819888710975647
37 198 0.08164965361356735
37 200 0.06291922181844711
37 201 0.11678838729858398
37 202 0.12539246678352356
37 203 0.11666666716337204
37 205 0.125
37 206 0.08337676525115967
37 207 0.06687597930431366
37 208 0.1632993072271347
37 209 0.08856149017810822
37 211 0.10760719329118729
37 212 0.13333334028720856
37 213 0.10031396895647049
37 214 0.05923489108681679
37 215 0.10855972766876221
37 216 0.11853344738483429
37 217 0.09147629141807556
37 218 0.1660909503698349
37 219 0.07784989476203918
37 221 0.12454674392938614
37 222 0.12137258797883987
37 223 0.07784989476203918
37 224 0.07496096938848495
37 225 0.06666667014360428
37 226 0.10884474217891693
37 227 0.11697167903184891
37 228 0.13333334028720856
37 229 0.07784989476203918
37 230 0.11090470850467682
37 231 0.11642436683177948
37 232 0.13093073666095734
37 233 0.11758894473314285
37 234 0.10327955335378647
37 235 0.05821218341588974
37 236 0.11930566281080246
37 237 0.1157657578587532
37 240 0.08412574976682663
37 241 0.10788474231958389
37 242 0.1080523133277893
37 243 0.07784989476203918
37 244 0.09214786440134048
37 245 0.1181529238820076
37 247 0.12585505843162537
37 248 0.1080523133277893
37 249 0.10540926456451416
37 250 0.11582516878843307
37 251 0.07231015712022781
37 252 0.08385910093784332
37 253 0.18257418274879456
37 254 0.10884474217891693
37 255 0.0743827074766159
38 40 0.21286946535110474
38 41 0.9684461951255798
38 42 0.962124764919281
38 43 0.9570701718330383
38 44 0.15304337441921234
38 45 0.9405653476715088
38 46 0.9700671434402466
38 47 0.961345911026001
38 48 0.9673641324043274
38 49 0.9537350535392761
38 50 0.07813528180122375
38 51 0.9648414254188538
38 52 0.9598488211631775
38 53 0.9528816342353821
38 54 0.9570701718330383
38 55 0.056106630712747574
38 56 0.9532329440116882
38 57 0.735386073589325
38 58 0.9577129483222961
38 59 0.9478229284286499
38 60 0.9571661949157715
38 61 0.9556241035461426
38 62 0.9401113390922546
38 63 0.9586182236671448
38 64 0.14119857549667358
38 65 0.20510512590408325
38 66 0.9538789391517639
38 67 0.9652417898178101
38 69 0.9588547348976135
38 70 0.14961767196655273
38 72 0.9614369869232178
38 73 0.9619354605674744
38 74 0.06478635221719742
38 75 0.9510816335678101
38 76 0.9497919082641602
38 77 0.9467177987098694
38 78 0.9615805149078369
38 79 0.9450074434280396
38 80 0.19698674976825714
38 81 0.06478635221719742
38 82 0.1524677872657776
38 83 0.961483895778656
38 84 0.9478737115859985
38 85 0.958836555480957
38 86 0.11902013421058655
38 87 0.10243622213602066
38 88 0.9609870910644531
38 89 0.28434011340141296
38 90 0.19443008303642273
38 91 0.19443008303642273
38 92 0.9438011050224304
38 93 0.9517313838005066
38 94 0.9630236625671387
38 95 0.17742474377155304
38 96 0.9472705721855164
38 97 0.963805079460144
38 98 0.06478635221719742
38 99 0.9605409502983093
38 100 0.9528307318687439
38 101 0.9635224938392639
38 102 0.9610857963562012
38 103 0.12147441506385803
38 104 0.9384387731552124
38 105 0.9631161689758301
38 106 0.9462676048278809
38 107 0.9567644000053406
38 108 0.8755350708961487
38 110 0.9564306139945984
38 111 0.133409321308136
38 112 0.17221690714359283
38 113 0.9587100148200989
38 114 0.25149932503700256
38 115 0.9550256133079529
38 116 0.9627182483673096
38 117 0.11049997806549072
38 118 0.9342740178108215
38 119 0.9569779634475708
38 120 0.1028621643781662
38 121 0.9327592253684998
38 122 0.9674554467201233
38 123 0.9511309862136841
38 124 0.9515836834907532
38 125 0.9446069598197937
38 126 0.9646536111831665
38 127 0.9556241035461426
38 128 0.9636595845222473
38 129 0.9616302251815796
38 130 0.14252997934818268
38 131 0.8430333733558655
38 132 0.9448164701461792
38 133 0.9745122194290161
38 134 0.09351105988025665
38 135 0.9458792805671692
38 136 0.9489774703979492
38 137 0.9467686414718628
38 138 0.9549759030342102
38 139 0.9492860436439514
38 140 0.945512056350708
38 141 0.9589048027992249
38 142 0.9549759030342102
38 143 0.957812488079071
38 144 0.3239317834377289
38 145 0.9583086371421814
38 146 0.9497472643852234
38 147 0.9616302251815796
38 149 0.8420588970184326
38 150 0.9646991491317749
38 151 0.9487809538841248
38 152 0.9544275999069214
38 153 0.9646536111831665
38 154 0.9526834487915039
38 155 0.9641562104225159
38 156 0.9555239081382751
38 157 0.9571176171302795
38 159 0.9576170444488525
38 160 0.19493664801120758
38 161 0.9478229284286499
38 162 0.9417800903320312
38 163 0.9526363015174866
38 164 0.24078825116157532
38 165 0.9604421854019165
38 166 0.9597554802894592
38 167 0.9509394764900208
38 168 0.12216231226921082
38 169 0.8708416223526001
38 170 0.9604911208152771
38 171 0.9505804181098938
38 172 0.941224217414856
38 173 0.1343066543340683
38 174 0.8815456628799438
38 175 0.961345911026001
38 176 0.951907217502594
38 177 0.958805501461029
38 178 0.7868129014968872
38 179 0.9583086371421814
38 180 0.9559754133224487
38 181 0.9631161689758301
38 182 0.9516319632530212
38 183 0.16033804416656494
38 184 0.9500799775123596
38 185 0.922717809677124
38 186 0.16290362179279327
38 187 0.08570428937673569
38 188 0.9620282649993896
38 189 0.17866548895835876
38 190 0.9576170444488525
38 191 0.960347056388855
38 192 0.9495803117752075
38 193 0.9626687169075012
38 195 0.9538300037384033
38 196 0.19493664801120758
38 197 0.06478635221719742
38 198 0.1997506320476532
38 200 0.6283412575721741
38 201 0.9544773697853088
38 202 0.9533299803733826
38 203 0.9576645493507385
38 204 0.1596822589635849
38 205 0.9587100148200989
38 206 0.9665318727493286
38 207 0.9606713652610779
38 208 0.09219259768724442
38 209 0.17221690714359283
38 210 0.12633557617664337
38 211 0.9626687169075012
38 212 0.11709434539079666
38 213 0.9512324333190918
38 214 0.13376706838607788
38 215 0.9575705528259277
38 216 0.9432461261749268
38 217 0.9598488211631775
38 218 0.2813059687614441
38 219 0.10743601620197296
38 220 0.056106630712747574
38 221 0.963567316532135
38 222 0.9223326444625854
38 223 0.10743601620197296
38 224 0.9603009819984436
38 225 0.11709434539079666
38 226 0.9548324346542358
38 227 0.9549272060394287
38 228 0.10873046517372131
38 229 0.07813528180122375
38 230 0.9450754523277283
38 231 0.956718921661377
38 232 0.1806897222995758
38 233 0.953643798828125
38 234 0.14252997934818268
38 235 0.9598488211631775
38 236 0.9322850108146667
38 237 0.9658305048942566
38 239 0.25518879294395447
38 240 0.947773277759552
38 241 0.9693163633346558
38 242 0.9572658538818359
38 243 0.10743601620197296
38 244 0.9542838931083679
38 245 0.946570873260498
38 247 0.9484257102012634
38 248 0.9593513607978821
38 249 0.06612230092287064
38 250 0.9632123112678528
38 251 0.2177256941795349
38 252 0.9489774703979492
38 253 0.1488853245973587
38 254 0.9516811370849609
38 255 0.9663724303245544
39 40 0.1428571492433548
39 65 0.15075567364692688
39 70 0.19245009124279022
39 89 0.1111111119389534
39 120 0.2886751592159271
39 144 0.09090908616781235
39 168 0.2357022613286972
39 208 0.3162277638912201
39 214 0.22941572964191437
39 232 0.16903086006641388
39 246 0.5
40 41 0.19662804901599884
40 42 0.2245251089334488
40 43 0.20318830013275146
40 44 0.1079898476600647
40 45 0.17341865599155426
40 46 0.20545803010463715
40 47 0.21658986806869507
40 48 0.21513958275318146
40 49 0.21795493364334106
40 50 0.08614609390497208
40 51 0.21480903029441833
40 52 0.21625258028507233
40 53 0.2124241292476654
40 54 0.21704204380512238
40 56 0.19466570019721985
40 57 0.20344331860542297
40 58 0.21187137067317963
40 59 0.22318097949028015
40 60 0.21658986806869507
40 61 0.19805365800857544
40 62 0.2012159675359726
40 63 0.20791485905647278
40 65 0.10768261551856995
40 66 0.19415545463562012
40 67 0.21994295716285706
40 69 0.21143226325511932
40 70 0.13746435940265656
40 71 0.10101525485515594
40 72 0.19314683973789215
40 73 0.17484252154827118
40 74 0.0714285746216774
40 75 0.18559138476848602
40 76 0.21922920644283295
40 77 0.21876324713230133
40 78 0.21547168493270874
40 79 0.18667757511138916
40 80 0.08081220090389252
40 82 0.0840497687458992
40 83 0.18835300207138062
40 84 0.20901088416576385
40 85 0.1955944001674652
40 86 0.1749635487794876
40 87 0.1807015836238861
40 88 0.20662210881710052
40 89 0.1428571492433548
40 92 0.1732322871685028
40 93 0.18973146378993988
40 94 0.20683589577674866
40 95 0.18257418274879456
40 96 0.20469102263450623
40 97 0.21937942504882812
40 98 0.0714285746216774
40 99 0.19254916906356812
40 100 0.20802368223667145
40 101 0.19314683973789215
40 102 0.20619651675224304
40 103 0.1428571492433548
40 104 0.20408275723457336
40 105 0.20640899240970612
40 106 0.2044743150472641
40 107 0.20003895461559296
40 108 0.19710296392440796
40 109 0.10101525485515594
40 110 0.20835120975971222
40 111 0.1400829553604126
40 112 0.07349938899278641
40 113 0.21209195256233215
40 114 0.13864214718341827
40 115 0.19375011324882507
40 116 0.20587904751300812
40 117 0.2436579465866089
40 118 0.17029701173305511
40 119 0.18973146378993988
40 121 0.19132845103740692
40 122 0.21013112366199493
40 123 0.18539591133594513
40 124 0.21354275941848755
40 125 0.20945417881011963
40 126 0.21110470592975616
40 127 0.18884186446666718
40 128 0.17879565060138702
40 129 0.18777137994766235
40 131 0.1682766228914261
40 132 0.1968536227941513
40 133 0.2176048457622528
40 134 0.20619653165340424
40 135 0.2062276154756546
40 136 0.18559138476848602
40 137 0.19993296265602112
40 138 0.22165994346141815
40 139 0.22843636572360992
40 140 0.1914466917514801
40 141 0.20662210881710052
40 142 0.1847166270017624
40 143 0.22062495350837708
40 144 0.07792206853628159
40 145 0.2207392305135727
40 146 0.214793860912323
40 147 0.2060905396938324
40 149 0.18829338252544403
40 150 0.20171818137168884
40 151 0.20967687666416168
40 152 0.21253518760204315
40 153 0.21110470592975616
40 154 0.2133176028728485
40 155 0.19723525643348694
40 156 0.22154422104358673
40 157 0.22142867743968964
40 159 0.19385120272636414
40 160 0.08817333728075027
40 161 0.2092321664094925
40 162 0.1822051852941513
40 163 0.1439092457294464
40 164 0.1259881556034088
40 165 0.20672890543937683
40 166 0.207481250166893
40 167 0.19549056887626648
40 168 0.10101525485515594
40 169 0.19759820401668549
40 170 0.2202831506729126
40 171 0.22722961008548737
40 172 0.22437256574630737
40 174 0.20567210018634796
40 175 0.21658986806869507
40 176 0.21922920644283295
40 177 0.20705033838748932
40 178 0.16388888657093048
40 179 0.2115417718887329
40 180 0.22651468217372894
40 181 0.19723525643348694
40 182 0.22722961008548737
40 183 0.15152287483215332
40 184 0.19466570019721985
40 185 0.19744424521923065
40 188 0.1882556974887848
40 189 0.09269794821739197
40 190 0.22154422104358673
40 191 0.18874378502368927
40 192 0.22699055075645447
40 193 0.20151075720787048
40 195 0.21286946535110474
40 196 0.22043335437774658
40 197 0.1428571492433548
40 200 0.19494806230068207
40 201 0.21692872047424316
40 202 0.2173830270767212
40 203 0.2167026400566101
40 204 0.07824607938528061
40 205 0.21209195256233215
40 206 0.19375011324882507
40 207 0.20350751280784607
40 209 0.1959983855485916
40 210 0.06554735451936722
40 211 0.22440969944000244
40 212 0.07377111166715622
40 213 0.20350751280784607
40 214 0.16386838257312775
40 215 0.22639617323875427
40 216 0.2014322131872177
40 217 0.1886458694934845
40 218 0.15315893292427063
40 219 0.12921912968158722
40 221 0.20672890543937683
40 222 0.17268024384975433
40 223 0.12921912968158722
40 224 0.1981566846370697
40 225 0.22131332755088806
40 226 0.19456332921981812
40 227 0.21264643967151642
40 228 0.07377111166715622
40 229 0.12921912968158722
40 230 0.17464490234851837
40 231 0.202449232339859
40 232 0.14488358795642853
40 233 0.2137686014175415
40 234 0.08571428805589676
40 235 0.20705033838748932
40 236 0.17916956543922424
40 237 0.20130397379398346
40 240 0.19083602726459503
40 241 0.2158053070306778
40 242 0.2115417718887329
40 243 0.17229218780994415
40 244 0.2224750816822052
40 245 0.2007855623960495
40 246 0.1428571492433548
40 247 0.22282721102237701
40 248 0.2207392305135727
40 249 0.058321185410022736
40 250 0.18309752643108368
40 251 0.1400279998779297
40 252 0.20879030227661133
40 253 0.15152287483215332
40 254 0.20382826030254364
40 255 0.19205531477928162
41 42 0.9763880968093872
41 43 0.9715937376022339
41 44 0.16937686502933502
41 45 0.9514707326889038
41 46 0.9780062437057495
41 47 0.9706021547317505
41 48 0.9753851294517517
41 49 0.9663287997245789
41 50 0.07720913738012314
41 51 0.975934624671936
41 52 0.9742454290390015
41 53 0.9653854370117188
41 54 0.9674549102783203
41 55 0.05544159188866615
41 56 0.9627045392990112
41 57 0.746780276298523
41 58 0.9690655469894409
41 59 0.9584664106369019
41 60 0.9716347455978394
41 61 0.9752576351165771
41 62 0.9541321396827698
41 63 0.9669255018234253
41 64 0.13952495157718658
41 65 0.20749956369400024
41 66 0.9695032238960266
41 67 0.9733080267906189
41 69 0.9701467752456665
41 70 0.16016460955142975
41 72 0.9727100729942322
41 73 0.9742454290390015
41 74 0.06401844322681427
41 75 0.964759111404419
41 76 0.9552561640739441
41 77 0.9584404826164246
41 78 0.975863516330719
41 79 0.9630857110023499
41 80 0.21275900304317474
41 81 0.0853579193353653
41 82 0.14438305795192719
41 83 0.9717037081718445
41 84 0.9595341682434082
41 85 0.9620800018310547
41 86 0.13721095025539398
41 87 0.050611019134521484
41 88 0.9712016582489014
41 89 0.2774132490158081
41 90 0.18693290650844574
41 91 0.19212548434734344
41 92 0.9556934833526611
41 93 0.9674093127250671
41 94 0.9742662906646729
41 95 0.15778954327106476
41 96 0.9600169062614441
41 97 0.9800308346748352
41 99 0.9768906831741333
41 100 0.9653600454330444
41 101 0.9727100729942322
41 102 0.974334716796875
41 103 0.11203227192163467
41 104 0.9422034621238708
41 105 0.9732831120491028
41 106 0.9642067551612854
41 107 0.9673134088516235
41 108 0.8878053426742554
41 110 0.9689546823501587
41 111 0.13182801008224487
41 112 0.16468606889247894
41 113 0.970074474811554
41 114 0.28303471207618713
41 115 0.9685128331184387
41 116 0.9769350290298462
41 117 0.12283899635076523
41 118 0.9454585909843445
41 119 0.9684461951255798
41 120 0.1108831837773323
41 121 0.9388512372970581
41 122 0.9764590859413147
41 123 0.9637430310249329
41 124 0.9621478915214539
41 125 0.9584404826164246
41 126 0.9789265990257263
41 127 0.970097541809082
41 128 0.9768906831741333
41 129 0.9758861660957336
41 130 0.15364424884319305
41 131 0.8483584523200989
41 132 0.955671489238739
41 133 0.9863241910934448
41 134 0.09240265935659409
41 135 0.9514707326889038
41 136 0.9637194871902466
41 137 0.9595082998275757
41 138 0.9653854370117188
41 139 0.958925724029541
41 140 0.9615074992179871
41 141 0.9722304344177246
41 142 0.9695243239402771
41 143 0.9722065329551697
41 144 0.32882198691368103
41 145 0.970649242401123
41 146 0.9583687782287598
41 147 0.9738338589668274
41 149 0.8566886782646179
41 150 0.9738090634346008
41 151 0.9625915884971619
41 152 0.9669255018234253
41 153 0.9748135209083557
41 154 0.9673678874969482
41 155 0.9722553491592407
41 156 0.9679840207099915
41 157 0.9664455652236938
41 159 0.9710865616798401
41 160 0.19262604415416718
41 161 0.96055006980896
41 162 0.9567874670028687
41 163 0.9631880521774292
41 164 0.2379341870546341
41 165 0.9706743359565735
41 166 0.968008279800415
41 167 0.9646980166435242
41 168 0.13580362498760223
41 169 0.8877655863761902
41 170 0.9758418202400208
41 171 0.9621725678443909
41 172 0.9552047848701477
41 173 0.13969969749450684
41 174 0.8969485759735107
41 175 0.9726672768592834
41 176 0.957346498966217
41 177 0.9752764105796814
41 178 0.7850843667984009
41 179 0.970649242401123
41 180 0.9653600454330444
41 181 0.9732831120491028
41 182 0.9642506837844849
41 183 0.1697545200586319
41 184 0.9637430310249329
41 185 0.9258081912994385
41 186 0.17247077822685242
41 187 0.08468843251466751
41 188 0.9742880463600159
41 189 0.18174031376838684
41 190 0.9669498801231384
41 191 0.9695937633514404
41 192 0.9621982574462891
41 193 0.9779385328292847
41 195 0.9663724303245544
41 196 0.19756518304347992
41 198 0.1720774620771408
41 200 0.6411738991737366
41 201 0.9690181612968445
41 202 0.963793158531189
41 203 0.966975212097168
41 204 0.15778954327106476
41 205 0.968008279800415
41 206 0.9685128331184387
41 207 0.9658657908439636
41 208 0.10122203826904297
41 209 0.14821746945381165
41 210 0.1321815401315689
41 211 0.9758861660957336
41 212 0.10744168609380722
41 213 0.9658657908439636
41 214 0.12483812123537064
41 215 0.9648550152778625
41 216 0.9614552855491638
41 217 0.9752764105796814
41 218 0.28140339255332947
41 219 0.0868602842092514
41 220 0.05544159188866615
41 221 0.9747917056083679
41 222 0.9318207502365112
41 223 0.07720913738012314
41 224 0.9695696234703064
41 225 0.1157064288854599
41 226 0.9653121829032898
41 227 0.9674316048622131
41 228 0.09091220051050186
41 229 0.10616257041692734
41 230 0.9518529176712036
41 231 0.9711526036262512
41 232 0.17854800820350647
41 233 0.9590004682540894
41 234 0.14724242687225342
41 235 0.9711526036262512
41 236 0.9476460814476013
41 237 0.9789852499961853
41 238 0.07157479226589203
41 239 0.2482239454984665
41 240 0.9594833850860596
41 241 0.9763457179069519
41 242 0.970649242401123
41 243 0.0868602842092514
41 244 0.9699741005897522
41 245 0.9573224782943726
41 246 0.06401844322681427
41 247 0.9611076712608337
41 248 0.9696188569068909
41 249 0.06533854454755783
41 250 0.9794876575469971
41 251 0.22410935163497925
41 252 0.9606006145477295
41 253 0.14712058007717133
41 254 0.9642741680145264
41 255 0.9764344096183777
42 43 0.9642593860626221
42 44 0.16972501575946808
42 45 0.9534264802932739
42 46 0.974890947341919
42 47 0.9663891196250916
42 48 0.972251296043396
42 49 0.961026668548584
42 50 0.10638079792261124
42 51 0.9748620986938477
42 52 0.9690165519714355
42 53 0.9632225036621094
42 54 0.9632225036621094
42 55 0.0555555559694767
42 56 0.9626021385192871
42 57 0.7415979504585266
42 58 0.9658867120742798
42 59 0.9583486318588257
42 60 0.9663891196250916
42 61 0.9689891338348389
42 62 0.9508400559425354
42 63 0.9647635221481323
42 64 0.13981175422668457
42 65 0.21276159584522247
42 66 0.967344343662262
42 67 0.9711934328079224
42 69 0.9700769186019897
42 70 0.1666666716337204
42 72 0.9695468544960022
42 73 0.9669504165649414
42 74 0.06415002793073654
42 75 0.9594499468803406
42 76 0.9540778994560242
42 77 0.9593654870986938
42 78 0.9716933965682983
42 79 0.9556347131729126
42 80 0.21773241460323334
42 81 0.09622504562139511
42 82 0.16355112195014954
42 83 0.9695751667022705
42 84 0.9625493288040161
42 85 0.9556926488876343
42 86 0.1505875587463379
42 87 0.10143010318279266
42 88 0.9690742492675781
42 89 0.2815473675727844
42 90 0.192520409822464
42 91 0.192520409822464
42 92 0.9513506293296814
42 93 0.9631637930870056
42 94 0.9700769186019897
42 95 0.17568209767341614
42 96 0.9557231664657593
42 97 0.9769144058227539
42 98 0.06415002793073654
42 99 0.9737520217895508
42 100 0.9642305374145508
42 101 0.9685142636299133
42 102 0.9722222089767456
42 103 0.12830005586147308
42 104 0.9398776888847351
42 105 0.9721941351890564
42 106 0.9588848948478699
42 107 0.9588567018508911
42 108 0.8839566111564636
42 110 0.9615904092788696
42 111 0.1572607010602951
42 112 0.18702787160873413
42 113 0.9648219347000122
42 114 0.29399269819259644
42 115 0.9653248190879822
42 116 0.9738070368766785
42 117 0.1436067521572113
42 118 0.9431535601615906
42 119 0.9631637930870056
42 120 0.1111111119389534
42 121 0.935411274433136
42 122 0.9743635654449463
42 123 0.9646834135055542
42 124 0.9620410203933716
42 125 0.9562302827835083
42 126 0.9696044325828552
42 127 0.9658867120742798
42 128 0.9716933965682983
42 129 0.971722424030304
42 130 0.14754506945610046
42 131 0.8441987633705139
42 132 0.9492171406745911
42 133 0.9822443723678589
42 134 0.1111111119389534
42 135 0.9513218402862549
42 136 0.9604917168617249
42 137 0.9573047161102295
42 138 0.9642593860626221
42 139 0.9577566385269165
42 140 0.954048216342926
42 141 0.9701051115989685
42 142 0.9642593860626221
42 143 0.9690449237823486
42 144 0.3528251647949219
42 145 0.9757420420646667
42 146 0.9519514441490173
42 147 0.971722424030304
42 149 0.851403534412384
42 150 0.9706640243530273
42 151 0.9562008380889893
42 152 0.9647635221481323
42 153 0.9706348180770874
42 154 0.9631091356277466
42 155 0.9711642265319824
42 156 0.9668647646903992
42 157 0.9663605690002441
42 159 0.9647921919822693
42 160 0.2029205560684204
42 161 0.9593926072120667
42 162 0.9535093307495117
42 163 0.9599564671516418
42 164 0.2545875310897827
42 165 0.9685437083244324
42 166 0.9648219347000122
42 167 0.9562302827835083
42 168 0.1285226047039032
42 169 0.8861775994300842
42 170 0.9726956486701965
42 171 0.9599854946136475
42 172 0.9529701471328735
42 173 0.14698617160320282
42 174 0.8909080624580383
42 175 0.9694931507110596
42 176 0.9551252126693726
42 177 0.9690165519714355
42 178 0.7892358899116516
42 179 0.9695468544960022
42 180 0.962154746055603
42 181 0.9711642265319824
42 182 0.9589443206787109
42 183 0.17577356100082397
42 184 0.9605208039283752
42 185 0.9266300201416016
42 186 0.17858612537384033
42 187 0.08486250787973404
42 188 0.9701051115989685
42 189 0.1821139007806778
42 190 0.9689373970031738
42 191 0.9664187431335449
42 192 0.9610557556152344
42 193 0.971722424030304
42 195 0.962124764919281
42 196 0.2029205560684204
42 197 0.06415002793073654
42 198 0.18764567375183105
42 200 0.6503080725669861
42 201 0.9679010510444641
42 202 0.9626588821411133
42 203 0.9668923020362854
42 204 0.17568209767341614
42 205 0.9658570885658264
42 206 0.9642890691757202
42 207 0.9616204500198364
42 208 0.10143010318279266
42 209 0.18702787160873413
42 210 0.13981175422668457
42 211 0.9737789630889893
42 212 0.12422599643468857
42 213 0.9626588821411133
42 214 0.1250947266817093
42 215 0.9626887440681458
42 216 0.9508101940155029
42 217 0.9669504165649414
42 218 0.29573702812194824
42 219 0.09670981019735336
42 220 0.0555555559694767
42 221 0.9706066250801086
42 222 0.9261972904205322
42 223 0.10638079792261124
42 224 0.9663891196250916
42 225 0.12422599643468857
42 226 0.9631359577178955
42 227 0.9631926417350769
42 228 0.10766252875328064
42 229 0.10638079792261124
42 230 0.9442713260650635
42 231 0.9700496196746826
42 232 0.1897583305835724
42 233 0.9578415155410767
42 234 0.15396006405353546
42 235 0.9690165519714355
42 236 0.9443008303642273
42 237 0.9748342633247375
42 238 0.07172191143035889
42 239 0.24083785712718964
42 240 0.9562302827835083
42 241 0.9690742492675781
42 242 0.9685142636299133
42 243 0.10638079792261124
42 244 0.9605208039283752
42 245 0.9519514441490173
42 246 0.06415002793073654
42 247 0.9599564671516418
42 248 0.9674817323684692
42 249 0.07856741547584534
42 250 0.9732790589332581
42 251 0.20660443603992462
42 252 0.9604917168617249
42 253 0.18144367635250092
42 254 0.9600156545639038
42 255 0.9753614068031311
43 44 0.16494105756282806
43 45 0.9428399205207825
43 46 0.9680377244949341
43 47 0.96037757396698
43 48 0.9653403759002686
43 49 0.9548877477645874
43 50 0.08771830052137375
43 51 0.9659254550933838
43 52 0.9620053768157959
43 53 0.9561128616333008
43 54 0.9571578502655029
43 55 0.05598925054073334
43 56 0.951238751411438
43 57 0.7392634153366089
43 58 0.9598782062530518
43 59 0.9574132561683655
43 60 0.9582920074462891
43 61 0.9640470743179321
43 62 0.9444977641105652
43 63 0.9566128253936768
43 64 0.14090318977832794
43 65 0.2046760469675064
43 66 0.95711350440979
43 67 0.9642593860626221
43 69 0.9620490670204163
43 70 0.15552569925785065
43 72 0.9625473618507385
43 73 0.9609642624855042
43 74 0.06465081870555878
43 75 0.9543413519859314
43 76 0.9467494487762451
43 77 0.9478968977928162
43 78 0.9657930731773376
43 79 0.949366569519043
43 80 0.21943214535713196
43 81 0.07542596012353897
43 82 0.14580929279327393
43 83 0.9625909328460693
43 84 0.9553496241569519
43 85 0.9536692500114441
43 86 0.1319679319858551
43 87 0.08177753537893295
43 88 0.9631326198577881
43 89 0.26578670740127563
43 90 0.1782917082309723
43 91 0.18353557586669922
43 92 0.9439454078674316
43 93 0.9549759030342102
43 94 0.9620490670204163
43 95 0.1652499884366989
43 96 0.9537100791931152
43 97 0.9710964560508728
43 99 0.9657930731773376
43 100 0.9550215005874634
43 101 0.9625473618507385
43 102 0.9642593860626221
43 103 0.12122028321027756
43 104 0.9364755153656006
43 105 0.9631770849227905
43 106 0.954803466796875
43 107 0.9505521655082703
43 108 0.8725597262382507
43 110 0.9554774165153503
43 111 0.13946975767612457
43 112 0.15522533655166626
43 113 0.9577476978302002
43 114 0.29628777503967285
43 115 0.956159234046936
43 116 0.9658804535865784
43 117 0.12405241280794144
43 118 0.9333899021148682
43 119 0.964400053024292
43 120 0.11197850108146667
43 121 0.9275609254837036
43 122 0.9664652347564697
43 123 0.9554338455200195
43 124 0.9506433606147766
43 125 0.9489501118659973
43 126 0.9667893052101135
43 127 0.9609203934669495
43 128 0.9647557139396667
43 129 0.9658363461494446
43 130 0.15516197681427002
43 131 0.8424596190452576
43 132 0.943900465965271
43 133 0.9776025414466858
43 134 0.11197850108146667
43 135 0.9481427073478699
43 136 0.9574909806251526
43 137 0.9521527290344238
43 138 0.9561128616333008
43 139 0.9473000764846802
43 140 0.9488170146942139
43 141 0.9631326198577881
43 142 0.9613375067710876
43 143 0.9610089659690857
43 144 0.3467634916305542
43 145 0.9604661464691162
43 146 0.9488170146942139
43 147 0.9679089188575745
43 149 0.8462148308753967
43 150 0.9637182950973511
43 151 0.9499590396881104
43 152 0.9576583504676819
43 153 0.9626355171203613
43 154 0.9538384675979614
43 155 0.9621391892433167
43 156 0.9597912430763245
43 157 0.9572030305862427
43 159 0.9597912430763245
43 160 0.19951675832271576
43 161 0.9532048106193542
43 162 0.9524956941604614
43 163 0.9537946581840515
43 164 0.236211895942688
43 165 0.9625909328460693
43 166 0.9577476978302002
43 167 0.9531629681587219
43 168 0.12952592968940735
43 169 0.8770450949668884
43 170 0.9636739492416382
43 171 0.9538384675979614
43 172 0.9434859752655029
43 173 0.14107964932918549
43 174 0.886512041091919
43 175 0.9582920074462891
43 176 0.9456940293312073
43 177 0.9630465507507324
43 178 0.7800517678260803
43 179 0.961506724357605
43 180 0.9581595659255981
43 181 0.9621391892433167
43 182 0.9548877477645874
43 183 0.16000260412693024
43 184 0.9543850421905518
43 185 0.920787513256073
43 186 0.15675701200962067
43 187 0.07330713421106339
43 188 0.9631326198577881
43 189 0.18353557586669922
43 190 0.9577024579048157
43 191 0.9604213833808899
43 192 0.9538831114768982
43 193 0.9637637734413147
43 195 0.9560230374336243
43 196 0.18954092264175415
43 198 0.1839994490146637
43 200 0.6380548477172852
43 201 0.9587468504905701
43 202 0.9565684199333191
43 203 0.9577476978302002
43 204 0.1711517721414566
43 205 0.9608775973320007
43 206 0.9582468867301941
43 207 0.9544752836227417
43 208 0.10222192108631134
43 209 0.16076910495758057
43 210 0.11865531653165817
43 211 0.9648000597953796
43 212 0.1168493926525116
43 213 0.9586616158485413
43 214 0.11865531653165817
43 215 0.9555673599243164
43 216 0.9497528076171875
43 217 0.9682521820068359
43 218 0.29458001255989075
43 219 0.08771830052137375
43 220 0.05598925054073334
43 221 0.968828022480011
43 222 0.9225738644599915
43 223 0.06822534650564194
43 224 0.9614202976226807
43 225 0.10015662014484406
43 226 0.954931378364563
43 227 0.9581595659255981
43 228 0.10015662014484406
43 229 0.10721126198768616
43 230 0.9388261437416077
43 231 0.9609642624855042
43 232 0.15299177169799805
43 233 0.9516488313674927
43 234 0.1486968994140625
43 235 0.9620053768157959
43 236 0.9410036206245422
43 237 0.9679509997367859
43 238 0.07228181511163712
43 239 0.22282303869724274
43 240 0.9531629681587219
43 241 0.9631326198577881
43 242 0.9625473618507385
43 243 0.09746478497982025
43 244 0.952287495136261
43 245 0.9467037916183472
43 246 0.06465081870555878
43 247 0.9527442455291748
43 248 0.9594255685806274
43 249 0.06598396599292755
43 250 0.9663761258125305
43 251 0.23084960877895355
43 252 0.9522415995597839
43 253 0.1657169908285141
43 254 0.9528349041938782
43 255 0.9664201736450195
44 45 0.15500766038894653
44 46 0.1449575573205948
44 47 0.16459743678569794
44 48 0.1392737776041031
44 49 0.16563481092453003
44 51 0.1571980118751526
44 52 0.14608098566532135
44 53 0.17104998230934143
44 54 0.17104998230934143
44 56 0.13489066064357758
44 57 0.1345651000738144
44 58 0.1523257941007614
44 59 0.17222373187541962
44 60 0.17069363594055176
44 61 0.1706048846244812
44 62 0.16713862121105194
44 63 0.1711394190788269
44 65 0.11396057158708572
44 66 0.1651136875152588
44 67 0.15154018998146057
44 69 0.17025130987167358
44 70 0.2545875310897827
44 72 0.17033949494361877
44 73 0.1399942934513092
44 74 0.18898223340511322
44 75 0.15344643592834473
44 76 0.1419212520122528
44 77 0.1662490963935852
44 78 0.1637476682662964
44 79 0.16051828861236572
44 81 0.0629940778017044
44 82 0.07412493228912354
44 83 0.14585420489311218
44 84 0.16589725017547607
44 85 0.13553419709205627
44 86 0.19287919998168945
44 88 0.15792709589004517
44 92 0.15484106540679932
44 93 0.12855644524097443
44 94 0.13376890122890472
44 95 0.1035098284482956
44 96 0.1538527011871338
44 97 0.15115194022655487
44 99 0.1698123961687088
44 100 0.13453708589076996
44 101 0.12775462865829468
44 102 0.16366340219974518
44 104 0.13812731206417084
44 105 0.16383205354213715
44 106 0.14754222333431244
44 107 0.1538527011871338
44 108 0.12034279853105545
44 110 0.16537363827228546
44 111 0.1111873984336853
44 113 0.16468313336372375
44 114 0.081513911485672
44 115 0.15866641700267792
44 116 0.1392023265361786
44 118 0.13767220079898834
44 119 0.15304337441921234
44 121 0.08858630806207657
44 122 0.16316060721874237
44 123 0.14715343713760376
44 124 0.17195074260234833
44 125 0.15393434464931488
44 126 0.16998755931854248
44 127 0.16451185941696167
44 128 0.15161821246147156
44 129 0.15752080082893372
44 131 0.09043491631746292
44 132 0.1674082726240158
44 133 0.16792075335979462
44 134 0.16366340219974518
44 135 0.16120795905590057
44 136 0.171860009431839
44 137 0.14146950840950012
44 138 0.16494105756282806
44 139 0.16034725308418274
44 140 0.16060401499271393
44 141 0.1640012115240097
44 142 0.14661426842212677
44 143 0.1580905020236969
44 144 0.08590101450681686
44 145 0.1581723988056183
44 146 0.16678109765052795
44 147 0.1696377843618393
44 149 0.13146349787712097
44 150 0.1698123961687088
44 151 0.1540980190038681
44 152 0.16502730548381805
44 153 0.151774600148201
44 154 0.1288270801305771
44 155 0.15776419639587402
44 156 0.1709606945514679
44 157 0.13425621390342712
44 159 0.15264347195625305
44 161 0.13531865179538727
44 162 0.16068987548351288
44 163 0.1412452608346939
44 165 0.17016324400901794
44 166 0.17078250646591187
44 167 0.16009171307086945
44 168 0.13363061845302582
44 169 0.134050190448761
44 170 0.16391657292842865
44 171 0.16563481092453003
44 172 0.14840850234031677
44 173 0.1649572253227234
44 174 0.11944914609193802
44 175 0.1524050235748291
44 176 0.1542622148990631
44 177 0.1704278290271759
44 178 0.13456839323043823
44 179 0.17033949494361877
44 180 0.14065240323543549
44 181 0.15776419639587402
44 182 0.13496170938014984
44 183 0.26726123690605164
44 184 0.13489066064357758
44 185 0.15289413928985596
44 188 0.15185298025608063
44 189 0.09197089821100235
44 190 0.16485494375228882
44 191 0.1583365499973297
44 192 0.16546055674552917
44 193 0.1696377843618393
44 195 0.1652868539094925
44 196 0.11664237082004547
44 198 0.05976143106818199
44 200 0.138156458735466
44 201 0.16485494375228882
44 202 0.15908166766166687
44 203 0.16468313336372375
44 205 0.17078250646591187
44 206 0.15256386995315552
44 207 0.12848904728889465
44 208 0.05976143106818199
44 210 0.08671099692583084
44 211 0.15146230161190033
44 213 0.15908166766166687
44 215 0.1711394190788269
44 216 0.16112126410007477
44 217 0.1521676927804947
44 218 0.08104409277439117
44 219 0.05698028579354286
44 221 0.17016324400901794
44 222 0.15863505005836487
44 223 0.05698028579354286
44 224 0.1524050235748291
44 226 0.171588733792305
44 227 0.1651136875152588
44 230 0.14985956251621246
44 231 0.15825441479682922
44 233 0.14754222333431244
44 234 0.1511857807636261
44 235 0.1399942934513092
44 236 0.1621709167957306
44 237 0.1513068675994873
44 240 0.14161960780620575
44 241 0.1640012115240097
44 242 0.1581723988056183
44 244 0.15941622853279114
44 245 0.17295818030834198
44 247 0.17195074260234833
44 248 0.1460052877664566
44 250 0.1634952872991562
44 251 0.15877681970596313
44 252 0.15344643592834473
44 254 0.16546055674552917
44 255 0.1330818235874176
45 46 0.9552547335624695
45 47 0.944050669670105
45 48 0.9513958096504211
45 49 0.9372203946113586
45 50 0.09892266243696213
45 51 0.9541326761245728
45 52 0.9436373114585876
45 53 0.9470821619033813
45 54 0.9470821619033813
45 56 0.9495004415512085
45 57 0.7255855798721313
45 58 0.9446176886558533
45 59 0.935427725315094
45 60 0.9451090693473816
45 61 0.9456754922866821
45 62 0.9317583441734314
45 63 0.9443939924240112
45 64 0.14301083981990814
45 65 0.1830069124698639
45 66 0.9438266158103943
45 67 0.9492171406745911
45 69 0.9521604776382446
45 70 0.13890981674194336
45 72 0.9515974521636963
45 73 0.9489208459854126
45 75 0.9462392330169678
45 76 0.9405573010444641
45 77 0.9342823028564453
45 78 0.952864408493042
45 79 0.9367717504501343
45 80 0.20879480242729187
45 81 0.07655417919158936
45 82 0.14799031615257263
45 83 0.9516679644584656
45 84 0.9397719502449036
45 85 0.932639479637146
45 86 0.1339419186115265
45 87 0.09337586909532547
45 88 0.9543398022651672
45 89 0.2442443072795868
45 90 0.1703139990568161
45 91 0.19160324335098267
45 92 0.9354844689369202
45 93 0.9469420313835144
45 94 0.9479380249977112
45 95 0.14975161850452423
45 96 0.9391288757324219
45 97 0.9520334005355835
45 99 0.952864408493042
45 100 0.9438266158103943
45 101 0.9484289884567261
45 102 0.9513218402862549
45 103 0.10662904381752014
45 104 0.9210532903671265
45 105 0.9533554315567017
45 106 0.9381345510482788
45 107 0.9348552823066711
45 108 0.8693618178367615
45 110 0.9399958252906799
45 111 0.14799031615257263
45 112 0.17442727088928223
45 113 0.9477189779281616
45 114 0.2971818149089813
45 115 0.9577480554580688
45 116 0.9540600180625916
45 117 0.13290287554264069
45 118 0.9277961850166321
45 119 0.941628098487854
45 120 0.07576899230480194
45 121 0.9106767773628235
45 122 0.9546938538551331
45 123 0.950564980506897
45 124 0.9403417706489563
45 125 0.9449720978736877
45 126 0.948577344417572
45 127 0.9583690762519836
45 128 0.9570760130882263
45 129 0.9560918211936951
45 130 0.15092110633850098
45 131 0.8321146368980408
45 132 0.9300323128700256
45 133 0.9620319604873657
45 134 0.07576899230480194
45 135 0.9268030524253845
45 136 0.9409112930297852
45 137 0.9429025650024414
45 138 0.9428399205207825
45 139 0.9357735514640808
45 140 0.9351271986961365
45 141 0.9511762857437134
45 142 0.946021556854248
45 143 0.9489936232566833
45 144 0.33703726530075073
45 145 0.9473727941513062
45 146 0.9297652244567871
45 147 0.9529364109039307
45 149 0.8276408910751343
45 150 0.9497057795524597
45 151 0.9320653676986694
45 152 0.946516215801239
45 153 0.9475234150886536
45 154 0.9372203946113586
45 155 0.9533554315567017
45 156 0.941287636756897
45 157 0.942915678024292
45 159 0.9444676041603088
45 160 0.15693838894367218
45 161 0.9364955425262451
45 162 0.9313352704048157
45 163 0.944606363773346
45 164 0.23561163246631622
45 165 0.9474477171897888
45 166 0.9445422291755676
45 167 0.9364202618598938
45 168 0.10826396942138672
45 169 0.8506011366844177
45 170 0.948577344417572
45 171 0.936155378818512
45 172 0.9307602047920227
45 173 0.150349423289299
45 174 0.8663623332977295
45 175 0.9461674094200134
45 176 0.9319873452186584
45 177 0.9510341882705688
45 178 0.7852303385734558
45 179 0.9558221101760864
45 180 0.9438266158103943
45 181 0.9523020386695862
45 182 0.9382854104042053
45 183 0.1797955185174942
45 184 0.9463071227073669
45 185 0.9069109559059143
45 186 0.1532091349363327
45 187 0.08680428564548492
45 188 0.953285276889801
45 189 0.20224787294864655
45 190 0.9455276131629944
45 191 0.9504706263542175
45 192 0.9426177144050598
45 193 0.953988254070282
45 195 0.9469420313835144
45 196 0.16706342995166779
45 198 0.19193927943706512
45 200 0.6284107565879822
45 201 0.9465876817703247
45 202 0.9421967267990112
45 203 0.9434833526611328
45 204 0.16772182285785675
45 205 0.9456011652946472
45 206 0.942915678024292
45 207 0.9421967267990112
45 208 0.07262567430734634
45 209 0.1800539642572403
45 210 0.13548395037651062
45 211 0.9508328437805176
45 212 0.11012599617242813
45 213 0.946445643901825
45 214 0.08279575407505035
45 215 0.9412106275558472
45 216 0.9295321106910706
45 217 0.9489208459854126
45 218 0.27436399459838867
45 219 0.0791381299495697
45 220 0.056826744228601456
45 221 0.9463925957679749
45 222 0.9110366106033325
45 223 0.09892266243696213
45 224 0.9472257494926453
45 225 0.1016547679901123
45 226 0.9394260048866272
45 227 0.9385182857513428
45 228 0.1016547679901123
45 229 0.10881493240594864
45 230 0.925768256187439
45 231 0.9573743939399719
45 232 0.1719173938035965
45 233 0.9413363337516785
45 234 0.15092110633850098
45 235 0.9489208459854126
45 236 0.9366706609725952
45 237 0.9519585371017456
45 238 0.07336301356554031
45 239 0.2584640681743622
45 240 0.9364202618598938
45 241 0.9480127096176147
45 242 0.949485182762146
45 243 0.08903039991855621
45 244 0.9367269277572632
45 245 0.9361995458602905
45 247 0.9392756223678589
45 248 0.9484289884567261
45 249 0.0803651511669159
45 250 0.9566521644592285
45 251 0.19754931330680847
45 252 0.9419769048690796
45 253 0.16819579899311066
45 254 0.9404899477958679
45 255 0.9588220715522766
46 47 0.9691138863563538
46 48 0.9779857993125916
46 49 0.9648471474647522
46 50 0.09636344760656357
46 51 0.9785281419754028
46 52 0.9717221856117249
46 53 0.9670045971870422
46 54 0.9680377244949341
46 56 0.9674499034881592
46 57 0.7442966103553772
46 58 0.9717013835906982
46 59 0.9621978998184204
46 60 0.9701448678970337
46 61 0.9706709384918213
46 62 0.954762876033783
46 63 0.9675102233886719
46 64 0.1393110156059265
46 65 0.20236323773860931
46 66 0.9690508246421814
46 67 0.97796630859375
46 69 0.9738006591796875
46 70 0.14146682620048523
46 72 0.9743051528930664
46 73 0.9727515578269958
46 75 0.9684698581695557
46 76 0.9600526690483093
46 77 0.9600948691368103
46 78 0.9753928184509277
46 79 0.9636971354484558
46 80 0.22599230706691742
46 82 0.15669748187065125
46 83 0.9784358143806458
46 84 0.9622193574905396
46 85 0.96373051404953
46 86 0.12395289540290833
46 87 0.10106683522462845
46 88 0.9727941155433655
46 89 0.28053900599479675
46 90 0.1814616471529007
46 91 0.1762770414352417
46 92 0.9542281031608582
46 93 0.9721377491950989
46 94 0.9717440605163574
46 95 0.16338269412517548
46 96 0.9647895097732544
46 97 0.9795506596565247
46 99 0.9743671417236328
46 100 0.965948224067688
46 101 0.9763628244400024
46 102 0.974890947341919
46 103 0.1118604838848114
46 104 0.9503150582313538
46 105 0.9738431572914124
46 106 0.9679266214370728
46 107 0.9637487530708313
46 108 0.8807907104492188
46 110 0.9664331674575806
46 111 0.11909008771181107
46 112 0.18087691068649292
46 113 0.974776029586792
46 114 0.2688153386116028
46 115 0.9701239466667175
46 116 0.9795312285423279
46 117 0.11583670973777771
46 118 0.9482420682907104
46 119 0.9721377491950989
46 120 0.1107131689786911
46 121 0.9363415837287903
46 122 0.9810936450958252
46 123 0.965376079082489
46 124 0.9648268818855286
46 125 0.9611361622810364
46 126 0.9753721952438354
46 127 0.9706709384918213
46 128 0.9784697890281677
46 129 0.9774636626243591
46 130 0.1598006933927536
46 131 0.8529399633407593
46 132 0.9594489932060242
46 133 0.987854540348053
46 134 0.08303488045930862
46 135 0.9573518633842468
46 136 0.9695078730583191
46 137 0.9621978998184204
46 138 0.9680377244949341
46 139 0.9595412611961365
46 140 0.9589884877204895
46 141 0.9758758544921875
46 142 0.9721702337265015
46 143 0.9768855571746826
46 144 0.3225068747997284
46 145 0.9712186455726624
46 146 0.9568992257118225
46 147 0.9754144549369812
46 149 0.857715368270874
46 150 0.9774441123008728
46 151 0.9579883217811584
46 152 0.9675102233886719
46 153 0.9743455052375793
46 154 0.963809609413147
46 155 0.9758954644203186
46 156 0.9675323367118835
46 157 0.9721879959106445
46 159 0.971662700176239
46 160 0.19233070313930511
46 161 0.9632380604743958
46 162 0.9605463743209839
46 163 0.9648268818855286
46 164 0.24562254548072815
46 165 0.9753525257110596
46 166 0.9696184992790222
46 167 0.9621774554252625
46 168 0.12052922695875168
46 169 0.8784697651863098
46 170 0.9743455052375793
46 171 0.9669220447540283
46 172 0.9558316469192505
46 173 0.1325112134218216
46 174 0.8944509625434875
46 175 0.9722067713737488
46 176 0.9600526690483093
46 177 0.9706928133964539
46 178 0.7914665341377258
46 179 0.9722474813461304
46 180 0.9700850248336792
46 181 0.9769216775894165
46 182 0.967959463596344
46 183 0.1581946164369583
46 184 0.9664129614830017
46 185 0.9297755360603333
46 186 0.172206312417984
46 187 0.08455857634544373
46 188 0.9738214015960693
46 189 0.1814616471529007
46 190 0.971662700176239
46 191 0.9711966514587402
46 192 0.964868426322937
46 193 0.9815620183944702
46 195 0.965925931930542
46 196 0.18739914894104004
46 198 0.18697363138198853
46 200 0.6401907801628113
46 201 0.9685649275779724
46 202 0.9674891233444214
46 203 0.9706500172615051
46 204 0.1692177951335907
46 205 0.9685869812965393
46 206 0.9732200503349304
46 207 0.9747322797775269
46 208 0.08085346966981888
46 209 0.17539580166339874
46 210 0.1393110156059265
46 211 0.9764390587806702
46 212 0.11552900820970535
46 213 0.9685238599777222
46 214 0.1319788545370102
46 215 0.9685438871383667
46 216 0.9547410011291504
46 217 0.9737809300422668
46 218 0.280971884727478
46 219 0.09636344760656357
46 220 0.05535658448934555
46 221 0.9743248224258423
46 222 0.9314650893211365
46 223 0.09636344760656357
46 224 0.9783926606178284
46 225 0.11552900820970535
46 226 0.9659047722816467
46 227 0.9669824838638306
46 228 0.09902486205101013
46 229 0.09636344760656357
46 230 0.9472253918647766
46 231 0.9727515578269958
46 232 0.1782742291688919
46 233 0.9627283215522766
46 234 0.14701664447784424
46 235 0.9758396744728088
46 236 0.9483027458190918
46 237 0.9785076975822449
46 238 0.07146504521369934
46 239 0.2517773509025574
46 240 0.9621774554252625
46 241 0.9779303073883057
46 242 0.9732763171195984
46 243 0.08672710508108139
46 244 0.9664129614830017
46 245 0.957943856716156
46 246 0.0639202743768692
46 247 0.9627497792243958
46 248 0.9753339886665344
46 249 0.06523836404085159
46 250 0.9779857993125916
46 251 0.21929040551185608
46 252 0.9674318432807922
46 253 0.14689499139785767
46 254 0.9669411182403564
46 255 0.9831213355064392
47 48 0.9674636721611023
47 49 0.9539455771446228
47 50 0.0875355526804924
47 51 0.9690732955932617
47 52 0.9662349820137024
47 53 0.9614202976226807
47 54 0.965591311454773
47 55 0.055872607976198196
47 56 0.9555364847183228
47 57 0.7377232909202576
47 58 0.9599584937095642
47 59 0.9533188343048096
47 60 0.9594172835350037
47 61 0.966198742389679
47 62 0.9467566609382629
47 63 0.958793044090271
47 64 0.14060963690280914
47 65 0.20911270380020142
47 66 0.9582510590553284
47 67 0.9684584736824036
47 69 0.962120532989502
47 70 0.15520167350769043
47 72 0.9678109884262085
47 73 0.9641570448875427
47 74 0.06451612710952759
47 75 0.9565439224243164
47 76 0.9532032012939453
47 77 0.9501261711120605
47 78 0.9658514261245728
47 79 0.949496328830719
47 80 0.2052890807390213
47 81 0.09677419811487198
47 82 0.15815816819667816
47 83 0.9626602530479431
47 84 0.9544081091880798
47 85 0.9506309032440186
47 86 0.15803158283233643
47 87 0.10200896114110947
47 88 0.9642365574836731
47 89 0.2759857177734375
47 90 0.1831532120704651
47 91 0.18838617205619812
47 92 0.9557227492332458
47 93 0.9561212062835693
47 94 0.9673099517822266
47 95 0.17668470740318298
47 96 0.9527737498283386
47 97 0.9711373448371887
47 98 0.06451612710952759
47 99 0.9679219126701355
47 100 0.959294855594635
47 101 0.9636573195457458
47 102 0.9684584736824036
47 103 0.12096773833036423
47 104 0.9302377104759216
47 105 0.9663492441177368
47 106 0.9538636207580566
47 107 0.9569755792617798
47 108 0.8798716068267822
47 110 0.9639416933059692
47 111 0.16448450088500977
47 112 0.16596637666225433
47 113 0.9619991183280945
47 114 0.28523507714271545
47 115 0.9593755602836609
47 116 0.9669674634933472
47 117 0.14442630112171173
47 118 0.9325134754180908
47 119 0.9582111239433289
47 120 0.0744968131184578
47 121 0.9310288429260254
47 122 0.969609260559082
47 123 0.9555364847183228
47 124 0.9518076777458191
47 125 0.951177179813385
47 126 0.9689202904701233
47 127 0.9620386362075806
47 128 0.9648162722587585
47 129 0.967960774898529
47 130 0.14193549752235413
47 131 0.837142288684845
47 132 0.9451090693473816
47 133 0.9786369204521179
47 134 0.09312102198600769
47 135 0.9451090693473816
47 136 0.9544485807418823
47 137 0.9596182703971863
47 138 0.9593347311019897
47 139 0.9505900144577026
47 140 0.9552753567695618
47 141 0.9631996750831604
47 142 0.9582920074462891
47 143 0.963158369064331
47 144 0.34017595648765564
47 145 0.962618887424469
47 146 0.9542209506034851
47 147 0.9658924341201782
47 149 0.8586245775222778
47 150 0.9648162722587585
47 151 0.9532406330108643
47 152 0.9608796834945679
47 153 0.9647751450538635
47 154 0.9570869207382202
47 155 0.9663492441177368
47 156 0.96196049451828
47 157 0.9604172110557556
47 159 0.9577916860580444
47 160 0.1891460418701172
47 161 0.9543687701225281
47 162 0.9462915062904358
47 163 0.9528558850288391
47 164 0.2479121834039688
47 165 0.9636975526809692
47 166 0.9661636352539062
47 167 0.9501261711120605
47 168 0.12925608456134796
47 169 0.8900909423828125
47 170 0.9658114314079285
47 171 0.952898383140564
47 172 0.9489089846611023
47 173 0.14782503247261047
47 174 0.888063371181488
47 175 0.9614984393119812
47 176 0.9521499276161194
47 177 0.9641570448875427
47 178 0.7937399744987488
47 179 0.9636573195457458
47 180 0.9561633467674255
47 181 0.9653134942054749
47 182 0.9549926519393921
47 183 0.1767766922712326
47 184 0.9544899463653564
47 185 0.9221314191818237
47 186 0.17381158471107483
47 187 0.08534681797027588
47 188 0.9652733206748962
47 189 0.1988520622253418
47 190 0.96196049451828
47 191 0.9625784754753113
47 192 0.9560800194740295
47 193 0.9658924341201782
47 195 0.9582111239433289
47 196 0.20905615389347076
47 198 0.17851567268371582
47 200 0.6430141925811768
47 201 0.9630026817321777
47 202 0.9577087163925171
47 203 0.959916889667511
47 204 0.17079521715641022
47 205 0.9651225209236145
47 206 0.9604172110557556
47 207 0.9566643834114075
47 208 0.09180806577205658
47 209 0.18256299197673798
47 210 0.10360710322856903
47 211 0.9710631966590881
47 212 0.12493494898080826
47 213 0.9587531089782715
47 214 0.11100760847330093
47 215 0.9567064642906189
47 216 0.9541208148002625
47 217 0.9631180763244629
47 218 0.2905079126358032
47 219 0.0875355526804924
47 220 0.055872607976198196
47 221 0.9636975526809692
47 222 0.9239012598991394
47 223 0.09726172685623169
47 224 0.9604578614234924
47 225 0.0832899659872055
47 226 0.9581721425056458
47 227 0.9561633467674255
47 228 0.09161897003650665
47 229 0.09726172685623169
47 230 0.9390019178390503
47 231 0.961040198802948
47 232 0.19084128737449646
47 233 0.9528142809867859
47 234 0.13548387587070465
47 235 0.9651960134506226
47 236 0.9475605487823486
47 237 0.9680005311965942
47 238 0.07213123142719269
47 239 0.25412437319755554
47 240 0.9522281885147095
47 241 0.9663101434707642
47 242 0.9646956920623779
47 243 0.09726172685623169
47 244 0.9555364847183228
47 245 0.958438515663147
47 247 0.9539041519165039
47 248 0.962618887424469
47 249 0.0658465027809143
47 250 0.9684972763061523
47 251 0.2258516252040863
47 252 0.9554962515830994
47 253 0.17107421159744263
47 254 0.9581721425056458
47 255 0.9685370326042175
48 49 0.9621198177337646
48 50 0.07728837430477142
48 51 0.9769360423088074
48 52 0.9711171984672546
48 53 0.9643046259880066
48 54 0.9674118757247925
48 56 0.9636924266815186
48 57 0.7421782612800598
48 58 0.9690268635749817
48 59 0.9584071040153503
48 60 0.9695308804512024
48 61 0.9669607281684875
48 62 0.9530121088027954
48 63 0.9648088216781616
48 64 0.12496621906757355
48 65 0.19322094321250916
48 66 0.9642770290374756
48 67 0.9743068218231201
48 69 0.9721731543540955
48 70 0.1356629878282547
48 72 0.9716453552246094
48 73 0.9700852036476135
48 75 0.9615864157676697
48 76 0.9593750834465027
48 77 0.9583799839019775
48 78 0.9737800359725952
48 79 0.9546530842781067
48 80 0.212977334856987
48 81 0.07476481795310974
48 82 0.1508151888847351
48 83 0.972700834274292
48 84 0.9626023769378662
48 85 0.9672454595565796
48 86 0.12427063286304474
48 87 0.10132590681314468
48 88 0.9721982479095459
48 89 0.2883785665035248
48 90 0.19752056896686554
48 91 0.18712475895881653
48 92 0.9514235258102417
48 93 0.9652882218360901
48 94 0.9752660393714905
48 95 0.1462513506412506
48 96 0.9589151740074158
48 97 0.9759109020233154
48 99 0.972751796245575
48 100 0.9642770290374756
48 101 0.9768027067184448
48 102 0.9732790589332581
48 103 0.11214722692966461
48 104 0.9431703686714172
48 105 0.9783971309661865
48 106 0.9620692133903503
48 107 0.9630889296531677
48 108 0.8830485939979553
48 110 0.9699490666389465
48 111 0.1445312350988388
48 112 0.1758454144001007
48 113 0.9700357913970947
48 114 0.26604923605918884
48 115 0.9695066809654236
48 116 0.9758852124214172
48 117 0.1434592306613922
48 118 0.9453678131103516
48 119 0.9652882218360901
48 120 0.10174723714590073
48 121 0.9355232119560242
48 122 0.9764364957809448
48 123 0.962652862071991
48 124 0.9600115418434143
48 125 0.9583799839019775
48 126 0.9758138656616211
48 127 0.9679937958717346
48 128 0.9758366346359253
48 129 0.9727786779403687
48 130 0.14098510146141052
48 131 0.8468701243400574
48 132 0.955600917339325
48 133 0.985302746295929
48 134 0.10174723714590073
48 135 0.9503445625305176
48 136 0.9595050811767578
48 137 0.9594499468803406
48 138 0.9715549945831299
48 139 0.9599097371101379
48 140 0.956210196018219
48 141 0.9711683392524719
48 142 0.9694834351539612
48 143 0.9711422324180603
48 144 0.33207231760025024
48 145 0.9695824384689331
48 146 0.9614468216896057
48 147 0.9738059639930725
48 149 0.8587409853935242
48 150 0.9717234969139099
48 151 0.9593990445137024
48 152 0.9668813943862915
48 153 0.9727258086204529
48 154 0.9610795974731445
48 155 0.974281907081604
48 156 0.9679421186447144
48 157 0.9726107716560364
48 159 0.9689773321151733
48 160 0.1878795325756073
48 161 0.9594499468803406
48 162 0.9577693343162537
48 163 0.9610527753829956
48 164 0.25028911232948303
48 165 0.971670389175415
48 166 0.9700357913970947
48 167 0.9594239592552185
48 168 0.11328580975532532
48 169 0.8841308951377869
48 170 0.9778725504875183
48 171 0.9631599187850952
48 172 0.9572334289550781
48 173 0.09089797735214233
48 174 0.8899929523468018
48 175 0.9695308804512024
48 176 0.9625136852264404
48 177 0.9721491932868958
48 178 0.7820873260498047
48 179 0.968550980091095
48 180 0.9673875570297241
48 181 0.974281907081604
48 182 0.9662802815437317
48 183 0.15860013663768768
48 184 0.960573673248291
48 185 0.9235178232192993
48 186 0.16689282655715942
48 187 0.07266457378864288
48 188 0.9763177633285522
48 189 0.18712475895881653
48 190 0.9700125455856323
48 191 0.9685235619544983
48 192 0.9631856679916382
48 193 0.9738059639930725
48 195 0.9663261771202087
48 196 0.19282372295856476
48 198 0.19758550822734833
48 200 0.6418318748474121
48 201 0.9679421186447144
48 202 0.9647822380065918
48 203 0.9658991694450378
48 204 0.1696515679359436
48 205 0.9669333696365356
48 206 0.9684720039367676
48 207 0.9689317345619202
48 208 0.06079554185271263
48 209 0.17035023868083954
48 210 0.12496621906757355
48 211 0.9748331904411316
48 212 0.12409839779138565
48 213 0.9647822380065918
48 214 0.1323171705007553
48 215 0.9679177403450012
48 216 0.9508841633796692
48 217 0.9731811881065369
48 218 0.2782568633556366
48 219 0.10627152025699615
48 221 0.9696096181869507
48 222 0.9295493364334106
48 223 0.09661047160625458
48 224 0.9705645442008972
48 225 0.1075519397854805
48 226 0.9631856679916382
48 227 0.9642770290374756
48 228 0.09100548923015594
48 229 0.10627152025699615
48 230 0.9464775323867798
48 231 0.9711171984672546
48 232 0.18414732813835144
48 233 0.9599846005439758
48 234 0.14098510146141052
48 235 0.9742132425308228
48 236 0.9454459547996521
48 237 0.9758852124214172
48 238 0.057318586856126785
48 239 0.25636687874794006
48 240 0.9625559449195862
48 241 0.9721982479095459
48 242 0.9695824384689331
48 243 0.10627152025699615
48 244 0.9636924266815186
48 245 0.956210196018219
48 247 0.9600115418434143
48 248 0.9747397899627686
48 249 0.07848671078681946
48 250 0.9753593802452087
48 251 0.21985255181789398
48 252 0.9647084474563599
48 253 0.15860013663768768
48 254 0.9621466398239136
48 255 0.9794876575469971
49 50 0.07829977571964264
49 51 0.9627185463905334
49 52 0.9608240723609924
49 53 0.9548877477645874
49 54 0.9559371471405029
49 55 0.056224748492240906
49 56 0.9489206075668335
49 57 0.7586888074874878
49 58 0.9544962048530579
49 59 0.9466487765312195
49 60 0.9560397863388062
49 61 0.9565893411636353
49 62 0.9495337605476379
49 63 0.9522374272346497
49 64 0.14149585366249084
49 65 0.20553691685199738
49 66 0.9590383768081665
49 67 0.961026668548584
49 69 0.9577401280403137
49 70 0.16867424547672272
49 72 0.9624161124229431
49 73 0.9555965065956116
49 74 0.0649227499961853
49 75 0.9488667249679565
49 76 0.9401325583457947
49 77 0.9465955495834351
49 78 0.960479736328125
49 79 0.9586620330810547
49 80 0.2203551083803177
49 81 0.09738411754369736
49 82 0.12095778435468674
49 83 0.9572447538375854
49 84 0.9509246349334717
49 85 0.9439237713813782
49 86 0.1590275913476944
49 87 0.10265187174081802
49 88 0.9577935338020325
49 89 0.27772513031959534
49 90 0.1895734816789627
49 91 0.14744603633880615
49 92 0.9383408427238464
49 93 0.9547865390777588
49 94 0.9587845206260681
49 95 0.17187166213989258
49 96 0.9471506476402283
49 97 0.9637570381164551
49 99 0.9583961963653564
49 100 0.95168536901474
49 101 0.9582362174987793
49 102 0.9631091356277466
49 103 0.12173014879226685
49 104 0.9274729490280151
49 105 0.9578478336334229
49 106 0.9493157267570496
49 107 0.9492648243904114
49 108 0.8762298226356506
49 110 0.9573919773101807
49 111 0.14005638659000397
49 112 0.1837136149406433
49 113 0.9586330056190491
49 114 0.27303117513656616
49 115 0.9549397826194763
49 116 0.9637054800987244
49 117 0.13841576874256134
49 118 0.9308664202690125
49 119 0.9526834487915039
49 120 0.11244949698448181
49 121 0.9184196591377258
49 122 0.9643021821975708
49 123 0.9478674530982971
49 124 0.947257936000824
49 125 0.9434226155281067
49 126 0.9625132083892822
49 127 0.9555427432060242
49 128 0.9594379663467407
49 129 0.962614119052887
49 130 0.12335322797298431
49 131 0.8388335704803467
49 132 0.9478706121444702
49 133 0.9703829884529114
49 134 0.10307870805263519
49 135 0.9414804577827454
49 136 0.9583554267883301
49 137 0.9455922842025757
49 138 0.9548877477645874
49 139 0.9459878206253052
49 140 0.9453805685043335
49 141 0.9598802328109741
49 142 0.9548877477645874
49 143 0.9671399593353271
49 144 0.348222017288208
49 145 0.956146240234375
49 146 0.9453805685043335
49 147 0.9594920873641968
49 149 0.8557165861129761
49 150 0.960479736328125
49 151 0.9423081874847412
49 152 0.9543371796607971
49 153 0.9583419561386108
49 154 0.9567966461181641
49 155 0.9588900804519653
49 156 0.9533404111862183
49 157 0.9528432488441467
49 159 0.9533404111862183
49 160 0.16028475761413574
49 161 0.95404452085495
49 162 0.9395163655281067
49 163 0.947257936000824
49 164 0.23720543086528778
49 165 0.9572447538375854
49 166 0.9649191498756409
49 167 0.9465955495834351
49 168 0.1377219557762146
49 169 0.8749775886535645
49 170 0.9604276418685913
49 171 0.9483667016029358
49 172 0.9453300833702087
49 173 0.1487567126750946
49 174 0.8879610300064087
49 175 0.9549926519393921
49 176 0.9464920163154602
49 177 0.9576875567436218
49 178 0.775627851486206
49 179 0.9592812061309814
49 180 0.95168536901474
49 181 0.9588900804519653
49 182 0.9515278935432434
49 183 0.16641400754451752
49 184 0.9489206075668335
49 185 0.914811909198761
49 186 0.17490704357624054
49 187 0.07361546903848648
49 188 0.9598802328109741
49 189 0.1895734816789627
49 190 0.9533404111862183
49 191 0.9540004730224609
49 192 0.9494742751121521
49 193 0.962614119052887
49 195 0.9505804181098938
49 196 0.20536483824253082
49 198 0.1796407699584961
49 200 0.6391564607620239
49 201 0.9522916078567505
49 202 0.9521840214729309
49 203 0.956537663936615
49 204 0.16594505310058594
49 205 0.955489993095398
49 206 0.9549397826194763
49 207 0.9521840214729309
49 208 0.10265187174081802
49 209 0.1837136149406433
49 210 0.1340487003326416
49 211 0.9615734219551086
49 212 0.11734087020158768
49 213 0.9574389457702637
49 214 0.11915440112352371
49 215 0.9532873034477234
49 216 0.9409741163253784
49 217 0.9555965065956116
49 218 0.2505761682987213
49 219 0.0978747233748436
49 220 0.056224748492240906
49 221 0.9572447538375854
49 222 0.9199146628379822
49 224 0.9570869207382202
49 225 0.12572236359119415
49 226 0.9536847472190857
49 227 0.9495845437049866
49 228 0.11734087020158768
49 229 0.10766219347715378
49 230 0.9352670907974243
49 231 0.9566420316696167
49 232 0.17558316886425018
49 233 0.9440358877182007
49 234 0.15581458806991577
49 235 0.9576875567436218
49 236 0.9342476725578308
49 237 0.9616262912750244
49 238 0.07258584350347519
49 239 0.22775597870349884
49 240 0.9434226155281067
49 241 0.9588368535041809
49 242 0.9676409363746643
49 243 0.0978747233748436
49 244 0.9562929272651672
49 245 0.9443195462226868
49 246 0.0649227499961853
49 247 0.947257936000824
49 248 0.9571912884712219
49 249 0.06626150012016296
49 250 0.9610795974731445
49 251 0.21818406879901886
49 252 0.9509753584861755
49 253 0.15493717789649963
49 254 0.9494742751121521
49 255 0.9621725678443909
50 51 0.10610823333263397
50 52 0.07768820971250534
50 53 0.09746478497982025
50 54 0.06822534650564194
50 56 0.09782319515943527
50 57 0.08840243518352509
50 58 0.10693227499723434
50 59 0.10794694721698761
50 60 0.10698790103197098
50 61 0.09721115976572037
50 62 0.108639657497406
50 63 0.09751573950052261
50 66 0.10732346028089523
50 67 0.09670981019735336
50 69 0.10671065002679825
50 70 0.11605177074670792
50 71 0.21320070326328278
50 72 0.07764794677495956
50 73 0.08739923685789108
50 75 0.08813370019197464
50 76 0.10829164832830429
50 77 0.10806147754192352
50 78 0.09675959497690201
50 79 0.07879956811666489
50 81 0.10050377994775772
50 82 0.17739371955394745
50 83 0.09695951640605927
50 84 0.10783277451992035
50 85 0.0786319151520729
50 86 0.06154574826359749
50 88 0.10660036653280258
50 92 0.07905307412147522
50 93 0.10743601620197296
50 94 0.08730871230363846
50 95 0.11009637266397476
50 96 0.0883670449256897
50 97 0.09646202623844147
50 98 0.15075567364692688
50 99 0.09675959497690201
50 100 0.09756678342819214
50 101 0.06794194877147675
50 102 0.10638079792261124
50 104 0.07011930644512177
50 105 0.08712851256132126
50 106 0.08827348053455353
50 107 0.06872992217540741
50 108 0.07466693222522736
50 110 0.08794834464788437
50 111 0.11826248466968536
50 112 0.1034175381064415
50 113 0.08758113533258438
50 115 0.09736309200525284
50 116 0.10621700435876846
50 117 0.2571297287940979
50 118 0.09984038025140762
50 119 0.058601461350917816
50 121 0.09085812419652939
50 122 0.09641269594430923
50 123 0.09782319515943527
50 124 0.09797801822423935
50 125 0.09823770821094513
50 126 0.0871734619140625
50 127 0.08749004453420639
50 128 0.07740767300128937
50 129 0.09666009992361069
50 130 0.06030227243900299
50 131 0.09988907724618912
50 132 0.06924585998058319
50 133 0.08611356467008591
50 135 0.08903039991855621
50 136 0.09792633354663849
50 137 0.08832022547721863
50 138 0.09746478497982025
50 139 0.08855506032705307
50 140 0.0689864456653595
50 141 0.09690941870212555
50 142 0.07797182351350784
50 143 0.09700968116521835
50 144 0.08223036676645279
50 145 0.0970599353313446
50 146 0.07884165644645691
50 147 0.10632611066102982
50 150 0.09675959497690201
50 151 0.07867372035980225
50 152 0.07801258563995361
50 153 0.1065453439950943
50 154 0.07829977571964264
50 155 0.10649040341377258
50 156 0.10715528577566147
50 157 0.09736309200525284
50 159 0.10715528577566147
50 160 0.2791452407836914
50 161 0.10794694721698761
50 162 0.09860475361347198
50 163 0.07838241010904312
50 164 0.07597371935844421
50 165 0.0872635617852211
50 166 0.08758113533258438
50 167 0.08841393142938614
50 169 0.0962415486574173
50 170 0.0968594029545784
50 171 0.10766219347715378
50 172 0.09865752607584
50 173 0.0657951682806015
50 174 0.07411246001720428
50 175 0.09726172685623169
50 176 0.08860225230455399
50 177 0.07768820971250534
50 178 0.059638019651174545
50 179 0.0970599353313446
50 180 0.09756678342819214
50 181 0.09680946171283722
50 182 0.0978747233748436
50 183 0.053300175815820694
50 184 0.09782319515943527
50 185 0.11180340498685837
50 188 0.09690941870212555
50 190 0.09741389006376266
50 191 0.10687673836946487
50 192 0.08799457550048828
50 193 0.10632611066102982
50 195 0.10743601620197296
50 197 0.30151134729385376
50 200 0.11755810678005219
50 201 0.09741389006376266
50 202 0.10737969726324081
50 203 0.10704360902309418
50 205 0.09731236845254898
50 206 0.08762677758932114
50 207 0.09761790186166763
50 209 0.1034175381064415
50 210 0.06917144358158112
50 211 0.10632611066102982
50 213 0.09761790186166763
50 214 0.06917144358158112
50 215 0.09751573950052261
50 216 0.09886946529150009
50 217 0.08739923685789108
50 218 0.16162705421447754
50 219 0.09090908616781235
50 221 0.09695951640605927
50 222 0.07086631655693054
50 223 0.1818181723356247
50 224 0.09726172685623169
50 225 0.07784989476203918
50 226 0.10754892975091934
50 227 0.10732346028089523
50 228 0.23354966938495636
50 229 0.09090908616781235
50 230 0.059773288667201996
50 231 0.10682129114866257
50 233 0.1078898087143898
50 234 0.06030227243900299
50 235 0.09711026400327682
50 236 0.08956221491098404
50 237 0.09656091034412384
50 240 0.07859016209840775
50 241 0.07752753794193268
50 242 0.0970599353313446
50 243 0.09090908616781235
50 244 0.09782319515943527
50 245 0.08869685977697372
50 247 0.10777582228183746
50 248 0.0970599353313446
50 249 0.24618299305438995
50 250 0.09661047160625458
50 252 0.10771896690130234
50 253 0.10660035163164139
50 254 0.09777174890041351
50 255 0.10616257041692734
51 52 0.9696250557899475
51 53 0.9679938554763794
51 54 0.9669597148895264
51 55 0.05541321262717247
51 56 0.9653257131576538
51 57 0.7423778772354126
51 58 0.9706324338912964
51 59 0.9610996246337891
51 60 0.9690732955932617
51 61 0.9696009755134583
51 62 0.9525957703590393
51 63 0.9653958082199097
51 64 0.13945353031158447
51 65 0.17845474183559418
51 66 0.9669363498687744
51 67 0.9738359451293945
51 69 0.9747968912124634
51 70 0.16008260846138
51 72 0.9711822271347046
51 73 0.9727163314819336
51 74 0.0639856681227684
51 75 0.9611480236053467
51 76 0.9620794653892517
51 77 0.9589921832084656
51 78 0.9733105897903442
51 79 0.9552765488624573
51 80 0.22622349858283997
51 81 0.0959785059094429
51 82 0.16313208639621735
51 83 0.9742926955223083
51 84 0.9632036685943604
51 85 0.9615875482559204
51 86 0.1502017378807068
51 87 0.09105320274829865
51 88 0.9758459329605103
51 89 0.28082600235939026
51 90 0.19721707701683044
51 91 0.19202715158462524
51 92 0.9520586729049683
51 93 0.9648414254188538
51 94 0.9737675189971924
51 95 0.16939090192317963
51 96 0.959525465965271
51 97 0.9764585494995117
51 98 0.0639856681227684
51 99 0.9753639698028564
51 100 0.9669363498687744
51 101 0.9701523780822754
51 102 0.9769144058227539
51 103 0.0959785059094429
51 104 0.9395954012870789
51 105 0.9727848768234253
51 106 0.9605909585952759
51 107 0.959525465965271
51 108 0.8839554190635681
51 110 0.966385006904602
51 111 0.15685777366161346
51 112 0.18106193840503693
51 113 0.9695778489112854
51 114 0.2932394742965698
51 115 0.9690501093864441
51 116 0.9795086979866028
51 117 0.15005968511104584
51 118 0.9428558349609375
51 119 0.963805079460144
51 120 0.08311982452869415
51 121 0.940513014793396
51 122 0.9780052304267883
51 123 0.9622117280960083
51 124 0.9606157541275024
51 125 0.9631617665290833
51 126 0.9732867479324341
51 127 0.9685695171356201
51 128 0.9774173498153687
51 129 0.974361002445221
51 130 0.14716704189777374
51 131 0.8491018414497375
51 132 0.9520334005355835
51 133 0.985819399356842
51 134 0.09235536307096481
51 135 0.9530830383300781
51 136 0.9611480236053467
51 137 0.9610996246337891
51 138 0.9700621962547302
51 139 0.9584348797798157
51 140 0.9568324089050293
51 141 0.9727610349655151
51 142 0.9669597148895264
51 143 0.9717088341712952
51 144 0.3402874171733856
51 145 0.9711822271347046
51 146 0.9578781723976135
51 147 0.9784635901451111
51 149 0.8492221236228943
51 150 0.9743372797966003
51 151 0.9579249024391174
51 152 0.9664305448532104
51 153 0.972258985042572
51 154 0.961679995059967
51 155 0.9738121628761292
51 156 0.9685221314430237
51 157 0.968017041683197
51 159 0.9674884676933289
51 160 0.20240065455436707
51 161 0.9621409177780151
51 162 0.9583902955055237
51 163 0.9616554379463196
51 164 0.2539352476596832
51 165 0.9712063074111938
51 166 0.9695778489112854
51 167 0.9589921832084656
51 168 0.1055709645152092
51 169 0.8850417733192444
51 170 0.9753422737121582
51 171 0.9637570381164551
51 172 0.9547158479690552
51 173 0.13962817192077637
51 174 0.8863786458969116
51 175 0.9680412411689758
51 176 0.958945631980896
51 177 0.9727163314819336
51 178 0.7910105586051941
51 179 0.9711822271347046
51 180 0.9669363498687744
51 181 0.9768938422203064
51 182 0.9627185463905334
51 183 0.1753232181072235
51 184 0.963249683380127
51 185 0.929648220539093
51 186 0.17238247394561768
51 187 0.08464508503675461
51 188 0.9758459329605103
51 189 0.17645739018917084
51 190 0.9685221314430237
51 191 0.9701282978057861
51 192 0.9637805819511414
51 193 0.974361002445221
51 195 0.9669140577316284
51 196 0.19252745807170868
51 197 0.0639856681227684
51 198 0.20234045386314392
51 200 0.6439642310142517
51 201 0.9674884676933289
51 202 0.9653714299201965
51 203 0.9695778489112854
51 204 0.1752319633960724
51 205 0.9695778489112854
51 206 0.9669839143753052
51 207 0.9653714299201965
51 208 0.08093617856502533
51 209 0.18654868006706238
51 210 0.13211387395858765
51 211 0.9753866791725159
51 212 0.12390770763158798
51 213 0.9643356204032898
51 214 0.12477421015501022
51 215 0.9674652814865112
51 216 0.9536194801330566
51 217 0.974777102470398
51 218 0.29840928316116333
51 219 0.10610823333263397
51 221 0.9712063074111938
51 222 0.9324179887771606
51 223 0.10610823333263397
51 224 0.9701052904129028
51 225 0.10738667845726013
51 226 0.9648180603981018
51 227 0.9669363498687744
51 228 0.11564719676971436
51 229 0.08681582659482956
51 230 0.9492515921592712
51 231 0.9696250557899475
51 232 0.17304883897304535
51 233 0.9616316556930542
51 234 0.15356560051441193
51 235 0.9716858267784119
51 236 0.9450491666793823
51 237 0.9754103422164917
51 238 0.07153815031051636
51 239 0.2559729814529419
51 240 0.9621194005012512
51 241 0.9737893342971802
51 242 0.9701523780822754
51 243 0.10610823333263397
51 244 0.963249683380127
51 245 0.9568324089050293
51 247 0.9626950621604919
51 248 0.9711822271347046
51 249 0.07836611568927765
51 250 0.9748858213424683
51 251 0.21951475739479065
51 252 0.9673824906349182
51 253 0.16966761648654938
51 254 0.9668928980827332
51 255 0.981054961681366
52 53 0.9620053768157959
52 54 0.9620053768157959
52 55 0.05578560009598732
52 56 0.9561384320259094
52 57 0.7541120052337646
52 58 0.9615789651870728
52 59 0.9549790620803833
52 60 0.9641570448875427
52 61 0.9688478708267212
52 62 0.9484473466873169
52 63 0.9614666700363159
52 64 0.13300170004367828
52 65 0.20878705382347107
52 66 0.9588432908058167
52 67 0.9690165519714355
52 69 0.9647673964500427
52 70 0.15495999157428741
52 72 0.9663039445877075
52 73 0.9668049812316895
52 75 0.9550543427467346
52 76 0.9496155977249146
52 77 0.9517947435379028
52 78 0.9695153832435608
52 79 0.9627483487129211
52 80 0.2140791416168213
52 81 0.096623495221138
52 82 0.1200130432844162
52 83 0.9653041362762451
52 84 0.9560633897781372
52 85 0.9544003009796143
52 86 0.15121112763881683
52 87 0.10185010731220245
52 88 0.9648053646087646
52 89 0.28629183769226074
52 90 0.17764319479465485
52 91 0.19331759214401245
52 92 0.9479009509086609
52 93 0.958805501461029
52 94 0.9668399095535278
52 95 0.16464892029762268
52 96 0.9575830101966858
52 97 0.974777102470398
52 99 0.9684817790985107
52 100 0.9609277248382568
52 101 0.9683775305747986
52 102 0.9700496196746826
52 103 0.12883132696151733
52 104 0.9373494386672974
52 105 0.9679467678070068
52 106 0.9565691351890564
52 107 0.9586318135261536
52 108 0.8898957371711731
52 110 0.9613967537879944
52 111 0.1452789455652237
52 112 0.1767551302909851
52 113 0.9625800251960754
52 114 0.2952100932598114
52 115 0.9599616527557373
52 116 0.9716504812240601
52 117 0.1373346596956253
52 118 0.9363938570022583
52 119 0.9640220999717712
52 120 0.11157120019197464
52 121 0.9371277689933777
52 122 0.970159113407135
52 123 0.9571834206581116
52 124 0.9555584788322449
52 125 0.9528441429138184
52 126 0.9684460759162903
52 127 0.9636557698249817
52 128 0.9695153832435608
52 129 0.9695510268211365
52 130 0.1481560319662094
52 131 0.8559936285018921
52 132 0.9478640556335449
52 133 0.9801791906356812
52 134 0.11157120019197464
52 135 0.9468073844909668
52 136 0.9561004042625427
52 137 0.9539307951927185
52 138 0.9609642624855042
52 139 0.9533140063285828
52 140 0.9537877440452576
52 141 0.9658405184745789
52 142 0.9630465507507324
52 143 0.9668399095535278
52 144 0.34257420897483826
52 145 0.9642303586006165
52 146 0.9579987525939941
52 147 0.9674859046936035
52 149 0.865541934967041
52 150 0.9674481749534607
52 151 0.9580593109130859
52 152 0.9645917415618896
52 153 0.9674113988876343
52 154 0.9650061130523682
52 155 0.9658784866333008
52 156 0.9615030884742737
52 157 0.9641218781471252
52 159 0.9625437259674072
52 160 0.178911954164505
52 161 0.9560273289680481
52 162 0.9500844478607178
52 163 0.9555584788322449
52 164 0.24346832931041718
52 165 0.9642683863639832
52 166 0.9636195302009583
52 167 0.9528441429138184
52 168 0.12905479967594147
52 169 0.890989363193512
52 170 0.9725847244262695
52 171 0.9555965065956116
52 172 0.955862283706665
52 173 0.13353818655014038
52 174 0.904775857925415
52 175 0.9693518280982971
52 176 0.9527704119682312
52 177 0.9657676219940186
52 178 0.7899556756019592
52 179 0.9663039445877075
52 180 0.9609277248382568
52 181 0.9679467678070068
52 182 0.9618695378303528
52 183 0.16511422395706177
52 184 0.9561384320259094
52 185 0.9250383973121643
52 186 0.16775621473789215
52 187 0.08521391451358795
52 188 0.9679110050201416
52 189 0.18809279799461365
52 190 0.9604625105857849
52 191 0.9621174335479736
52 192 0.9566799998283386
52 193 0.9695510268211365
52 195 0.9608922004699707
52 196 0.20873060822486877
52 198 0.18842269480228424
52 200 0.6420128345489502
52 201 0.9677466750144958
52 202 0.9593456387519836
52 203 0.9605010151863098
52 204 0.17052924633026123
52 205 0.9625800251960754
52 206 0.9651618599891663
52 207 0.9603884816169739
52 208 0.09166509658098221
52 209 0.15466073155403137
52 210 0.1108347475528717
52 211 0.9736810922622681
52 212 0.12474039196968079
52 213 0.96247398853302
52 214 0.13300170004367828
52 215 0.9593833684921265
52 216 0.9484105110168457
52 217 0.9657676219940186
52 218 0.2658842206001282
52 219 0.07768820971250534
52 220 0.05578560009598732
52 221 0.9673755764961243
52 222 0.9235439300537109
52 223 0.07768820971250534
52 224 0.961040198802948
52 225 0.11642436683177948
52 226 0.9577244520187378
52 227 0.9588432908058167
52 228 0.07484423369169235
52 229 0.10682129114866257
52 230 0.9396679997444153
52 231 0.9657676219940186
52 232 0.19054409861564636
52 233 0.9523782730102539
52 234 0.12238975614309311
52 235 0.9657676219940186
52 236 0.9450219869613647
52 237 0.9726819396018982
52 238 0.07201889902353287
52 239 0.24579963088035583
52 240 0.9570416808128357
52 241 0.9658405184745789
52 242 0.9683775305747986
52 243 0.09711026400327682
52 244 0.9603182673454285
52 245 0.9495768547058105
52 246 0.06441566348075867
52 247 0.9545118808746338
52 248 0.9673407077789307
52 249 0.06574396789073944
52 250 0.9731811881065369
52 251 0.23000992834568024
52 252 0.9581925272941589
52 253 0.17650140821933746
52 254 0.9566799998283386
52 255 0.9711526036262512
53 54 0.9582027792930603
53 55 0.05598925054073334
53 56 0.9543850421905518
53 57 0.7406174540519714
53 58 0.9588359594345093
53 59 0.9489964842796326
53 60 0.9572492837905884
53 61 0.9588359594345093
53 62 0.9466155171394348
53 63 0.9566128253936768
53 64 0.14090318977832794
53 65 0.1949295699596405
53 66 0.9592055678367615
53 67 0.9673698544502258
53 69 0.9610089659690857
53 70 0.16174672544002533
53 72 0.9625473618507385
53 73 0.9588820338249207
53 74 0.06465081870555878
53 75 0.9543413519859314
53 76 0.9520268440246582
53 77 0.946843683719635
53 78 0.9647557139396667
53 79 0.9451425075531006
53 80 0.2240036576986313
53 81 0.09697623550891876
53 82 0.13313022255897522
53 83 0.9605118632316589
53 84 0.9553496241569519
53 85 0.9473466277122498
53 86 0.1583615094423294
53 87 0.10222192108631134
53 88 0.9641715884208679
53 89 0.27297013998031616
53 90 0.19402332603931427
53 91 0.16780395805835724
53 92 0.946064293384552
53 93 0.9539288282394409
53 94 0.9599689245223999
53 95 0.1770535707473755
53 96 0.9526574611663818
53 97 0.9669597148895264
53 98 0.06465081870555878
53 99 0.9647557139396667
53 100 0.9539754390716553
53 101 0.9604661464691162
53 102 0.9642593860626221
53 103 0.12122028321027756
53 104 0.926810085773468
53 105 0.9621391892433167
53 106 0.9495457410812378
53 107 0.9484468102455139
53 108 0.8794213533401489
53 110 0.9554774165153503
53 111 0.15848836302757263
53 112 0.1884879171848297
53 113 0.9619209170341492
53 114 0.29628777503967285
53 115 0.9592906832695007
53 116 0.9689862132072449
53 117 0.1378360092639923
53 118 0.9355306625366211
53 119 0.9549759030342102
53 120 0.0839838832616806
53 121 0.9253962635993958
53 122 0.9674988389015198
53 123 0.9564826488494873
53 124 0.954845130443573
53 125 0.9500033855438232
53 126 0.9626355171203613
53 127 0.9609203934669495
53 128 0.9668304324150085
53 129 0.9658363461494446
53 130 0.12283656746149063
53 131 0.8436496257781982
53 132 0.946021556854248
53 133 0.9745250940322876
53 134 0.11197850108146667
53 135 0.941779375076294
53 136 0.9553912281990051
53 137 0.9542570114135742
53 138 0.9582027792930603
53 139 0.9473000764846802
53 140 0.9509301781654358
53 141 0.9662495851516724
53 142 0.9550679326057434
53 143 0.963089108467102
53 144 0.3438248038291931
53 145 0.9594255685806274
53 146 0.9488170146942139
53 147 0.9648000597953796
53 149 0.849765419960022
53 150 0.9678677916526794
53 151 0.9457417130470276
53 152 0.9576583504676819
53 153 0.9626355171203613
53 154 0.9506904482841492
53 155 0.9652529358863831
53 156 0.9577024579048157
53 157 0.9582468867301941
53 159 0.9577024579048157
53 160 0.20450466871261597
53 161 0.9521527290344238
53 162 0.9450955986976624
53 163 0.9537946581840515
53 164 0.2402845174074173
53 165 0.9615514278411865
53 166 0.9671373963356018
53 167 0.9510565400123596
53 168 0.12190674990415573
53 169 0.8793380260467529
53 170 0.9626355171203613
53 171 0.9548877477645874
53 172 0.9424282312393188
53 173 0.14107964932918549
53 174 0.8774312734603882
53 175 0.9582920074462891
53 176 0.9488604068756104
53 177 0.9609642624855042
53 178 0.7979545593261719
53 179 0.961506724357605
53 180 0.9539754390716553
53 181 0.9631770849227905
53 182 0.9506904482841492
53 183 0.1828601360321045
53 184 0.9543850421905518
53 185 0.9186081290245056
53 186 0.17998027801513672
53 187 0.07330713421106339
53 188 0.9641715884208679
53 189 0.18877945840358734
53 190 0.9556136727333069
53 191 0.9604213833808899
53 192 0.9538831114768982
53 193 0.9658363461494446
53 195 0.9549759030342102
53 196 0.20450466871261597
53 197 0.06465081870555878
53 198 0.1942216455936432
53 200 0.622300386428833
53 201 0.9556136727333069
53 202 0.9534287452697754
53 203 0.9587909579277039
53 204 0.1711517721414566
53 205 0.9650508165359497
53 206 0.9582468867301941
53 207 0.9576149582862854
53 208 0.09199972450733185
53 209 0.1829441487789154
53 210 0.0964074432849884
53 211 0.9648000597953796
53 212 0.1168493926525116
53 213 0.9576149582862854
53 214 0.1260712742805481
53 215 0.9555673599243164
53 216 0.9423328638076782
53 217 0.9609642624855042
53 218 0.2807174324989319
53 219 0.10721126198768616
53 220 0.05598925054073334
53 221 0.9605118632316589
53 222 0.925830066204071
53 223 0.09746478497982025
53 224 0.96037757396698
53 225 0.12519577145576477
53 226 0.955979585647583
53 227 0.9539754390716553
53 228 0.1168493926525116
53 229 0.09746478497982025
53 230 0.9377580285072327
53 231 0.9599231481552124
53 232 0.18031172454357147
53 233 0.9505972862243652
53 234 0.15516197681427002
53 235 0.9588820338249207
53 236 0.942070484161377
53 237 0.9679509997367859
53 238 0.07228181511163712
53 239 0.2546549141407013
53 240 0.9510565400123596
53 241 0.9641715884208679
53 242 0.9625473618507385
53 243 0.10721126198768616
53 244 0.9533362984657288
53 245 0.9498736262321472
53 247 0.9537946581840515
53 248 0.9635879397392273
53 249 0.0791807547211647
53 250 0.9653403759002686
53 251 0.2217966765165329
53 252 0.9585408568382263
53 253 0.17143136262893677
53 254 0.955979585647583
53 255 0.9664201736450195
54 55 0.05598925054073334
54 56 0.9543850421905518
54 57 0.7338476181030273
54 58 0.9577937722206116
54 59 0.9521527290344238
54 60 0.9582920074462891
54 61 0.9598782062530518
54 62 0.9466155171394348
54 63 0.9607947468757629
54 64 0.14090318977832794
54 65 0.20954927802085876
54 66 0.9560675024986267
54 67 0.9642593860626221
54 69 0.9610089659690857
54 70 0.15552569925785065
54 72 0.9656690955162048
54 73 0.9599231481552124
54 74 0.06465081870555878
54 75 0.9553912281990051
54 76 0.949915885925293
54 77 0.9489501118659973
54 78 0.9657930731773376
54 79 0.947254478931427
54 80 0.21486064791679382
54 81 0.09697623550891876
54 82 0.13946975767612457
54 83 0.9605118632316589
54 84 0.9511456489562988
54 85 0.949454128742218
54 86 0.1583615094423294
54 87 0.10222192108631134
54 88 0.9631326198577881
54 89 0.2478281557559967
54 90 0.17304782569408417
54 91 0.18877945840358734
54 92 0.9503019452095032
54 93 0.9539288282394409
54 94 0.9662092328071594
54 95 0.15934820473194122
54 96 0.9516047835350037
54 97 0.9679938554763794
54 99 0.9657930731773376
54 100 0.9581595659255981
54 101 0.9646285176277161
54 102 0.9642593860626221
54 103 0.11313892900943756
54 104 0.9311058521270752
54 105 0.9673287272453308
54 106 0.9537519812583923
54 107 0.9568681120872498
54 108 0.8794213533401489
54 110 0.9565250277519226
54 111 0.15848836302757263
54 112 0.15522533655166626
54 113 0.9619209170341492
54 114 0.2823448181152344
54 115 0.962422251701355
54 116 0.9648452401161194
54 117 0.1378360092639923
54 118 0.9312491416931152
54 119 0.9581172466278076
54 120 0.10264696925878525
54 121 0.9221493005752563
54 122 0.9674988389015198
54 123 0.952287495136261
54 124 0.9516937732696533
54 125 0.9531629681587219
54 126 0.9667893052101135
54 127 0.9650892615318298
54 128 0.9637182950973511
54 129 0.9658363461494446
54 130 0.14223182201385498
54 131 0.8341302871704102
54 132 0.953445553779602
54 133 0.9765766859054565
54 134 0.10264696925878525
54 135 0.9396582245826721
54 136 0.9564411044120789
54 137 0.9553090929985046
54 138 0.9592476487159729
54 139 0.9494098424911499
54 140 0.9530434012413025
54 141 0.9662495851516724
54 142 0.9602925777435303
54 143 0.9662092328071594
54 144 0.3467634916305542
54 145 0.9604661464691162
54 146 0.9551565647125244
54 147 0.9648000597953796
54 149 0.8568665385246277
54 150 0.9626809358596802
54 151 0.951013445854187
54 152 0.9587038159370422
54 153 0.9615970849990845
54 154 0.9548877477645874
54 155 0.9642149806022644
54 156 0.9587468504905701
54 157 0.956159234046936
54 159 0.9577024579048157
54 160 0.17956508696079254
54 161 0.950048565864563
54 162 0.9450955986976624
54 163 0.9537946581840515
54 164 0.21992141008377075
54 165 0.9615514278411865
54 166 0.9650508165359497
54 167 0.9500033855438232
54 168 0.12952592968940735
54 169 0.8724592328071594
54 170 0.9636739492416382
54 171 0.9517398476600647
54 172 0.9434859752655029
54 173 0.14813363552093506
54 174 0.8819716572761536
54 175 0.9582920074462891
54 176 0.949915885925293
54 177 0.9651287794113159
54 178 0.791560709476471
54 179 0.9646285176277161
54 180 0.9550215005874634
54 181 0.9631770849227905
54 182 0.9517398476600647
54 183 0.17714574933052063
54 184 0.9543850421905518
54 185 0.9164287447929382
54 186 0.17998027801513672
54 187 0.08552499115467072
54 188 0.9631326198577881
54 189 0.1992672085762024
54 190 0.9587468504905701
54 191 0.9583380222320557
54 192 0.9538831114768982
54 193 0.9648000597953796
54 195 0.9549759030342102
54 196 0.18455299735069275
54 198 0.1942216455936432
54 200 0.6254512667655945
54 201 0.9587468504905701
54 202 0.955521821975708
54 203 0.9608775973320007
54 204 0.1770535707473755
54 205 0.9598342776298523
54 206 0.9582468867301941
54 207 0.955521821975708
54 208 0.09199972450733185
54 209 0.17185662686824799
54 210 0.1260712742805481
54 211 0.9668726325035095
54 212 0.1168493926525116
54 213 0.9576149582862854
54 214 0.10382340103387833
54 215 0.9555673599243164
54 216 0.9455128312110901
54 217 0.9620053768157959
54 218 0.2876487374305725
54 219 0.06822534650564194
54 220 0.05598925054073334
54 221 0.9625909328460693
54 222 0.9280007481575012
54 223 0.06822534650564194
54 224 0.96037757396698
54 225 0.10015662014484406
54 226 0.955979585647583
54 227 0.9550215005874634
54 228 0.08346385508775711
54 229 0.10721126198768616
54 230 0.9430983066558838
54 231 0.9588820338249207
54 232 0.19123969972133636
54 233 0.9527003765106201
54 234 0.14223182201385498
54 235 0.9599231481552124
54 236 0.9431374669075012
54 237 0.9669157266616821
54 238 0.07228181511163712
54 239 0.26261287927627563
54 240 0.9510565400123596
54 241 0.9641715884208679
54 242 0.9635879397392273
54 243 0.08771830052137375
54 244 0.9533362984657288
54 245 0.9593828916549683
54 247 0.9506433606147766
54 248 0.9604661464691162
54 249 0.06598396599292755
54 250 0.9653403759002686
54 251 0.22632312774658203
54 252 0.9522415995597839
54 253 0.15428823232650757
54 254 0.958076000213623
54 255 0.9664201736450195
55 56 0.05619514361023903
55 61 0.05584355816245079
55 63 0.05601852759718895
55 65 0.08703882992267609
55 66 0.056047845631837845
55 67 0.0555555559694767
55 70 0.1111111119389534
55 72 0.05575668811798096
55 73 0.05578560009598732
55 74 0.2886751592159271
55 75 0.05625439062714577
55 81 0.19245009124279022
55 86 0.1178511306643486
55 88 0.05567022040486336
55 91 0.09365858137607574
55 92 0.05676567181944847
55 94 0.05572781711816788
55 96 0.05640333145856857
55 97 0.05541321262717247
55 98 0.2886751592159271
55 99 0.055584151297807693
55 100 0.056047845631837845
55 102 0.0555555559694767
55 105 0.055612798780202866
55 108 0.061275552958250046
55 110 0.05613608658313751
55 111 0.1132277101278305
55 114 0.06225728243589401
55 118 0.05735393241047859
55 119 0.056106630712747574
55 122 0.05538487434387207
55 123 0.05619514361023903
55 124 0.056284088641405106
55 127 0.05584355816245079
55 129 0.05552699789404869
55 136 0.05625439062714577
55 138 0.05598925054073334
55 139 0.056523337960243225
55 140 0.056613851338624954
55 141 0.05567022040486336
55 144 0.05248638987541199
55 145 0.05575668811798096
55 146 0.056613851338624954
55 147 0.05552699789404869
55 150 0.055584151297807693
55 151 0.05649326741695404
55 152 0.05601852759718895
55 153 0.05564148724079132
55 154 0.056224748492240906
55 156 0.05596001818776131
55 159 0.05596001818776131
55 160 0.08908707648515701
55 161 0.05637345090508461
55 163 0.056284088641405106
55 165 0.055698998272418976
55 166 0.055901702493429184
55 167 0.05643326789140701
55 171 0.056224748492240906
55 176 0.05655346065759659
55 177 0.05578560009598732
55 179 0.05575668811798096
55 181 0.055612798780202866
55 184 0.05619514361023903
55 185 0.05838741734623909
55 186 0.10369517654180527
55 188 0.05567022040486336
55 191 0.055814556777477264
55 194 0.5773503184318542
55 196 0.08908707648515701
55 197 0.2886751592159271
55 202 0.05607721582055092
55 203 0.055901702493429184
55 205 0.055901702493429184
55 206 0.055930834263563156
55 207 0.05607721582055092
55 208 0.18257418274879456
55 209 0.0990147590637207
55 215 0.05601852759718895
55 216 0.056796181946992874
55 218 0.06189844757318497
55 221 0.055698998272418976
55 222 0.0581565760076046
55 226 0.05616559833288193
55 227 0.056047845631837845
55 228 0.14907120168209076
55 230 0.05722856894135475
55 233 0.05634361505508423
55 234 0.11547005921602249
55 236 0.057166192680597305
55 237 0.055470019578933716
55 241 0.05567022040486336
55 245 0.056613851338624954
55 247 0.056284088641405106
55 254 0.05616559833288193
56 57 0.7379052639007568
56 58 0.9571317434310913
56 59 0.9461504220962524
56 60 0.9565830826759338
56 61 0.9581778645515442
56 62 0.9415946006774902
56 63 0.9559334516525269
56 64 0.12653489410877228
56 65 0.20542870461940765
56 66 0.9522342681884766
56 67 0.9615614414215088
56 69 0.9593236446380615
56 70 0.13736592233181
56 72 0.9587761759757996
56 73 0.9613631963729858
56 75 0.9525821805000305
56 76 0.947053074836731
56 77 0.9492685794830322
56 78 0.9641388058662415
56 79 0.9443785548210144
56 80 0.211062490940094
56 81 0.09733285009860992
56 82 0.15270833671092987
56 83 0.9598708152770996
56 84 0.9546434879302979
56 85 0.9455421566963196
56 86 0.13245323300361633
56 87 0.10259783267974854
56 88 0.961460530757904
56 89 0.2703690230846405
56 90 0.1894736886024475
56 91 0.1894736886024475
56 92 0.9399735927581787
56 93 0.9595387578010559
56 94 0.9603675007820129
56 95 0.15993419289588928
56 96 0.9477085471153259
56 97 0.9622117280960083
56 98 0.06488857418298721
56 99 0.9589328765869141
56 100 0.9532841444015503
56 101 0.9577317833900452
56 102 0.9605208039283752
56 103 0.1216660663485527
56 104 0.9323741793632507
56 105 0.9604688286781311
56 106 0.9467051029205322
56 107 0.944538950920105
56 108 0.8665862083435059
56 110 0.9516304135322571
56 111 0.14634551107883453
56 112 0.17248861491680145
56 113 0.9581283330917358
56 114 0.2833831012248993
56 115 0.9607231616973877
56 116 0.9663153290748596
56 117 0.12450859695672989
56 118 0.9421940445899963
56 119 0.9511309862136841
56 120 0.1030244380235672
56 121 0.9255403876304626
56 122 0.9679443836212158
56 123 0.9557895064353943
56 124 0.9520307183265686
56 125 0.9503256678581238
56 126 0.9599219560623169
56 127 0.9581778645515442
56 128 0.9610152244567871
56 129 0.9641875624656677
56 130 0.14924371242523193
56 131 0.8395862579345703
56 132 0.9388558268547058
56 133 0.9719313383102417
56 134 0.06556100398302078
56 135 0.9399203062057495
56 136 0.9536359310150146
56 137 0.9514302611351013
56 138 0.9533362984657288
56 139 0.9444310069084167
56 140 0.9417014718055725
56 141 0.9583321213722229
56 142 0.9575313925743103
56 143 0.9624552726745605
56 144 0.3391902446746826
56 145 0.9619094133377075
56 146 0.9427618980407715
56 147 0.9610671997070312
56 149 0.8505146503448486
56 150 0.9620563983917236
56 151 0.9428703188896179
56 152 0.9538347721099854
56 153 0.9661754965782166
56 154 0.9499738216400146
56 155 0.9604688286781311
56 156 0.9549350738525391
56 157 0.9586277604103088
56 159 0.9559832811355591
56 160 0.17021289467811584
56 161 0.9482623934745789
56 162 0.9443269968032837
56 163 0.9573022127151489
56 164 0.24116815626621246
56 165 0.9598708152770996
56 166 0.9581283330917358
56 167 0.9503256678581238
56 168 0.10706067830324173
56 169 0.8676128387451172
56 170 0.9578374028205872
56 171 0.9520801901817322
56 172 0.9384627342224121
56 173 0.1345185488462448
56 174 0.8817972540855408
56 175 0.9555364847183228
56 176 0.9417563676834106
56 177 0.9571834206581116
56 178 0.7893377542495728
56 179 0.9619094133377075
56 180 0.9501345157623291
56 181 0.9656774401664734
56 182 0.9520801901817322
56 183 0.1548556089401245
56 184 0.9515789747238159
56 185 0.9187051057815552
56 186 0.17481496930122375
56 187 0.08583950251340866
56 188 0.961460530757904
56 189 0.19473683834075928
56 190 0.9549350738525391
56 191 0.9576802253723145
56 192 0.954234778881073
56 193 0.9610671997070312
56 195 0.9542838931083679
56 196 0.18523167073726654
56 197 0.06488857418298721
56 198 0.1898059844970703
56 200 0.6388199925422668
56 201 0.9528385400772095
56 202 0.9527331590652466
56 203 0.9560340642929077
56 204 0.15401069819927216
56 205 0.9549869298934937
56 206 0.9554847478866577
56 207 0.9527331590652466
56 208 0.06155869737267494
56 209 0.18918107450008392
56 210 0.13397812843322754
56 211 0.9610671997070312
56 212 0.12565617263317108
56 213 0.9506322741508484
56 214 0.13397812843322754
56 215 0.9506867527961731
56 216 0.9383509755134583
56 217 0.958228349685669
56 218 0.292184978723526
56 219 0.10760551691055298
56 220 0.05619514361023903
56 221 0.9567407965660095
56 222 0.9161621928215027
56 223 0.10760551691055298
56 224 0.9576296806335449
56 225 0.08377078920602798
56 226 0.9500264525413513
56 227 0.9501345157623291
56 228 0.10890201479196548
56 229 0.09782319515943527
56 230 0.9412065744400024
56 231 0.9592732787132263
56 232 0.17549073696136475
56 233 0.9509267210960388
56 234 0.14924371242523193
56 235 0.9634531736373901
56 236 0.9380391836166382
56 237 0.9621590971946716
56 238 0.07254762947559357
56 239 0.25958502292633057
56 240 0.9450401663780212
56 241 0.9604177474975586
56 242 0.956687331199646
56 243 0.09782319515943527
56 244 0.9484210014343262
56 245 0.9427618980407715
56 247 0.9457049369812012
56 248 0.959820568561554
56 249 0.07947193831205368
56 250 0.960573673248291
56 251 0.1544656902551651
56 252 0.956797182559967
56 253 0.14912022650241852
56 254 0.9500264525413513
56 255 0.9710126519203186
57 58 0.7359893321990967
57 59 0.7361568212509155
57 60 0.7458301782608032
57 61 0.7508441805839539
57 62 0.7326488494873047
57 63 0.7328765988349915
57 64 0.09609167277812958
57 65 0.2020627111196518
57 66 0.729194164276123
57 67 0.7510022521018982
57 68 0.05923488363623619
57 69 0.745245099067688
57 70 0.13703440129756927
57 71 0.05923488363623619
57 72 0.7510244846343994
57 73 0.7352254390716553
57 75 0.7250795364379883
57 76 0.7248314619064331
57 77 0.7301144003868103
57 78 0.7540772557258606
57 79 0.7471114993095398
57 80 0.15401069819927216
57 81 0.06980898231267929
57 82 0.08214401453733444
57 83 0.7394719123840332
57 84 0.736739993095398
57 85 0.7209441661834717
57 86 0.16244657337665558
57 87 0.11920791119337082
57 88 0.7337048053741455
57 89 0.27923592925071716
57 90 0.16307297348976135
57 91 0.12909944355487823
57 92 0.708332896232605
57 93 0.7516676783561707
57 94 0.7331163287162781
57 95 0.15294383466243744
57 96 0.7379109859466553
57 97 0.7544382214546204
57 98 0.06282808631658554
57 99 0.7446680665016174
57 100 0.7400371432304382
57 101 0.7415860891342163
57 102 0.7442848682403564
57 103 0.16754156351089478
57 104 0.7277799844741821
57 105 0.7369826436042786
57 106 0.7357671856880188
57 107 0.7229072451591492
57 108 0.7097815275192261
57 110 0.7452747821807861
57 111 0.1150016114115715
57 112 0.07901613414287567
57 113 0.7381073832511902
57 114 0.23938073217868805
57 115 0.7303768992424011
57 116 0.7485045790672302
57 117 0.142879918217659
57 118 0.7226081490516663
57 119 0.7326724529266357
57 120 0.10882143676280975
57 121 0.7166399955749512
57 122 0.7473556995391846
57 123 0.7365463376045227
57 124 0.7336287498474121
57 125 0.7301144003868103
57 126 0.7387083768844604
57 127 0.7292371392250061
57 128 0.7379472255706787
57 129 0.745245099067688
57 130 0.10890200734138489
57 131 0.6706928014755249
57 132 0.7187144756317139
57 133 0.7536522746086121
57 134 0.07254762202501297
57 135 0.7393277883529663
57 136 0.7427642941474915
57 137 0.7170712351799011
57 138 0.7419713735580444
57 139 0.7353804111480713
57 140 0.7228672504425049
57 141 0.7337048053741455
57 142 0.7324935793876648
57 143 0.7492880821228027
57 144 0.3122365176677704
57 145 0.7429344058036804
57 146 0.7406651377677917
57 147 0.7371883988380432
57 149 0.7084922790527344
57 150 0.7446680665016174
57 151 0.7240599393844604
57 152 0.7301673293113708
57 153 0.7400539517402649
57 154 0.7342149615287781
57 155 0.7396723031997681
57 156 0.7429372668266296
57 157 0.7506651282310486
57 159 0.7442905306816101
57 160 0.14865028858184814
57 161 0.749789297580719
57 162 0.7259933352470398
57 163 0.7309065461158752
57 164 0.226913720369339
57 165 0.742165744304657
57 166 0.7462185025215149
57 167 0.7423967123031616
57 168 0.1085972934961319
57 169 0.7100793719291687
57 170 0.7467817068099976
57 171 0.74101322889328
57 172 0.7441988587379456
57 173 0.09140141308307648
57 174 0.7133355140686035
57 175 0.7458301782608032
57 176 0.739875078201294
57 177 0.7311784029006958
57 178 0.6230170726776123
57 179 0.7510244846343994
57 180 0.7413925528526306
57 181 0.7356377840042114
57 182 0.74101322889328
57 183 0.10366104543209076
57 184 0.7311105132102966
57 185 0.72292160987854
57 186 0.09027405083179474
57 188 0.7417823076248169
57 189 0.16307297348976135
57 190 0.746997058391571
57 191 0.7396563291549683
57 192 0.733442485332489
57 193 0.7385311722755432
57 195 0.7286019921302795
57 196 0.20681777596473694
57 198 0.14569856226444244
57 200 0.48176309466362
57 201 0.7497035264968872
57 202 0.7458491921424866
57 203 0.7367555499076843
57 204 0.10706067830324173
57 205 0.7394592761993408
57 206 0.7411972880363464
57 207 0.733644425868988
57 209 0.15084898471832275
57 210 0.10570084303617477
57 211 0.745245099067688
57 212 0.09733285009860992
57 213 0.7377126812934875
57 214 0.10570084303617477
57 215 0.738295316696167
57 216 0.7361831068992615
57 217 0.7379235625267029
57 218 0.17513281106948853
57 219 0.06314460188150406
57 221 0.742165744304657
57 222 0.7017804384231567
57 224 0.741776704788208
57 225 0.09733285009860992
57 226 0.7429500818252563
57 227 0.7427479028701782
57 228 0.08651808649301529
57 229 0.08840243518352509
57 230 0.7293322682380676
57 231 0.7406216263771057
57 232 0.12035869807004929
57 233 0.7398548126220703
57 234 0.10052493214607239
57 235 0.7419706583023071
57 236 0.7340670824050903
57 237 0.7404561638832092
57 238 0.05619514361023903
57 239 0.11342617124319077
57 240 0.7314790487289429
57 241 0.736397385597229
57 242 0.7577661871910095
57 243 0.08840243518352509
57 244 0.7406230568885803
57 245 0.7173910140991211
57 246 0.08377078175544739
57 247 0.7404342293739319
57 248 0.7415860891342163
57 250 0.7475466132164001
57 251 0.10557229816913605
57 252 0.7536473274230957
57 253 0.16289593279361725
57 254 0.733442485332489
57 255 0.7454395890235901
58 59 0.9538725018501282
58 60 0.9630786776542664
58 61 0.9604989290237427
58 62 0.9483766555786133
58 63 0.9593372941017151
58 64 0.12574322521686554
58 65 0.17498008906841278
58 66 0.9587961435317993
58 67 0.9689891338348389
58 69 0.9657697081565857
58 70 0.15512098371982574
58 72 0.9621184468269348
58 73 0.9657326340675354
58 75 0.9591881036758423
58 76 0.9495494961738586
58 77 0.9517331719398499
58 78 0.9663839340209961
58 79 0.9500560164451599
58 80 0.20518232882022858
58 81 0.08597678691148758
58 82 0.16439898312091827
58 83 0.9683805704116821
58 84 0.9549602270126343
58 85 0.9585449695587158
58 86 0.13162453472614288
58 87 0.08156473934650421
58 88 0.9647715091705322
58 89 0.2794245183467865
58 90 0.19874867796897888
58 91 0.19351844489574432
58 92 0.9436025023460388
58 93 0.9598016738891602
58 94 0.9647324085235596
58 95 0.15893355011940002
58 96 0.9543781876564026
58 97 0.9685695171356201
58 99 0.9663839340209961
58 100 0.9567095637321472
58 101 0.9652321338653564
58 102 0.9669209122657776
58 103 0.12090485543012619
58 104 0.9329675436019897
58 105 0.9648115634918213
58 106 0.9586117267608643
58 107 0.9522783756256104
58 108 0.8794141411781311
58 110 0.9550809264183044
58 111 0.1580759435892105
58 112 0.18246808648109436
58 113 0.962539553642273
58 114 0.27813345193862915
58 115 0.9620001316070557
58 116 0.9716274738311768
58 117 0.1374773383140564
58 118 0.9362991452217102
58 119 0.9556241035461426
58 120 0.11168711632490158
58 121 0.9283857345581055
58 122 0.972197949886322
58 123 0.9550396800041199
58 124 0.9544559121131897
58 125 0.9517331719398499
58 126 0.9663450121879578
58 127 0.9604989290237427
58 128 0.9705225825309753
58 129 0.9664239287376404
58 130 0.1612064689397812
58 131 0.8414542078971863
58 132 0.9446176886558533
58 133 0.9781280755996704
58 134 0.11168711632490158
58 135 0.9456754922866821
58 136 0.9560465812683105
58 137 0.9559713006019592
58 138 0.9577937722206116
58 139 0.9479914903640747
58 140 0.9463480114936829
58 141 0.9637352228164673
58 142 0.9609203934669495
58 143 0.9636949896812439
58 144 0.33999907970428467
58 145 0.9621184468269348
58 146 0.9463480114936829
58 147 0.9695246815681458
58 149 0.8440129160881042
58 150 0.9653492569923401
58 151 0.9495903253555298
58 152 0.9572518467903137
58 153 0.9642735719680786
58 154 0.9555427432060242
58 155 0.9658467173576355
58 156 0.9614604115486145
58 157 0.9620001316070557
58 159 0.9614604115486145
58 160 0.19899757206439972
58 161 0.9528231620788574
58 162 0.9521259069442749
58 163 0.9565512537956238
58 164 0.2518453001976013
58 165 0.9663069844245911
58 166 0.9594177603721619
58 167 0.9527837038040161
58 168 0.1291888803243637
58 169 0.8701889514923096
58 170 0.9663450121879578
58 171 0.9586825966835022
58 172 0.9494706392288208
58 173 0.14071252942085266
58 174 0.8762801885604858
58 175 0.9620386362075806
58 176 0.9495494961738586
58 177 0.9615789651870728
58 178 0.784399151802063
58 179 0.9631562829017639
58 180 0.9577528834342957
58 181 0.9699875712394714
58 182 0.9555427432060242
58 183 0.17668478190898895
58 184 0.9571317434310913
58 185 0.9173045754432678
58 186 0.17372122406959534
58 187 0.0853024423122406
58 188 0.9647715091705322
58 189 0.1830579936504364
58 190 0.9614604115486145
58 191 0.9641559720039368
58 192 0.9555829167366028
58 193 0.9674574732780457
58 195 0.9608460664749146
58 196 0.19402262568473816
58 198 0.20391185581684113
58 200 0.6316804885864258
58 201 0.9604187607765198
58 202 0.9582546949386597
58 203 0.9635801315307617
58 204 0.1353878378868103
58 205 0.9594177603721619
58 206 0.9599179029464722
58 207 0.9613862633705139
58 208 0.08156473934650421
58 209 0.17140941321849823
58 210 0.14053654670715332
58 211 0.9674574732780457
58 212 0.1082206591963768
58 213 0.9582546949386597
58 214 0.14053654670715332
58 215 0.9593372941017151
58 216 0.9451668858528137
58 217 0.9698862433433533
58 218 0.29035690426826477
58 219 0.10693227499723434
58 220 0.05584355816245079
58 221 0.9642333984375
58 222 0.9245033860206604
58 223 0.10693227499723434
58 224 0.9620386362075806
58 225 0.12486998736858368
58 226 0.957673966884613
58 227 0.9598394632339478
58 228 0.11654532700777054
58 229 0.10693227499723434
58 230 0.9406442046165466
58 231 0.9636557698249817
58 232 0.17439274489879608
58 233 0.9565141201019287
58 234 0.15475820004940033
58 235 0.9636557698249817
58 236 0.9374908208847046
58 237 0.9695624113082886
58 239 0.25796088576316833
58 240 0.9506826996803284
58 241 0.9647715091705322
58 242 0.9652321338653564
58 243 0.10693227499723434
58 244 0.9571317434310913
58 245 0.9484556913375854
58 246 0.06448258459568024
58 247 0.9523604512214661
58 248 0.9631562829017639
58 249 0.07897471636533737
58 250 0.9690268635749817
58 251 0.2212195247411728
58 252 0.9549994468688965
58 253 0.17668478190898895
58 254 0.9566284418106079
58 255 0.9731935858726501
59 60 0.9543687701225281
59 61 0.9517738223075867
59 62 0.9392516016960144
59 63 0.9484399557113647
59 64 0.13440322875976562
59 65 0.2011738419532776
59 66 0.9499896168708801
59 67 0.9573047161102295
59 69 0.9560843706130981
59 70 0.16285663843154907
59 72 0.9534364342689514
59 73 0.9528825283050537
59 74 0.06509445607662201
59 75 0.9439767599105835
59 76 0.9415563344955444
59 77 0.9416760802268982
59 78 0.9598864912986755
59 79 0.939932107925415
59 80 0.20712928473949432
59 81 0.09764168411493301
59 82 0.14680984616279602
59 83 0.9545432329177856
59 84 0.9492068290710449
59 85 0.9411152005195618
59 86 0.15944820642471313
59 87 0.10292337089776993
59 88 0.9550961256027222
59 89 0.28930869698524475
59 90 0.17951515316963196
59 91 0.19535471498966217
59 92 0.936555802822113
59 93 0.9488772749900818
59 94 0.9550371766090393
59 95 0.1723262220621109
59 96 0.9464760422706604
59 97 0.9610996246337891
59 98 0.06509445607662201
59 99 0.9588419795036316
59 100 0.9499896168708801
59 101 0.9523887038230896
59 102 0.9604365229606628
59 103 0.12205210328102112
59 104 0.9342511892318726
59 105 0.9562010765075684
59 106 0.9454739689826965
59 107 0.9432963728904724
59 108 0.8647300601005554
59 110 0.9504303932189941
59 111 0.1659589558839798
59 112 0.13396327197551727
59 113 0.9517142176628113
59 114 0.2877919375896454
59 115 0.9511592984199524
59 116 0.9579154849052429
59 117 0.15266002714633942
59 118 0.9268618822097778
59 119 0.9488772749900818
59 120 0.10335133969783783
59 121 0.9164896607398987
59 122 0.9616489410400391
59 123 0.9450944662094116
59 124 0.9455326199531555
59 125 0.9469783306121826
59 126 0.9587854743003845
59 127 0.9517738223075867
59 128 0.9557085037231445
59 129 0.9578561186790466
59 130 0.15622667968273163
59 131 0.8362597823143005
59 132 0.935427725315094
59 133 0.9688180088996887
59 134 0.10335133969783783
59 135 0.9439705014228821
59 136 0.9524333477020264
59 137 0.9427965879440308
59 138 0.950048565864563
59 139 0.9431791305541992
59 140 0.9436255693435669
59 141 0.9571883082389832
59 142 0.9489964842796326
59 143 0.9539900422096252
59 144 0.34322530031204224
59 145 0.9555319547653198
59 146 0.945753276348114
59 147 0.9599428772926331
59 149 0.8353387117385864
59 150 0.9577975273132324
59 151 0.9448004364967346
59 152 0.9515979290008545
59 153 0.9546031951904297
59 154 0.9466487765312195
59 155 0.9572461247444153
59 156 0.9548103213310242
59 157 0.9501083493232727
59 159 0.9516556262969971
59 160 0.19084157049655914
59 161 0.945974588394165
59 162 0.9377435445785522
59 163 0.9434173107147217
59 164 0.23783278465270996
59 165 0.9618697166442871
59 166 0.9538151621818542
59 167 0.9437969326972961
59 168 0.13041473925113678
59 169 0.8772917985916138
59 170 0.9587854743003845
59 171 0.9487618803977966
59 172 0.9414404034614563
59 173 0.14915013313293457
59 174 0.8800235390663147
59 175 0.9522689580917358
59 176 0.940493643283844
59 177 0.9539307951927185
59 178 0.7789667844772339
59 179 0.9565796256065369
59 180 0.948936402797699
59 181 0.9582911729812622
59 182 0.9477052688598633
59 183 0.1668541580438614
59 184 0.9461504220962524
59 185 0.908454179763794
59 186 0.17536963522434235
59 187 0.0738101676106453
59 188 0.9550961256027222
59 189 0.17951515316963196
59 190 0.9527071714401245
59 191 0.9512795805931091
59 192 0.9456528425216675
59 193 0.9578561186790466
59 195 0.9478229284286499
59 196 0.20590800046920776
59 197 0.06509445607662201
59 198 0.169823557138443
59 200 0.6408469080924988
59 201 0.9537587761878967
59 202 0.9494335651397705
59 203 0.9527647495269775
59 204 0.1723262220621109
59 205 0.9527647495269775
59 206 0.9522103071212769
59 207 0.9483798146247864
59 208 0.092631034553051
59 209 0.1786177158355713
59 210 0.11200268566608429
59 211 0.9568126797676086
59 212 0.12605486810207367
59 213 0.9494335651397705
59 214 0.12693637609481812
59 215 0.9494926333427429
59 216 0.9370591640472412
59 217 0.9539307951927185
59 218 0.29660144448280334
59 219 0.09813358634710312
59 220 0.05637345090508461
59 221 0.9566364884376526
59 222 0.9114193320274353
59 223 0.10794694721698761
59 224 0.9543687701225281
59 225 0.11765120923519135
59 226 0.9551516175270081
59 227 0.9531491994857788
59 228 0.1008438915014267
59 229 0.10794694721698761
59 230 0.9291375279426575
59 231 0.9528825283050537
59 232 0.19255200028419495
59 233 0.9454739689826965
59 234 0.16273613274097443
59 235 0.9528825283050537
59 236 0.9334959387779236
59 237 0.961042582988739
59 238 0.07277781516313553
59 239 0.19630806148052216
59 240 0.9459178447723389
59 241 0.956142246723175
59 242 0.954484224319458
59 243 0.08832022547721863
59 244 0.9450944662094116
59 245 0.9404340982437134
59 247 0.9434173107147217
59 248 0.9523887038230896
59 249 0.07972410321235657
59 250 0.9584071040153503
59 251 0.23243369162082672
59 252 0.9471479654312134
59 253 0.17260774970054626
59 254 0.9467082619667053
59 255 0.9595082998275757
60 61 0.9620386362075806
60 62 0.9467566609382629
60 63 0.9577497839927673
60 64 0.12580862641334534
60 65 0.20911270380020142
60 66 0.957207202911377
60 67 0.9653544425964355
60 69 0.962120532989502
60 70 0.1676178127527237
60 72 0.9636573195457458
60 73 0.9651960134506226
60 75 0.9575915932655334
60 76 0.9479368925094604
60 77 0.951177179813385
60 78 0.9658514261245728
60 79 0.949496328830719
60 80 0.18247918784618378
60 81 0.09677419811487198
60 82 0.15815816819667816
60 83 0.9636975526809692
60 84 0.9554569721221924
60 85 0.9527340531349182
60 86 0.15144695341587067
60 87 0.07140626758337021
60 88 0.9642365574836731
60 89 0.27240148186683655
60 90 0.19361911714076996
60 91 0.19361911714076996
60 92 0.9440934062004089
60 93 0.9561212062835693
60 94 0.962120532989502
60 95 0.15312674641609192
60 96 0.9538241624832153
60 97 0.9680412411689758
60 98 0.06451612710952759
60 99 0.9658514261245728
60 100 0.957207202911377
60 101 0.962618887424469
60 102 0.9674237966537476
60 103 0.12903225421905518
60 104 0.9323811531066895
60 105 0.967384934425354
60 106 0.9570116996765137
60 107 0.9517232179641724
60 108 0.882154107093811
60 110 0.9587142467498779
60 111 0.16448450088500977
60 112 0.15490193665027618
60 113 0.9640814065933228
60 114 0.2991490066051483
60 115 0.9635422229766846
60 116 0.9690335988998413
60 117 0.1513037383556366
60 118 0.9399906992912292
60 119 0.9582111239433289
60 120 0.11174521595239639
60 121 0.9267085194587708
60 122 0.9685777425765991
60 123 0.9576296806335449
60 124 0.9539041519165039
60 125 0.9543302655220032
60 126 0.9658114314079285
60 127 0.9620386362075806
60 128 0.9648162722587585
60 129 0.966926634311676
60 130 0.16129031777381897
60 131 0.837142288684845
60 132 0.944050669670105
60 133 0.976589560508728
60 134 0.11174521595239639
60 135 0.9472257494926453
60 136 0.9565439224243164
60 137 0.9501690864562988
60 138 0.96037757396698
60 139 0.9516426920890808
60 140 0.9468402862548828
60 141 0.9642365574836731
60 142 0.9582920074462891
60 143 0.9641962647438049
60 144 0.3519061505794525
60 145 0.962618887424469
60 146 0.9478946924209595
60 147 0.967960774898529
60 149 0.850357174873352
60 150 0.9658514261245728
60 151 0.9521884918212891
60 152 0.9598363637924194
60 153 0.9637388586997986
60 154 0.952898383140564
60 155 0.9653134942054749
60 156 0.9609183073043823
60 157 0.9614588618278503
60 159 0.9609183073043823
60 160 0.1891460418701172
60 161 0.9512190222740173
60 162 0.9473465085029602
60 163 0.9549524188041687
60 164 0.2519763112068176
60 165 0.9636975526809692
60 166 0.9609580039978027
60 167 0.951177179813385
60 168 0.12925608456134796
60 169 0.8763619661331177
60 170 0.9689202904701233
60 171 0.9560397863388062
60 172 0.9457424283027649
60 173 0.11966788023710251
60 174 0.8812669515609741
60 175 0.9614984393119812
60 176 0.9479368925094604
60 177 0.9620791673660278
60 178 0.777150571346283
60 179 0.9615805149078369
60 180 0.959294855594635
60 181 0.9653134942054749
60 182 0.9570869207382202
60 183 0.1767766922712326
60 184 0.9534433484077454
60 185 0.9210440516471863
60 186 0.16222414374351501
60 187 0.07315441220998764
60 188 0.9642365574836731
60 189 0.18838617205619812
60 190 0.9588338732719421
60 191 0.9615389704704285
60 192 0.9581721425056458
60 193 0.9689948558807373
60 195 0.9603009819984436
60 196 0.1891460418701172
60 197 0.06451612710952759
60 198 0.19381701946258545
60 200 0.641442060470581
60 201 0.9588338732719421
60 202 0.9577087163925171
60 203 0.963040292263031
60 204 0.15312674641609192
60 205 0.9588757753372192
60 206 0.9614588618278503
60 207 0.9566643834114075
60 208 0.0816071629524231
60 209 0.1770308017730713
60 210 0.14060963690280914
60 211 0.9658924341201782
60 212 0.12493494898080826
60 213 0.9566643834114075
60 214 0.14060963690280914
60 215 0.958793044090271
60 216 0.9446007609367371
60 217 0.9620791673660278
60 218 0.2905079126358032
60 219 0.09726172685623169
60 221 0.9636975526809692
60 222 0.9217349886894226
60 223 0.09726172685623169
60 224 0.9594172835350037
60 225 0.12493494898080826
60 226 0.9560800194740295
60 227 0.957207202911377
60 228 0.11660595238208771
60 229 0.09726172685623169
60 230 0.9464628100395203
60 231 0.9662349820137024
60 232 0.17993606626987457
60 233 0.9528142809867859
60 234 0.1483871042728424
60 235 0.9641570448875427
60 236 0.9443665146827698
60 237 0.9690335988998413
60 238 0.05770498141646385
60 239 0.24221228063106537
60 240 0.9501261711120605
60 241 0.9642365574836731
60 242 0.962618887424469
60 243 0.09726172685623169
60 244 0.9565830826759338
60 245 0.9457858800888062
60 246 0.06451612710952759
60 247 0.9539041519165039
60 248 0.9646956920623779
60 249 0.07901579141616821
60 250 0.9684972763061523
60 251 0.21230053901672363
60 252 0.9534008502960205
60 253 0.1824791580438614
60 254 0.9550339579582214
60 255 0.9695696234703064
61 62 0.9452083110809326
61 63 0.9582945704460144
61 64 0.12574322521686554
61 65 0.19928286969661713
61 66 0.9608827829360962
61 67 0.9658867120742798
61 69 0.9647324085235596
61 70 0.1613258272409439
61 72 0.9693835973739624
61 73 0.9636557698249817
61 74 0.06448258459568024
61 75 0.9539523124694824
61 76 0.9484966993331909
61 77 0.9527837038040161
61 78 0.9715573191642761
61 79 0.9584822058677673
61 80 0.22342076897621155
61 81 0.09672388434410095
61 82 0.1580759435892105
61 83 0.9631965160369873
61 84 0.9518154263496399
61 85 0.9522386789321899
61 86 0.15136821568012238
61 87 0.07136914879083633
61 88 0.9647715091705322
61 89 0.27225980162620544
61 90 0.17259752750396729
61 91 0.19874867796897888
61 92 0.9520557522773743
61 93 0.9587572813034058
61 94 0.9647324085235596
61 95 0.17659282684326172
61 96 0.9585778713226318
61 97 0.9747583866119385
61 98 0.06448258459568024
61 99 0.9684532880783081
61 100 0.9598394632339478
61 101 0.9631562829017639
61 102 0.9689891338348389
61 103 0.12896516919136047
61 104 0.9340386986732483
61 105 0.9658467173576355
61 106 0.9533677101135254
61 107 0.9522783756256104
61 108 0.874851644039154
61 110 0.9592607021331787
61 111 0.14542987942695618
61 112 0.16588008403778076
61 113 0.9604583382606506
61 114 0.2850867807865143
61 115 0.9588767886161804
61 116 0.9716274738311768
61 117 0.1374773383140564
61 118 0.9352315664291382
61 119 0.9577129483222961
61 120 0.11168711632490158
61 121 0.9327038526535034
61 122 0.9701360464096069
61 123 0.9539936780929565
61 124 0.9544559121131897
61 125 0.9527837038040161
61 126 0.9673807621002197
61 127 0.9615384936332703
61 128 0.9674186110496521
61 129 0.9695246815681458
61 130 0.15475820004940033
61 131 0.8497619032859802
61 132 0.9467332363128662
61 133 0.97915118932724
61 134 0.08376534283161163
61 135 0.9467332363128662
61 136 0.9570937156677246
61 137 0.95702064037323
61 138 0.9577937722206116
61 139 0.9490436911582947
61 140 0.9547786712646484
61 141 0.9637352228164673
61 142 0.9609203934669495
61 143 0.9636949896812439
61 144 0.34586113691329956
61 145 0.9641941785812378
61 146 0.950563371181488
61 147 0.9674574732780457
61 149 0.8581781983375549
61 150 0.9674186110496521
61 151 0.9611578583717346
61 152 0.961422860622406
61 153 0.9673807621002197
61 154 0.9586825966835022
61 155 0.9648115634918213
61 156 0.965627133846283
61 157 0.9588767886161804
61 159 0.9625020623207092
61 160 0.19899757206439972
61 161 0.9601686596870422
61 162 0.9457994699478149
61 163 0.9555035829544067
61 164 0.227473184466362
61 165 0.967343807220459
61 166 0.9604583382606506
61 167 0.9517331719398499
61 168 0.1367882341146469
61 169 0.8896281719207764
61 170 0.9663450121879578
61 171 0.9544962048530579
61 172 0.9494706392288208
61 173 0.1477481573820114
61 174 0.8977909088134766
61 175 0.9620386362075806
61 176 0.9506021738052368
61 177 0.9636557698249817
61 178 0.7856746315956116
61 179 0.9683457016944885
61 180 0.9587961435317993
61 181 0.9668819308280945
61 182 0.9565893411636353
61 183 0.13678821921348572
61 184 0.9550396800041199
61 185 0.9194782376289368
61 186 0.1563490927219391
61 187 0.0853024423122406
61 188 0.9647715091705322
61 189 0.17259752750396729
61 190 0.9625020623207092
61 191 0.961039125919342
61 192 0.9566284418106079
61 193 0.9664239287376404
61 195 0.9577129483222961
61 196 0.20894746482372284
61 198 0.15803168714046478
61 200 0.6426798701286316
61 201 0.9677104353904724
61 202 0.9572108387947083
61 203 0.9604583382606506
61 204 0.17659282684326172
61 205 0.9646207094192505
61 206 0.9620001316070557
61 207 0.9561669826507568
61 208 0.10195592790842056
61 209 0.1769387573003769
61 210 0.13313987851142883
61 211 0.9705583453178406
61 212 0.11654532700777054
61 213 0.9572108387947083
61 214 0.11834655702114105
61 215 0.9572518467903137
61 216 0.9589109420776367
61 217 0.9657326340675354
61 218 0.29727014899253845
61 219 0.06804780662059784
61 220 0.05584355816245079
61 221 0.9683805704116821
61 222 0.9234208464622498
61 223 0.08749004453420639
61 224 0.9620386362075806
61 225 0.08324666321277618
61 226 0.9597648978233337
61 227 0.9629693627357483
61 228 0.09157133102416992
61 229 0.06804780662059784
61 230 0.9395789504051208
61 231 0.9615789651870728
61 232 0.17439274489879608
61 233 0.9523189067840576
61 234 0.12896518409252167
61 235 0.9636557698249817
61 236 0.9438755512237549
61 237 0.9695624113082886
61 238 0.07209372520446777
61 239 0.2381177395582199
61 240 0.9601370096206665
61 241 0.9647715091705322
61 242 0.9652321338653564
61 243 0.09721115976572037
61 244 0.9581778645515442
61 245 0.950563371181488
61 246 0.06448258459568024
61 247 0.9534081220626831
61 248 0.9621184468269348
61 249 0.06581226736307144
61 250 0.9710930585861206
61 251 0.2212195247411728
61 252 0.9549994468688965
61 253 0.15388675034046173
61 254 0.957673966884613
61 255 0.9690655469894409
62 63 0.9471104145050049
62 64 0.1277509480714798
62 65 0.1728358119726181
62 66 0.9454862475395203
62 67 0.9518907070159912
62 69 0.9495728015899658
62 70 0.15129388868808746
62 72 0.9490102529525757
62 73 0.9473923444747925
62 75 0.9447150826454163
62 76 0.93369460105896
62 77 0.9402481913566589
62 78 0.9576367139816284
62 79 0.9438235759735107
62 80 0.20382606983184814
62 81 0.08734957128763199
62 82 0.15417593717575073
62 83 0.9490816593170166
62 84 0.9510381817817688
62 85 0.93434077501297
62 86 0.1537851095199585
62 87 0.10358384996652603
62 88 0.949644148349762
62 89 0.26568830013275146
62 90 0.1859808713197708
62 91 0.1594121754169464
62 92 0.9275363683700562
62 93 0.9507220983505249
62 94 0.9516806602478027
62 95 0.17941249907016754
62 96 0.9376161694526672
62 97 0.9546917676925659
62 99 0.9513295292854309
62 100 0.9433663487434387
62 101 0.9500646591186523
62 102 0.9539920091629028
62 103 0.1310243457555771
62 104 0.9152167439460754
62 105 0.9497164487838745
62 106 0.9419511556625366
62 107 0.9386828541755676
62 108 0.8702791929244995
62 110 0.9448515176773071
62 111 0.16059993207454681
62 112 0.18538153171539307
62 113 0.9514784216880798
62 114 0.27904221415519714
62 115 0.9562053084373474
62 116 0.957768440246582
62 117 0.15363967418670654
62 118 0.9187091588973999
62 119 0.9422335624694824
62 120 0.1040145605802536
62 121 0.9092099070549011
62 122 0.9531559944152832
62 123 0.9415946006774902
62 124 0.9409559965133667
62 125 0.9370464086532593
62 126 0.9544154405593872
62 127 0.9462644457817078
62 128 0.9565854668617249
62 129 0.9545517563819885
62 130 0.13757558166980743
62 131 0.8331859111785889
62 132 0.939281165599823
62 133 0.9625613689422607
62 134 0.1134704202413559
62 135 0.9296090006828308
62 136 0.9404596090316772
62 137 0.9435160756111145
62 138 0.9444977641105652
62 139 0.9331973195075989
62 140 0.9346916675567627
62 141 0.9517498016357422
62 142 0.9466155171394348
62 143 0.9590579867362976
62 144 0.3484056890010834
62 145 0.9458468556404114
62 146 0.9336209893226624
62 147 0.9503512978553772
62 149 0.8490942120552063
62 150 0.9502783417701721
62 151 0.931632399559021
62 152 0.9418134093284607
62 153 0.9512585401535034
62 154 0.9442172050476074
62 155 0.9518198370933533
62 156 0.9471795558929443
62 157 0.9445701241493225
62 159 0.9450629949569702
62 160 0.12635935842990875
62 161 0.940317690372467
62 162 0.9351913332939148
62 163 0.9420204162597656
62 164 0.24348589777946472
62 165 0.9480282664299011
62 166 0.9504212141036987
62 167 0.9338446855545044
62 168 0.12353094667196274
62 169 0.8620101809501648
62 170 0.9533631205558777
62 171 0.9410272836685181
62 172 0.9410508871078491
62 173 0.13581132888793945
62 174 0.8672671914100647
62 175 0.9488699436187744
62 176 0.93369460105896
62 177 0.9484473466873169
62 178 0.7761906981468201
62 179 0.9511191844940186
62 180 0.9433663487434387
62 181 0.952871561050415
62 182 0.9410272836685181
62 183 0.15634384751319885
62 184 0.940531849861145
62 185 0.9087627530097961
62 186 0.1764950156211853
62 187 0.08666446805000305
62 188 0.9528025984764099
62 189 0.20192210376262665
62 190 0.9440045952796936
62 191 0.9447174072265625
62 192 0.940037190914154
62 193 0.9598023295402527
62 195 0.9475389122962952
62 196 0.18701183795928955
62 198 0.20716769993305206
62 200 0.6321879029273987
62 201 0.9450629949569702
62 202 0.9396185278892517
62 203 0.9440780282020569
62 204 0.13754957914352417
62 205 0.9461923837661743
62 206 0.9424545764923096
62 207 0.9417396187782288
62 208 0.07250869274139404
62 209 0.17976392805576324
62 210 0.13526570796966553
62 211 0.9524515867233276
62 212 0.12686379253864288
62 213 0.9470421671867371
62 214 0.1277509480714798
62 215 0.9460510611534119
62 216 0.9280349016189575
62 217 0.9473923444747925
62 218 0.24582748115062714
62 219 0.108639657497406
62 220 0.05673521012067795
62 221 0.9480282664299011
62 222 0.9128687381744385
62 223 0.108639657497406
62 224 0.9488699436187744
62 225 0.10994861274957657
62 226 0.9464102983474731
62 227 0.9412464499473572
62 228 0.10149102658033371
62 229 0.108639657497406
62 230 0.9177833199501038
62 231 0.953722357749939
62 232 0.1882508546113968
62 233 0.9398200511932373
62 234 0.1572292149066925
62 235 0.9473923444747925
62 236 0.9286752343177795
62 237 0.957768440246582
62 238 0.0732448473572731
62 239 0.2540157437324524
62 240 0.9381137490272522
62 241 0.949644148349762
62 242 0.9553369283676147
62 243 0.08888699114322662
62 244 0.9437201023101807
62 245 0.9336209893226624
62 247 0.9430848360061646
62 248 0.9490102529525757
62 249 0.08023570477962494
62 250 0.9603590965270996
62 251 0.22475172579288483
62 252 0.9479066133499146
62 253 0.17371538281440735
62 254 0.940037190914154
62 255 0.9551807045936584
63 64 0.14097686111927032
63 65 0.21453462541103363
63 66 0.9555208086967468
63 67 0.9658008813858032
63 69 0.9615114331245422
63 70 0.14938272535800934
63 72 0.9609683752059937
63 73 0.9593833684921265
63 74 0.06468462198972702
63 75 0.9537899494171143
63 76 0.9483005404472351
63 77 0.9589301943778992
63 78 0.9652601480484009
63 79 0.9509195685386658
63 80 0.21954688429832458
63 81 0.07546538859605789
63 82 0.13954268395900726
63 83 0.9630942940711975
63 84 0.9505914449691772
63 85 0.952059268951416
63 86 0.13863877952098846
63 87 0.10227537155151367
63 88 0.9625967144966125
63 89 0.2838936150074005
63 90 0.19412477314472198
63 91 0.1836315393447876
63 92 0.9433790445327759
63 93 0.9544275999069214
63 94 0.9635926485061646
63 95 0.17124126851558685
63 96 0.947889506816864
63 97 0.9664305448532104
63 99 0.9631842970848083
63 100 0.9534277319908142
63 101 0.9661740660667419
63 102 0.9637261033058167
63 103 0.12936924397945404
63 104 0.9326671361923218
63 105 0.9657576084136963
63 106 0.950042188167572
63 107 0.9510491490364075
63 108 0.8787369132041931
63 110 0.9528323411941528
63 111 0.13319984078407288
63 112 0.1774931401014328
63 113 0.9624238014221191
63 114 0.282492458820343
63 115 0.9618811011314392
63 116 0.9643139243125916
63 117 0.1310126781463623
63 118 0.9328069686889648
63 119 0.9554752707481384
63 120 0.1120370551943779
63 121 0.9226313829421997
63 122 0.9669705629348755
63 123 0.9538347721099854
63 124 0.9563953280448914
63 125 0.9515538811683655
63 126 0.9652168154716492
63 127 0.9593372941017151
63 128 0.9631842970848083
63 129 0.9642676711082458
63 130 0.16171155869960785
63 131 0.8417096138000488
63 132 0.9486384987831116
63 133 0.9750346541404724
63 134 0.10270064324140549
63 135 0.9422718286514282
63 136 0.9558907747268677
63 137 0.9505453109741211
63 138 0.9576583504676819
63 139 0.9456844925880432
63 140 0.9471988081932068
63 141 0.964675784111023
63 142 0.9576583504676819
63 143 0.9615114331245422
63 144 0.3440046012401581
63 145 0.9620094895362854
63 146 0.9493131041526794
63 147 0.9632307291030884
63 149 0.8454732298851013
63 150 0.9642221927642822
63 151 0.9536204934120178
63 152 0.9550209641456604
63 153 0.9672948122024536
63 154 0.9511874914169312
63 155 0.962642252445221
63 156 0.956113338470459
63 157 0.956659197807312
63 159 0.9613379836082458
63 160 0.18964003026485443
63 161 0.9484399557113647
63 162 0.9424166679382324
63 163 0.954293429851532
63 164 0.2363353967666626
63 165 0.9610141515731812
63 166 0.9582484364509583
63 167 0.9494462609291077
63 168 0.13721680641174316
63 169 0.8706213235855103
63 170 0.9620998501777649
63 171 0.9511874914169312
63 172 0.9439793229103088
63 173 0.14115342497825623
63 174 0.8858398795127869
63 175 0.9608796834945679
63 176 0.9514685273170471
63 177 0.9593833684921265
63 178 0.7855773568153381
63 179 0.9630506634712219
63 180 0.9555208086967468
63 181 0.9616038203239441
63 182 0.9522374272346497
63 183 0.16580364108085632
63 184 0.9569827318191528
63 185 0.9169079065322876
63 186 0.18007436394691467
63 187 0.07334546744823456
63 188 0.9625967144966125
63 189 0.1888781636953354
63 190 0.9582032561302185
63 191 0.9609235525131226
63 192 0.9533331394195557
63 193 0.9663413166999817
63 195 0.9544275999069214
63 196 0.19463054835796356
63 198 0.19432319700717926
63 200 0.6289308071136475
63 201 0.9571583271026611
63 202 0.954974353313446
63 203 0.9582484364509583
63 204 0.17124126851558685
63 205 0.9582484364509583
63 206 0.9577035307884216
63 207 0.954974353313446
63 208 0.10227537155151367
63 209 0.16085314750671387
63 210 0.11871735751628876
63 211 0.9653044939041138
63 212 0.11691047996282578
63 213 0.954974353313446
63 214 0.1335570365190506
63 215 0.9581590294837952
63 216 0.9417650103569031
63 217 0.9614666700363159
63 218 0.2669944167137146
63 219 0.09751573950052261
63 220 0.05601852759718895
63 221 0.9630942940711975
63 222 0.9230562448501587
63 223 0.09751573950052261
63 224 0.958793044090271
63 225 0.11691047996282578
63 226 0.9554306864738464
63 227 0.9544742703437805
63 228 0.11691047996282578
63 229 0.10726731270551682
63 230 0.9371798038482666
63 231 0.9593833684921265
63 232 0.18040598928928375
63 233 0.9521463513374329
63 234 0.14230617880821228
63 235 0.9604250192642212
63 236 0.9382932782173157
63 237 0.9663854837417603
63 238 0.05785568431019783
63 239 0.25876912474632263
63 240 0.9494462609291077
63 241 0.9625967144966125
63 242 0.9609683752059937
63 243 0.09751573950052261
63 244 0.9559334516525269
63 245 0.9461416602134705
63 246 0.06468462198972702
63 247 0.9532424211502075
63 248 0.9588861465454102
63 249 0.0660184696316719
63 250 0.9679177403450012
63 251 0.19926850497722626
63 252 0.9506386518478394
63 253 0.17723838984966278
63 254 0.9575282335281372
63 255 0.9648550152778625
64 66 0.13362693786621094
64 67 0.13245323300361633
64 69 0.12548260390758514
64 72 0.1403179168701172
64 73 0.14039067924022675
64 75 0.1266683042049408
64 76 0.1423230916261673
64 77 0.1420205980539322
64 78 0.13988372683525085
64 79 0.14239902794361115
64 83 0.14017273485660553
64 84 0.13426107168197632
64 85 0.13461731374263763
64 88 0.14010031521320343
64 91 0.07443229109048843
64 92 0.1428571343421936
64 93 0.12633557617664337
64 94 0.13286393880844116
64 96 0.11953286826610565
64 97 0.13945353031158447
64 99 0.13252142071723938
64 100 0.13362693786621094
64 101 0.13293276727199554
64 102 0.1250947266817093
64 104 0.13719289004802704
64 105 0.1399558037519455
64 106 0.12686920166015625
64 107 0.1344744712114334
64 108 0.12174218147993088
64 110 0.13383732736110687
64 113 0.11846978217363358
64 115 0.12593974173069
64 116 0.13224931061267853
64 118 0.12914413213729858
64 119 0.13376706838607788
64 121 0.122902512550354
64 122 0.10270269215106964
64 123 0.1414213478565216
64 124 0.1267351657152176
64 125 0.1420205980539322
64 126 0.11791832745075226
64 127 0.13313987851142883
64 128 0.13988372683525085
64 129 0.13973988592624664
64 131 0.08444909751415253
64 132 0.1279570609331131
64 133 0.13104519248008728
64 135 0.13548395037651062
64 136 0.1266683042049408
64 137 0.14187008142471313
64 138 0.1260712742805481
64 139 0.13476060330867767
64 140 0.1349763721227646
64 141 0.14010031521320343
64 142 0.11865531653165817
64 143 0.13286393880844116
64 144 0.06256792694330215
64 145 0.1403179168701172
64 146 0.12747769057750702
64 147 0.13973988592624664
64 149 0.10079407691955566
64 150 0.13988372683525085
64 151 0.13468889892101288
64 152 0.1335570365190506
64 153 0.14002801477909088
64 154 0.1340487003326416
64 155 0.1399558037519455
64 156 0.12600545585155487
64 157 0.14075618982315063
64 159 0.133417546749115
64 160 0.07079923152923584
64 161 0.13440322875976562
64 162 0.11254044622182846
64 163 0.14164519309997559
64 165 0.11066268384456635
64 166 0.1406828761100769
64 167 0.1270710676908493
64 169 0.12204805761575699
64 170 0.13265812397003174
64 171 0.12660154700279236
64 172 0.13512082397937775
64 173 0.05006261542439461
64 174 0.08861464262008667
64 175 0.14060963690280914
64 176 0.13483241200447083
64 177 0.14039067924022675
64 178 0.13613317906856537
64 179 0.1255476027727127
64 180 0.14105066657066345
64 181 0.11785752326250076
64 182 0.11170724779367447
64 184 0.1414213478565216
64 185 0.13147124648094177
64 186 0.12361283600330353
64 187 0.08671099692583084
64 188 0.14010031521320343
64 190 0.133417546749115
64 191 0.14046356081962585
64 192 0.1413469761610031
64 193 0.13973988592624664
64 195 0.13376706838607788
64 201 0.14082962274551392
64 202 0.14112456142902374
64 203 0.1406828761100769
64 204 0.08377078175544739
64 205 0.1332785040140152
64 206 0.13334797322750092
64 207 0.12626934051513672
64 211 0.13238516449928284
64 213 0.13369695842266083
64 215 0.11129752546548843
64 216 0.1354110836982727
64 217 0.14039067924022675
64 220 0.13245323300361633
64 221 0.13279521465301514
64 222 0.13865448534488678
64 224 0.14060963690280914
64 226 0.13390766084194183
64 227 0.1187795028090477
64 230 0.13644196093082428
64 231 0.14039067924022675
64 232 0.11633500456809998
64 233 0.1343320906162262
64 235 0.14039067924022675
64 236 0.13629326224327087
64 237 0.13959649205207825
64 239 0.05647824704647064
64 240 0.13454583287239075
64 241 0.13272660970687866
64 242 0.1403179168701172
64 244 0.10420520603656769
64 245 0.12747769057750702
64 247 0.14164519309997559
64 248 0.13293276727199554
64 250 0.1323171705007553
64 252 0.13411937654018402
64 253 0.1216660588979721
64 254 0.1413469761610031
64 255 0.13952495157718658
65 66 0.19513356685638428
65 67 0.2030906081199646
65 69 0.17461742460727692
65 70 0.11605177074670792
65 71 0.10660035163164139
65 72 0.1941198706626892
65 73 0.19907602667808533
65 74 0.15075567364692688
65 75 0.2007489800453186
65 76 0.16735981404781342
65 77 0.20138728618621826
65 78 0.19351918995380402
65 79 0.2019238919019699
65 80 0.06396020948886871
65 81 0.10050377994775772
65 83 0.19391903281211853
65 84 0.18625660240650177
65 85 0.2014942765235901
65 86 0.15386436879634857
65 88 0.18412789702415466
65 89 0.08375315368175507
65 92 0.2025735080242157
65 93 0.18557129800319672
65 94 0.2037203311920166
65 95 0.05504818633198738
65 96 0.17182479798793793
65 97 0.2073933482170105
65 98 0.07537783682346344
65 99 0.19835714995861053
65 100 0.20001189410686493
65 101 0.20382586121559143
65 102 0.19341962039470673
65 103 0.22613349556922913
65 104 0.2053493857383728
65 105 0.21298080682754517
65 106 0.17164286971092224
65 107 0.20128047466278076
65 108 0.17066727578639984
65 110 0.20032678544521332
65 111 0.08869685977697372
65 112 0.07756315171718597
65 113 0.19462473690509796
65 114 0.09753841161727905
65 115 0.19472618401050568
65 116 0.17380964756011963
65 117 0.06428243219852448
65 118 0.19968076050281525
65 119 0.2099885791540146
65 120 0.17407765984535217
65 121 0.17162089049816132
65 122 0.2024666666984558
65 123 0.21521103382110596
65 124 0.2057538479566574
65 125 0.19156351685523987
65 126 0.18887582421302795
65 127 0.2090039849281311
65 128 0.15965332090854645
65 129 0.20781920850276947
65 131 0.09988907724618912
65 132 0.1928991824388504
65 133 0.20093165338039398
65 134 0.13055823743343353
65 135 0.21762986481189728
65 136 0.2007489800453186
65 137 0.18645381927490234
65 138 0.19005630910396576
65 139 0.21154819428920746
65 140 0.20203173160552979
65 141 0.21320073306560516
65 142 0.19980280101299286
65 143 0.19886983931064606
65 144 0.13705061376094818
65 145 0.20867885649204254
65 146 0.20203173160552979
65 147 0.19332019984722137
65 148 0.15075567364692688
65 149 0.2097431719303131
65 150 0.21287110447883606
65 151 0.21143563091754913
65 152 0.18527990579605103
65 153 0.20824770629405975
65 154 0.20553691685199738
65 155 0.19845938682556152
65 156 0.20456917583942413
65 157 0.19959433376789093
65 159 0.18995708227157593
65 161 0.16682709753513336
65 162 0.1774885654449463
65 163 0.2057538479566574
65 165 0.19876699149608612
65 166 0.19462473690509796
65 167 0.21121105551719666
65 168 0.2842676043510437
65 169 0.2031766027212143
65 170 0.17918989062309265
65 171 0.1908556967973709
65 172 0.17758354544639587
65 173 0.09869274497032166
65 174 0.20645613968372345
65 175 0.20424962043762207
65 176 0.19689390063285828
65 177 0.19907602667808533
65 178 0.1968054473400116
65 179 0.21353185176849365
65 180 0.17074185609817505
65 181 0.16457608342170715
65 182 0.18596196174621582
65 183 0.07995026558637619
65 184 0.19564639031887054
65 185 0.213442862033844
65 188 0.18412789702415466
65 189 0.14673477411270142
65 190 0.19969847798347473
65 191 0.20889542996883392
65 192 0.21020926535129547
65 193 0.19815319776535034
65 194 0.15075567364692688
65 195 0.19533821940422058
65 196 0.11631052196025848
65 197 0.07537783682346344
65 200 0.0808212012052536
65 201 0.19482778012752533
65 202 0.20499759912490845
65 203 0.19949035346508026
65 205 0.20435598492622375
65 206 0.20933063328266144
65 207 0.19523580372333527
65 208 0.28603875637054443
65 209 0.05170876905322075
65 210 0.06917144358158112
65 211 0.20781920850276947
65 213 0.19523580372333527
65 214 0.10375715792179108
65 215 0.18527990579605103
65 216 0.19279544055461884
65 217 0.17479847371578217
65 220 0.08703882992267609
65 221 0.2084629386663437
65 222 0.20247520506381989
65 224 0.17993417382240295
65 225 0.07784989476203918
65 226 0.1906549036502838
65 227 0.19025522470474243
65 228 0.15569978952407837
65 230 0.19426319003105164
65 231 0.19422052800655365
65 232 0.17837652564048767
65 233 0.20597144961357117
65 235 0.19422052800655365
65 236 0.1990271508693695
65 237 0.1979498565196991
65 240 0.1620922088623047
65 241 0.20350979268550873
65 242 0.19897285103797913
65 244 0.19564639031887054
65 245 0.20695935189723969
65 246 0.22613349556922913
65 247 0.2057538479566574
65 248 0.19897285103797913
65 250 0.19322094321250916
65 252 0.17137107253074646
65 253 0.13325044512748718
65 254 0.20043207705020905
65 255 0.17854613065719604
66 67 0.962154746055603
66 69 0.9682616591453552
66 70 0.16814354062080383
66 72 0.9614713191986084
66 73 0.9619699716567993
66 74 0.06471847742795944
66 75 0.9542891383171082
66 76 0.9445706009864807
66 77 0.9467803239822388
66 78 0.9668039083480835
66 79 0.9514172673225403
66 80 0.21966180205345154
66 81 0.08629130572080612
66 82 0.14596189558506012
66 83 0.9604765772819519
66 84 0.9489848613739014
66 85 0.9462282657623291
66 86 0.14531666040420532
66 87 0.10232890397310257
66 88 0.9610204100608826
66 89 0.26246941089630127
66 90 0.1837276667356491
66 91 0.16797958314418793
66 92 0.94387286901474
66 93 0.959119975566864
66 94 0.9599325060844421
66 95 0.1654229313135147
66 96 0.9483855962753296
66 97 0.9659010767936707
66 98 0.06471847742795944
66 99 0.9647269248962402
66 100 0.9539267420768738
66 101 0.959388017654419
66 102 0.962154746055603
66 103 0.10516752302646637
66 104 0.9288550615310669
66 105 0.9610681533813477
66 106 0.9515921473503113
66 107 0.9526006579399109
66 108 0.8734729290008545
66 110 0.9554286003112793
66 111 0.15230806171894073
66 112 0.18313559889793396
66 113 0.9639719724655151
66 114 0.27566152811050415
66 115 0.9602946639060974
66 116 0.9648186564445496
66 117 0.13798026740550995
66 118 0.9365097284317017
66 119 0.9538789391517639
66 120 0.11209569126367569
66 121 0.9187804460525513
66 122 0.9685114026069641
66 123 0.9501345157623291
66 124 0.9484837055206299
66 125 0.9467803239822388
66 126 0.9636430144309998
66 127 0.9598394632339478
66 128 0.9636884927749634
66 129 0.9658097624778748
66 130 0.12296511977910995
66 131 0.8373854756355286
66 132 0.9459499716758728
66 133 0.9734911918640137
66 134 0.08407177031040192
66 135 0.9385182857513428
66 136 0.9542891383171082
66 137 0.948936402797699
66 138 0.9592055678367615
66 139 0.9535715579986572
66 140 0.9476945400238037
66 141 0.9651806950569153
66 142 0.9612976312637329
66 143 0.9630559086799622
66 144 0.34124287962913513
66 145 0.9583463072776794
66 146 0.9434637427330017
66 147 0.9658097624778748
66 149 0.8352530002593994
66 150 0.9636884927749634
66 151 0.946731448173523
66 152 0.9555208086967468
66 153 0.9626034498214722
66 154 0.9527358412742615
66 155 0.9610681533813477
66 156 0.9587048292160034
66 157 0.9550700187683105
66 159 0.9576593637466431
66 160 0.19972556829452515
66 161 0.95420241355896
66 162 0.9492594599723816
66 163 0.9495352506637573
66 164 0.24053598940372467
66 165 0.9604765772819519
66 166 0.9597944021224976
66 167 0.9467803239822388
66 168 0.1372886300086975
66 169 0.8722246289253235
66 170 0.9615639448165894
66 171 0.9495845437049866
66 172 0.9465910792350769
66 173 0.14122730493545532
66 174 0.8817583918571472
66 175 0.957207202911377
66 176 0.9477402567863464
66 177 0.9619699716567993
66 178 0.7744675874710083
66 179 0.9635547399520874
66 180 0.9539267420768738
66 181 0.9662631154060364
66 182 0.9527358412742615
66 183 0.17733114957809448
66 184 0.9532841444015503
66 185 0.9162969589233398
66 186 0.16273294389247894
66 187 0.08561450242996216
66 188 0.9610204100608826
66 189 0.19422638416290283
66 190 0.9587048292160034
66 191 0.9614264965057373
66 192 0.9538321495056152
66 193 0.9699593186378479
66 195 0.9538789391517639
66 196 0.17975300550460815
66 198 0.17395912110805511
66 200 0.6308371424674988
66 201 0.9555683732032776
66 202 0.9533788561820984
66 203 0.960838794708252
66 204 0.1476990431547165
66 205 0.9639719724655151
66 206 0.9582048654556274
66 207 0.9565218687057495
66 208 0.0920960083603859
66 209 0.18313559889793396
66 210 0.13362693786621094
66 211 0.9626975655555725
66 212 0.11697167903184891
66 213 0.9596649408340454
66 214 0.08908462524414062
66 215 0.9534277319908142
66 216 0.9465023279190063
66 217 0.9598855376243591
66 218 0.287949800491333
66 219 0.09756678342819214
66 220 0.056047845631837845
66 221 0.9615171551704407
66 222 0.9213663935661316
66 223 0.09756678342819214
66 224 0.9624264240264893
66 225 0.10861656069755554
66 226 0.9538321495056152
66 227 0.9539267420768738
66 228 0.12532679736614227
66 229 0.10732346028089523
66 230 0.9344627261161804
66 231 0.9598855376243591
66 232 0.1640913039445877
66 233 0.9515921473503113
66 234 0.1617961972951889
66 235 0.9598855376243591
66 236 0.9387843608856201
66 237 0.9668912887573242
66 238 0.07235746085643768
66 239 0.23898883163928986
66 240 0.9478346109390259
66 241 0.9620605111122131
66 242 0.9614713191986084
66 243 0.07805342227220535
66 244 0.9543339610099792
66 245 0.948752224445343
66 247 0.9516382813453674
66 248 0.9614713191986084
66 249 0.07926362752914429
66 250 0.9663506746292114
66 251 0.22202880680561066
66 252 0.9553401470184326
66 253 0.1372886300086975
66 254 0.9538321495056152
66 255 0.9663957953453064
67 69 0.9700769186019897
67 70 0.1358024775981903
67 72 0.9695468544960022
67 73 0.9679834842681885
67 75 0.9615334272384644
67 76 0.9551252126693726
67 77 0.957275390625
67 78 0.9706640243530273
67 79 0.9545868635177612
67 80 0.21773241460323334
67 81 0.08553337305784225
67 82 0.15097026526927948
67 83 0.9716380834579468
67 84 0.9594207406044006
67 85 0.9588295221328735
67 86 0.1440402716398239
67 87 0.10143010318279266
67 88 0.9690742492675781
67 89 0.28867512941360474
67 90 0.19772367179393768
67 91 0.19772367179393768
67 92 0.949248194694519
67 93 0.9652417898178101
67 94 0.9680128693580627
67 95 0.16982601583003998
67 96 0.9578121900558472
67 97 0.9758882522583008
67 98 0.06415002793073654
67 99 0.9706640243530273
67 100 0.962154746055603
67 101 0.9705793857574463
67 102 0.9732509851455688
67 103 0.12028130143880844
67 104 0.9420089721679688
67 105 0.9701343774795532
67 106 0.9599282741546631
67 107 0.9557231664657593
67 108 0.8839566111564636
67 110 0.96366947889328
67 111 0.15097026526927948
67 112 0.18702787160873413
67 113 0.9668923020362854
67 114 0.2663228213787079
67 115 0.9653248190879822
67 116 0.9748342633247375
67 117 0.1436067521572113
67 118 0.9410293102264404
67 119 0.9631637930870056
67 120 0.10185185819864273
67 121 0.9311155080795288
67 122 0.9794918298721313
67 123 0.9605208039283752
67 124 0.9609987139701843
67 125 0.9551852345466614
67 126 0.9726956486701965
67 127 0.9658867120742798
67 128 0.9716933965682983
67 129 0.972750723361969
67 130 0.15396006405353546
67 131 0.8524636626243591
67 132 0.9544788599014282
67 133 0.9822443723678589
67 134 0.10185185819864273
67 135 0.9523741602897644
67 136 0.9584081768989563
67 137 0.9593926072120667
67 138 0.9632225036621094
67 139 0.953569769859314
67 140 0.9561450481414795
67 141 0.9690742492675781
67 142 0.9673698544502258
67 143 0.9680128693580627
67 144 0.33532968163490295
67 145 0.9705793857574463
67 146 0.9571934342384338
67 147 0.972750723361969
67 149 0.8619726896286011
67 150 0.9727227091789246
67 151 0.9562008380889893
67 152 0.9647635221481323
67 153 0.9696044325828552
67 154 0.9589443206787109
67 155 0.9701343774795532
67 156 0.9658284783363342
67 157 0.9673963189125061
67 159 0.9730826020240784
67 160 0.2029205560684204
67 161 0.9583486318588257
67 162 0.9577051997184753
67 163 0.9589141011238098
67 164 0.2505464553833008
67 165 0.9695751667022705
67 166 0.9710332155227661
67 167 0.9562302827835083
67 168 0.13608276844024658
67 169 0.880489706993103
67 170 0.9706348180770874
67 171 0.961026668548584
67 172 0.9519206285476685
67 173 0.11898880451917648
67 174 0.8920344710350037
67 175 0.9674237966537476
67 176 0.9572197198867798
67 177 0.9669504165649414
67 178 0.7917735576629639
67 179 0.9674817323684692
67 180 0.9631926417350769
67 181 0.9711642265319824
67 182 0.9651914834976196
67 183 0.1644333302974701
67 184 0.9636427760124207
67 185 0.9244675040245056
67 186 0.16706442832946777
67 187 0.07273928821086884
67 188 0.9690742492675781
67 189 0.1821139007806778
67 190 0.9647921919822693
67 191 0.9674522876739502
67 192 0.9600156545639038
67 193 0.971722424030304
67 195 0.9631637930870056
67 196 0.19797128438949585
67 197 0.06415002793073654
67 198 0.19271719455718994
67 200 0.6331124305725098
67 201 0.9637559056282043
67 202 0.9626588821411133
67 203 0.9648219347000122
67 204 0.163969948887825
67 205 0.9648219347000122
67 206 0.9673963189125061
67 207 0.970966637134552
67 208 0.10143010318279266
67 209 0.17602622509002686
67 210 0.11037769913673401
67 211 0.9758355617523193
67 212 0.1159442588686943
67 213 0.9636973142623901
67 214 0.13981175422668457
67 215 0.9668383002281189
67 216 0.9518619179725647
67 217 0.9690165519714355
67 218 0.29573702812194824
67 219 0.10638079792261124
67 220 0.0555555559694767
67 221 0.9695751667022705
67 222 0.9261972904205322
67 223 0.09670981019735336
67 224 0.9694931507110596
67 225 0.1159442588686943
67 226 0.9631359577178955
67 227 0.9642305374145508
67 228 0.1159442588686943
67 229 0.09670981019735336
67 230 0.9442713260650635
67 231 0.9669504165649414
67 232 0.18433667719364166
67 233 0.9599282741546631
67 234 0.16037507355213165
67 235 0.9721157550811768
67 236 0.9432422518730164
67 237 0.9748342633247375
67 238 0.05737753212451935
67 239 0.24478600919246674
67 240 0.9551852345466614
67 241 0.9690742492675781
67 242 0.9695468544960022
67 243 0.10638079792261124
67 244 0.9646834135055542
67 245 0.9529998302459717
67 246 0.06415002793073654
67 247 0.9609987139701843
67 248 0.9674817323684692
67 249 0.07856741547584534
67 250 0.972251296043396
67 251 0.22007863223552704
67 252 0.9604917168617249
67 253 0.1644333302974701
67 254 0.9610557556152344
67 255 0.9763880968093872
68 89 0.07856742292642593
68 90 0.11470786482095718
68 91 0.11470786482095718
68 103 0.1767766922712326
68 108 0.050031278282403946
68 131 0.05205792188644409
68 149 0.05177803710103035
68 164 0.08908707648515701
68 169 0.050156984478235245
68 178 0.055945418775081635
68 196 0.10910893976688385
68 197 0.3535533845424652
68 198 0.11180339008569717
68 212 0.18257418274879456
68 214 0.16222141683101654
68 219 0.21320070326328278
68 223 0.21320070326328278
68 243 0.21320070326328278
68 253 0.125
69 70 0.15479950606822968
69 72 0.9663388133049011
69 73 0.9647673964500427
69 75 0.9561551213264465
69 76 0.9538846611976624
69 77 0.9581471085548401
69 78 0.9705763459205627
69 79 0.9522913098335266
69 80 0.21840757131576538
69 81 0.08579859137535095
69 82 0.1514384001493454
69 83 0.9705122709274292
69 84 0.9592574834823608
69 85 0.9555095434188843
69 86 0.1379193216562271
69 87 0.1017446219921112
69 88 0.9679425954818726
69 89 0.28242039680480957
69 90 0.18789799511432648
69 91 0.17223981022834778
69 92 0.945864737033844
69 93 0.9630236625671387
69 94 0.9648033380508423
69 95 0.17035260796546936
69 96 0.9534479379653931
69 97 0.9717088341712952
69 99 0.9705763459205627
69 100 0.9599325060844421
69 101 0.9663388133049011
69 102 0.9690449237823486
69 103 0.09652341157197952
69 104 0.9374474883079529
69 105 0.9679772853851318
69 106 0.9566250443458557
69 107 0.9555434584617615
69 108 0.8753150701522827
69 110 0.9614437818527222
69 111 0.14512847363948822
69 112 0.1820899099111557
69 113 0.963659942150116
69 114 0.2740875482559204
69 115 0.9641622304916382
69 116 0.9716745018959045
69 117 0.14405202865600586
69 118 0.9428819417953491
69 119 0.959896981716156
69 120 0.09287970513105392
69 121 0.9264616966247559
69 122 0.9773848652839661
69 123 0.9582797884941101
69 124 0.9566598534584045
69 125 0.9539539217948914
69 126 0.9695102572441101
69 127 0.9647324085235596
69 128 0.9695438146591187
69 129 0.9695783257484436
69 130 0.15443746745586395
69 131 0.8480008244514465
69 132 0.9479380249977112
69 133 0.9812059998512268
69 134 0.09287970513105392
69 135 0.9468823671340942
69 136 0.9572001695632935
69 137 0.957131564617157
69 138 0.9651691913604736
69 139 0.9575765132904053
69 140 0.9506966471672058
69 141 0.9658743143081665
69 142 0.96724933385849
69 143 0.9679089188575745
69 144 0.33636948466300964
69 145 0.9653031229972839
69 146 0.9538516402244568
69 147 0.972672700881958
69 149 0.8469756245613098
69 150 0.9695438146591187
69 151 0.9507704973220825
69 152 0.9615114331245422
69 153 0.9695102572441101
69 154 0.9566956758499146
69 155 0.9679772853851318
69 156 0.961546778678894
69 157 0.9631232619285583
69 159 0.9667443633079529
69 160 0.1985851675271988
69 161 0.957131564617157
69 162 0.9575181603431702
69 163 0.9545688033103943
69 164 0.2553769648075104
69 165 0.968442976474762
69 166 0.964698314666748
69 167 0.9529055953025818
69 168 0.13650473952293396
69 169 0.8797965049743652
69 170 0.9695102572441101
69 171 0.9577401280403137
69 172 0.9538195133209229
69 173 0.14042091369628906
69 174 0.8891514539718628
69 175 0.9652342200279236
69 176 0.9528341889381409
69 177 0.9647673964500427
69 178 0.7916831374168396
69 179 0.968410313129425
69 180 0.9630559086799622
69 181 0.9721094965934753
69 182 0.9629622101783752
69 183 0.17063090205192566
69 184 0.9593236446380615
69 185 0.9186573028564453
69 186 0.15602505207061768
69 187 0.08512565493583679
69 188 0.9679425954818726
69 189 0.18789799511432648
69 190 0.9688233137130737
69 191 0.9652681350708008
69 192 0.9588190913200378
69 193 0.9695783257484436
69 195 0.9630236625671387
69 196 0.18865591287612915
69 198 0.19331477582454681
69 200 0.6523245573043823
69 201 0.9625862836837769
69 202 0.9593937397003174
69 203 0.9626215100288391
69 204 0.1644783765077591
69 205 0.9657368063926697
69 206 0.9641622304916382
69 207 0.9593937397003174
69 208 0.0813956931233406
69 209 0.1765720546245575
69 210 0.14024527370929718
69 211 0.9706097841262817
69 212 0.11630378663539886
69 213 0.9646021723747253
69 214 0.1107199490070343
69 215 0.9615114331245422
69 216 0.9495382905006409
69 217 0.9689124822616577
69 218 0.29320454597473145
69 219 0.10671065002679825
69 220 0.05572781711816788
69 221 0.965338945388794
69 222 0.9258283376693726
69 223 0.10671065002679825
69 224 0.9662720561027527
69 225 0.107996366918087
69 226 0.9588190913200378
69 227 0.9630559086799622
69 228 0.11630378663539886
69 229 0.10671065002679825
69 230 0.9408209323883057
69 231 0.9647673964500427
69 232 0.16859284043312073
69 233 0.9555783867835999
69 234 0.14800257980823517
69 235 0.9678761959075928
69 236 0.9429813027381897
69 237 0.9706441164016724
69 238 0.07194431126117706
69 239 0.24554502964019775
69 240 0.9560505151748657
69 241 0.9658743143081665
69 242 0.969446063041687
69 243 0.09700968116521835
69 244 0.9593236446380615
69 245 0.952799916267395
69 247 0.9545688033103943
69 248 0.9653031229972839
69 249 0.07881103456020355
69 250 0.9711422324180603
69 251 0.22076104581356049
69 252 0.9613800048828125
69 253 0.15356780588626862
69 254 0.9588190913200378
69 255 0.9732364416122437
70 72 0.14868450164794922
70 73 0.148761585354805
70 74 0.28867512941360474
70 75 0.15001171827316284
70 76 0.13824181258678436
70 77 0.1504887044429779
70 78 0.15440042316913605
70 79 0.15088967978954315
70 81 0.12830005586147308
70 82 0.11322770267724991
70 83 0.14234189689159393
70 84 0.13765603303909302
70 85 0.13802126049995422
70 86 0.235702246427536
70 88 0.16082507371902466
70 90 0.062439050525426865
70 92 0.15137512981891632
70 93 0.14338362216949463
70 94 0.14241555333137512
70 95 0.14054566621780396
70 96 0.13787482678890228
70 97 0.1539255827665329
70 98 0.09622504562139511
70 99 0.15440042316913605
70 100 0.14946092665195465
70 101 0.11770856380462646
70 102 0.16049383580684662
70 104 0.11508706957101822
70 105 0.1421215981245041
70 106 0.14398925006389618
70 107 0.15040889382362366
70 108 0.14978468418121338
70 110 0.137221559882164
70 111 0.07548514008522034
70 112 0.0990147516131401
70 113 0.13664861023426056
70 114 0.14526699483394623
70 115 0.13671982288360596
70 116 0.14175672829151154
70 117 0.12309148907661438
70 118 0.12745317816734314
70 119 0.14961767196655273
70 120 0.1111111119389534
70 121 0.11598670482635498
70 122 0.1600007563829422
70 123 0.14985373616218567
70 124 0.15009090304374695
70 125 0.13167762756347656
70 126 0.1545596867799759
70 127 0.1427113264799118
70 128 0.1420484036207199
70 129 0.1480720043182373
70 131 0.06375767290592194
70 132 0.1325957328081131
70 133 0.15268047153949738
70 134 0.0555555559694767
70 135 0.1325957328081131
70 136 0.14376123249530792
70 137 0.12527434527873993
70 138 0.14308364689350128
70 139 0.16957001388072968
70 140 0.13838942348957062
70 141 0.14845392107963562
70 142 0.13064159452915192
70 143 0.1486075222492218
70 144 0.1749546378850937
70 145 0.15487968921661377
70 146 0.15097026526927948
70 147 0.16658100485801697
70 149 0.1197836771607399
70 150 0.15440042316913605
70 151 0.16320276260375977
70 152 0.14938272535800934
70 153 0.1545596867799759
70 154 0.1436854749917984
70 155 0.12976320087909698
70 156 0.15544450283050537
70 157 0.12429074943065643
70 159 0.14922671020030975
70 160 0.14847847819328308
70 161 0.13780178129673004
70 162 0.15105096995830536
70 163 0.12507575750350952
70 165 0.12996433675289154
70 166 0.15528249740600586
70 167 0.16302943229675293
70 168 0.1360827535390854
70 169 0.12285902351140976
70 170 0.14837729930877686
70 171 0.15617986023426056
70 172 0.14483468234539032
70 173 0.20998026430606842
70 174 0.10136754810810089
70 175 0.15520167350769043
70 176 0.14452552795410156
70 177 0.14256320893764496
70 178 0.14465095102787018
70 179 0.14868450164794922
70 180 0.13077831268310547
70 181 0.1544799953699112
70 182 0.12494388967752457
70 183 0.27216553688049316
70 184 0.12487811595201492
70 185 0.16218727827072144
70 186 0.06913010776042938
70 188 0.15463949739933014
70 189 0.062439050525426865
70 190 0.15544450283050537
70 191 0.1674436628818512
70 192 0.143534317612648
70 193 0.1480720043182373
70 194 0.19245009124279022
70 195 0.15585175156593323
70 196 0.11878277361392975
70 197 0.19245009124279022
70 198 0.06085805967450142
70 200 0.09379443526268005
70 201 0.14922671020030975
70 202 0.16823163628578186
70 203 0.16770510375499725
70 205 0.16149379312992096
70 206 0.1491488814353943
70 207 0.11215443164110184
70 208 0.18257416784763336
70 209 0.16502459347248077
70 211 0.14190234243869781
70 213 0.13084684312343597
70 214 0.13245323300361633
70 215 0.15560701489448547
70 216 0.1577671617269516
70 217 0.13016639649868011
70 218 0.12379688769578934
70 219 0.11605177074670792
70 221 0.16090822219848633
70 222 0.1615460366010666
70 223 0.05802588537335396
70 224 0.13657748699188232
70 225 0.09938079863786697
70 226 0.156015545129776
70 227 0.16191600263118744
70 228 0.19876159727573395
70 230 0.15260951220989227
70 231 0.14256320893764496
70 232 0.06506000459194183
70 233 0.15651004016399384
70 234 0.1154700517654419
70 235 0.13016639649868011
70 236 0.13338780403137207
70 237 0.14792005717754364
70 240 0.13167762756347656
70 241 0.16082507371902466
70 242 0.15487968921661377
70 243 0.05802588537335396
70 244 0.16234153509140015
70 245 0.16355112195014954
70 246 0.09622504562139511
70 247 0.16259847581386566
70 248 0.15487968921661377
70 249 0.07856742292642593
70 250 0.1418294757604599
70 251 0.16169041395187378
70 252 0.13126026093959808
70 254 0.156015545129776
70 255 0.12320355325937271
71 80 0.10000000894069672
71 82 0.1386750489473343
71 95 0.12909944355487823
71 98 0.3535533845424652
71 108 0.050031278282403946
71 111 0.1386750489473343
71 117 0.15075567364692688
71 130 0.1414213627576828
71 131 0.05205792188644409
71 144 0.06428243219852448
71 148 0.7071067690849304
71 160 0.10910893976688385
71 164 0.08908707648515701
71 197 0.3535533845424652
71 209 0.12126781791448593
71 218 0.07580980658531189
71 223 0.21320070326328278
71 228 0.18257418274879456
71 253 0.125
72 73 0.9642303586006165
72 74 0.06438227742910385
72 75 0.95665043592453
72 76 0.9533277153968811
72 77 0.9513015151023865
72 78 0.9679798483848572
72 79 0.9548879265785217
72 80 0.22307322919368744
72 81 0.09657341986894608
72 82 0.1515168398618698
72 83 0.9648038148880005
72 84 0.9566145539283752
72 85 0.9560045003890991
72 86 0.1577037274837494
72 87 0.09161758422851562
72 88 0.9684440493583679
72 89 0.26468268036842346
72 90 0.1879953294992447
72 91 0.1879953294992447
72 92 0.9505747556686401
72 93 0.9614369869232178
72 94 0.9673745632171631
72 95 0.17044085264205933
72 96 0.9675695300102234
72 97 0.9722121953964233
72 99 0.9690129160881042
72 100 0.9583463072776794
72 101 0.9678756594657898
72 102 0.9716118574142456
72 103 0.11266898363828659
72 104 0.9325856566429138
72 105 0.9674450755119324
72 106 0.9581676721572876
72 107 0.9570866823196411
72 108 0.8803238272666931
72 110 0.9671584367752075
72 111 0.14520364999771118
72 112 0.1711427867412567
72 113 0.9662370681762695
72 114 0.2915858328342438
72 115 0.9636221528053284
72 116 0.9721778631210327
72 117 0.13040030002593994
72 118 0.9380404949188232
72 119 0.9624797105789185
72 120 0.07434225082397461
72 121 0.934486448764801
72 122 0.9727444052696228
72 123 0.9619094133377075
72 124 0.956109344959259
72 125 0.9544479846954346
72 126 0.9731147885322571
72 127 0.9662699699401855
72 128 0.9710790514945984
72 129 0.9721445441246033
72 130 0.1416410207748413
72 131 0.842515230178833
72 132 0.9526536464691162
72 133 0.9806927442550659
72 134 0.09292782098054886
72 135 0.9505413174629211
72 136 0.9639691114425659
72 137 0.9586750864982605
72 138 0.9635879397392273
72 139 0.9528199434280396
72 140 0.954345703125
72 141 0.9684440493583679
72 142 0.9625473618507385
72 143 0.968410313129425
72 144 0.324837863445282
72 145 0.9658031463623047
72 146 0.9522412419319153
72 147 0.9690485596656799
72 149 0.8497715592384338
72 150 0.9690129160881042
72 151 0.9533629417419434
72 152 0.9640917778015137
72 153 0.9658758640289307
72 154 0.9592812061309814
72 155 0.9705458879470825
72 156 0.9610047936439514
72 157 0.9615431427955627
72 159 0.9610047936439514
72 160 0.17385201156139374
72 161 0.9555319547653198
72 162 0.9485392570495605
72 163 0.9592475891113281
72 164 0.231175035238266
72 165 0.9658389687538147
72 166 0.9703928828239441
72 167 0.9565457105636597
72 168 0.10622533410787582
72 169 0.8791106343269348
72 170 0.9669100642204285
72 171 0.9571912884712219
72 172 0.9469403624534607
72 173 0.1475183367729187
72 174 0.8839601278305054
72 175 0.962618887424469
72 176 0.9554298520088196
72 177 0.9673407077789307
72 178 0.7895462512969971
72 179 0.9678756594657898
72 180 0.9583463072776794
72 181 0.9695122838020325
72 182 0.956146240234375
72 183 0.17071929574012756
72 184 0.9608649611473083
72 185 0.9223886132240295
72 186 0.17923268675804138
72 187 0.08516974747180939
72 188 0.9725826978683472
72 189 0.19843950867652893
72 190 0.9651650190353394
72 191 0.9626561403274536
72 192 0.9572281241416931
72 193 0.9711125493049622
72 195 0.9603942036628723
72 196 0.20365522801876068
72 198 0.16796556115150452
72 200 0.6495246887207031
72 201 0.9641249775886536
72 202 0.9609329700469971
72 203 0.9662370681762695
72 204 0.17631812393665314
72 205 0.9641591310501099
72 206 0.9615431427955627
72 207 0.9598907232284546
72 208 0.081437848508358
72 209 0.1656220406293869
72 210 0.1255476027727127
72 211 0.9690485596656799
72 212 0.11636403203010559
72 213 0.9619751572608948
72 214 0.09600698947906494
72 215 0.9599272608757019
72 216 0.9521413445472717
72 217 0.9683775305747986
72 218 0.2795514464378357
72 219 0.06794194877147675
72 220 0.05575668811798096
72 221 0.9679093956947327
72 222 0.9371166229248047
72 223 0.06794194877147675
72 224 0.9667726159095764
72 225 0.1080523133277893
72 226 0.9645351767539978
72 227 0.959388017654419
72 228 0.08311717212200165
72 229 0.10676592588424683
72 230 0.9476900100708008
72 231 0.9652671217918396
72 232 0.1795627474784851
72 233 0.9529317617416382
72 234 0.14807924628257751
72 235 0.9673407077789307
72 236 0.9487820267677307
72 237 0.9701159596443176
72 238 0.07198157161474228
72 239 0.2575596272945404
72 240 0.9565457105636597
72 241 0.9736173152923584
72 242 0.9678756594657898
72 243 0.08735393732786179
72 244 0.956687331199646
72 245 0.9532934427261353
72 247 0.9550632834434509
72 248 0.9647668600082397
72 249 0.06570988893508911
72 250 0.9726768136024475
72 251 0.2118600606918335
72 252 0.9597870111465454
72 253 0.1479567140340805
72 254 0.9634913206100464
72 255 0.9737405180931091
73 74 0.06441566348075867
73 75 0.9623767733573914
73 76 0.9485639929771423
73 77 0.9538935422897339
73 78 0.9664146304130554
73 79 0.9543309211730957
73 80 0.1867498755455017
73 81 0.08588755130767822
73 82 0.15159541368484497
73 83 0.9715185165405273
73 84 0.9529218673706055
73 85 0.9575501680374146
73 86 0.1249135360121727
73 87 0.05092505365610123
73 88 0.9679110050201416
73 89 0.26839858293533325
73 90 0.18286798894405365
73 91 0.19331759214401245
73 92 0.9500120878219604
73 93 0.9598488211631775
73 94 0.9668399095535278
73 95 0.14700795710086823
73 96 0.9544364809989929
73 97 0.9706554412841797
73 98 0.06441566348075867
73 99 0.9777841567993164
73 100 0.9588432908058167
73 101 0.9673407077789307
73 102 0.9700496196746826
73 103 0.11272741109132767
73 104 0.935209333896637
73 105 0.9700150489807129
73 106 0.9565691351890564
73 107 0.9596806168556213
73 108 0.8864774703979492
73 110 0.9582651853561401
73 111 0.1452789455652237
73 112 0.17123152315616608
73 113 0.9646590352058411
73 114 0.2743717432022095
73 115 0.9651618599891663
73 116 0.9716504812240601
73 117 0.10300099104642868
73 118 0.9427929520606995
73 119 0.9619354605674744
73 120 0.11157120019197464
73 121 0.934971034526825
73 122 0.972218930721283
73 123 0.9592732787132263
73 124 0.9545118808746338
73 125 0.9549428820610046
73 126 0.9674113988876343
73 127 0.9667710661888123
73 128 0.9726161956787109
73 129 0.975746214389801
73 130 0.16103914380073547
73 131 0.8512512445449829
73 132 0.9478640556335449
73 133 0.9801791906356812
73 134 0.09297600388526917
73 135 0.9457507133483887
73 136 0.9550543427467346
73 137 0.9570755958557129
73 138 0.9620053768157959
73 139 0.9543650150299072
73 140 0.9558932781219482
73 141 0.9658405184745789
73 142 0.9630465507507324
73 143 0.9647673964500427
73 144 0.34843015670776367
73 145 0.9631934762001038
73 146 0.9495768547058105
73 147 0.9685184359550476
73 149 0.8502121567726135
73 150 0.9684817790985107
73 151 0.9528067708015442
73 152 0.9614666700363159
73 153 0.9674113988876343
73 154 0.9608240723609924
73 155 0.9669126868247986
73 156 0.9604625105857849
73 157 0.9620417952537537
73 159 0.9615030884742737
73 160 0.1938212662935257
73 161 0.9528825283050537
73 162 0.9500844478607178
73 163 0.9576517343521118
73 164 0.24346832931041718
73 165 0.9653041362762451
73 166 0.9615405201911926
73 167 0.9570416808128357
73 168 0.1214633360505104
73 169 0.8727126717567444
73 170 0.9663767218589783
73 171 0.9555965065956116
73 172 0.9463774561882019
73 173 0.1265098601579666
73 174 0.8844184875488281
73 175 0.9662349820137024
73 176 0.9506672024726868
73 177 0.9668049812316895
73 178 0.786133348941803
73 179 0.9652671217918396
73 180 0.9588432908058167
73 181 0.9731174111366272
73 182 0.9576875567436218
73 183 0.14233984053134918
73 184 0.958228349685669
73 185 0.9185239672660828
73 186 0.17932561039924622
73 187 0.08521391451358795
73 188 0.971016526222229
73 189 0.18286798894405365
73 190 0.9604625105857849
73 191 0.9673068523406982
73 192 0.9556355476379395
73 193 0.9705835580825806
73 195 0.958805501461029
73 196 0.1938212662935257
73 198 0.18333019316196442
73 200 0.6278854012489319
73 201 0.9604625105857849
73 202 0.958302915096283
73 203 0.9615405201911926
73 204 0.15876860916614532
73 205 0.9646590352058411
73 206 0.9641218781471252
73 207 0.9603884816169739
73 208 0.09166509658098221
73 209 0.16570793092250824
73 210 0.13300170004367828
73 211 0.9674859046936035
73 212 0.10810833424329758
73 213 0.9603884816169739
73 214 0.12561272084712982
73 215 0.958341658115387
73 216 0.9462981820106506
73 217 0.9657676219940186
73 218 0.2831494212150574
73 219 0.09711026400327682
73 220 0.05578560009598732
73 221 0.9653041362762451
73 222 0.9267882108688354
73 223 0.08739923685789108
73 224 0.9631180763244629
73 225 0.09147629141807556
73 226 0.9556355476379395
73 227 0.9588432908058167
73 228 0.10810833424329758
73 229 0.09711026400327682
73 230 0.9513739347457886
73 231 0.9678422808647156
73 232 0.1742117553949356
73 233 0.9544737339019775
73 234 0.12883132696151733
73 235 0.9668049812316895
73 236 0.9450219869613647
73 237 0.9726819396018982
73 238 0.057615119963884354
73 239 0.25769317150115967
73 240 0.9559923410415649
73 241 0.9689461588859558
73 242 0.9652671217918396
73 243 0.08739923685789108
73 244 0.9571834206581116
73 245 0.9506295919418335
73 247 0.9534652829170227
73 248 0.9663039445877075
73 250 0.9752452373504639
73 251 0.21647991240024567
73 252 0.9550543427467346
73 253 0.16511422395706177
73 254 0.960857629776001
73 255 0.9763073325157166
74 75 0.06495697796344757
74 81 0.1666666567325592
74 82 0.0980580747127533
74 86 0.10206206887960434
74 88 0.06428243219852448
74 90 0.08111070841550827
74 91 0.08111070841550827
74 92 0.06554735451936722
74 94 0.06434894353151321
74 95 0.09128709137439728
74 97 0.0639856681227684
74 98 0.25
74 99 0.0641830563545227
74 100 0.06471847742795944
74 102 0.06415002793073654
74 105 0.06421612948179245
74 111 0.0980580747127533
74 112 0.08574929088354111
74 114 0.10783278197050095
74 121 0.05022371560335159
74 123 0.06488857418298721
74 124 0.06499126553535461
74 127 0.06448258459568024
74 134 0.14433757960796356
74 135 0.0656178742647171
74 136 0.06495697796344757
74 139 0.06526753306388855
74 141 0.06428243219852448
74 145 0.06438227742910385
74 147 0.06411705911159515
74 150 0.0641830563545227
74 151 0.06523280590772629
74 153 0.06424925476312637
74 154 0.0649227499961853
74 156 0.06461706012487411
74 160 0.15430334210395813
74 163 0.06499126553535461
74 165 0.06431566923856735
74 166 0.06454972177743912
74 168 0.2357022613286972
74 171 0.0649227499961853
74 173 0.10910893976688385
74 176 0.06530231237411499
74 177 0.06441566348075867
74 179 0.06438227742910385
74 181 0.06421612948179245
74 183 0.1767766922712326
74 185 0.06741998344659805
74 186 0.08980264514684677
74 188 0.06428243219852448
74 191 0.06444909423589706
74 194 0.5
74 196 0.15430334210395813
74 197 0.25
74 202 0.06475239247083664
74 203 0.06454972177743912
74 205 0.06454972177743912
74 208 0.47434163093566895
74 209 0.08574929088354111
74 215 0.06468462198972702
74 216 0.06558258086442947
74 218 0.16081687808036804
74 221 0.06431566923856735
74 222 0.06715342402458191
74 225 0.12909944355487823
74 226 0.0648544430732727
74 227 0.06471847742795944
74 228 0.3872983157634735
74 233 0.06506000459194183
74 234 0.10000000894069672
74 237 0.06405126303434372
74 241 0.06428243219852448
74 245 0.0653720498085022
74 247 0.06499126553535461
74 251 0.07001399993896484
74 254 0.0648544430732727
75 76 0.945930540561676
75 77 0.9439200758934021
75 78 0.9578592777252197
75 79 0.9443131685256958
75 80 0.18372608721256256
75 81 0.06495697796344757
75 82 0.1528693288564682
75 83 0.9587938785552979
75 84 0.947202205657959
75 85 0.9486566185951233
75 86 0.11933358758687973
75 87 0.08216480165719986
75 88 0.9562107920646667
75 89 0.2598279118537903
75 90 0.17386731505393982
75 91 0.16859862208366394
75 92 0.9452222585678101
75 93 0.9531857967376709
75 94 0.959290087223053
75 95 0.1304541528224945
75 96 0.9455347657203674
75 97 0.9621871113777161
75 99 0.9599438905715942
75 100 0.9532381892204285
75 101 0.9608324766159058
75 102 0.9584081768989563
75 103 0.12179433554410934
75 104 0.9311990141868591
75 105 0.9666955471038818
75 106 0.9593250155448914
75 107 0.9518806338310242
75 108 0.874393880367279
75 110 0.9494757652282715
75 111 0.14649978280067444
75 112 0.17824047803878784
75 113 0.964379608631134
75 114 0.2626684308052063
75 115 0.9627847671508789
75 116 0.960053026676178
75 117 0.09694211930036545
75 118 0.9345836639404297
75 119 0.9542378783226013
75 120 0.11250878125429153
75 121 0.9156416058540344
75 122 0.9627336263656616
75 123 0.954689621925354
75 124 0.9467019438743591
75 125 0.9460365176200867
75 126 0.9609339833259583
75 127 0.9612823724746704
75 128 0.9609861373901367
75 129 0.9641628861427307
75 130 0.12991395592689514
75 131 0.8332982063293457
75 132 0.9430424571037292
75 133 0.9719252586364746
75 134 0.10313306003808975
75 135 0.936648964881897
75 136 0.9514768123626709
75 137 0.9524333477020264
75 138 0.9543413519859314
75 139 0.9486064314842224
75 140 0.9458790421485901
75 141 0.960386335849762
75 142 0.9553912281990051
75 143 0.9613800048828125
75 144 0.32478490471839905
75 145 0.9556049108505249
75 146 0.9405710697174072
75 147 0.9610392451286316
75 149 0.8502222299575806
75 150 0.9599438905715942
75 151 0.9428050518035889
75 152 0.9506386518478394
75 153 0.9588472843170166
75 154 0.9541382193565369
75 155 0.957310140132904
75 156 0.9548923969268799
75 157 0.9585896134376526
75 159 0.9559417963027954
75 160 0.17039234936237335
75 161 0.9450337886810303
75 162 0.9431982636451721
75 163 0.9530344009399414
75 164 0.2414223998785019
75 165 0.9577494859695435
75 166 0.9549455046653748
75 167 0.9439200758934021
75 168 0.13779455423355103
75 169 0.8685275316238403
75 170 0.9588472843170166
75 171 0.9509753584861755
75 172 0.940514862537384
75 173 0.12757296860218048
75 174 0.8747435808181763
75 175 0.9534008502960205
75 176 0.9427492022514343
75 177 0.9581925272941589
75 178 0.7734671831130981
75 179 0.9597870111465454
75 180 0.9542891383171082
75 181 0.9614814519882202
75 182 0.9478124976158142
75 183 0.1607603132724762
75 184 0.9525821805000305
75 185 0.9185788631439209
75 186 0.1691659688949585
75 187 0.0859300047159195
75 188 0.9572546482086182
75 189 0.1949421465396881
75 190 0.9569911360740662
75 191 0.9628763198852539
75 192 0.9478685259819031
75 193 0.9641628861427307
75 195 0.9510816335678101
75 196 0.1754038780927658
75 198 0.19514140486717224
75 200 0.6204986572265625
75 201 0.9538431167602539
75 202 0.9505830407142639
75 203 0.9549455046653748
75 204 0.14231359958648682
75 205 0.95389723777771
75 206 0.9554433226585388
75 207 0.9537376761436462
75 208 0.10270600765943527
75 209 0.1671004444360733
75 210 0.13411937654018402
75 211 0.9589568376541138
75 212 0.10063090920448303
75 213 0.9516345858573914
75 214 0.11921722441911697
75 215 0.9537899494171143
75 216 0.9382752776145935
75 217 0.9571464657783508
75 218 0.26811859011650085
75 219 0.06854843348264694
75 220 0.05625439062714577
75 221 0.9577494859695435
75 222 0.9149470925331116
75 223 0.08813370019197464
75 224 0.9565439224243164
75 225 0.10901682078838348
75 226 0.9478685259819031
75 227 0.9511362314224243
75 228 0.10901682078838348
75 229 0.09792633354663849
75 230 0.9357602000236511
75 231 0.959238588809967
75 232 0.18665547668933868
75 233 0.9508727788925171
75 234 0.12991395592689514
75 235 0.959238588809967
75 236 0.9390281438827515
75 237 0.9662938714027405
75 238 0.07262410968542099
75 239 0.251863032579422
75 240 0.9439200758934021
75 241 0.9635180234909058
75 242 0.9597870111465454
75 243 0.06854843348264694
75 244 0.9515284895896912
75 245 0.951187014579773
75 246 0.06495697796344757
75 247 0.9488127827644348
75 248 0.9556049108505249
75 250 0.9636678099632263
75 251 0.21375121176242828
75 252 0.947257399559021
75 253 0.1550188809633255
75 254 0.9531344175338745
75 255 0.9637194871902466
76 77 0.9383000135421753
76 78 0.9566647410392761
76 79 0.9344001412391663
76 80 0.21240828931331635
76 81 0.07618603855371475
76 82 0.14727863669395447
76 83 0.9533913135528564
76 84 0.9437453150749207
76 85 0.943056046962738
76 86 0.11330312490463257
76 87 0.10325203090906143
76 88 0.9560471177101135
76 89 0.2866046130657196
76 90 0.20127525925636292
76 91 0.1959785372018814
76 92 0.9374062418937683
76 93 0.9476765394210815
76 94 0.9507330656051636
76 95 0.1728764921426773
76 96 0.9452452659606934
76 97 0.9568564891815186
76 99 0.9545691013336182
76 100 0.9498534202575684
76 101 0.9543787837028503
76 102 0.9551252126693726
76 103 0.09795346856117249
76 104 0.9318106174468994
76 105 0.956109344959259
76 106 0.9495552182197571
76 107 0.943118691444397
76 108 0.8594054579734802
76 110 0.9439412355422974
76 111 0.14727863669395447
76 112 0.179188072681427
76 113 0.9505380988121033
76 114 0.28519004583358765
76 115 0.9510335326194763
76 116 0.9567915797233582
76 117 0.1253025084733963
76 118 0.9287403225898743
76 119 0.9466188549995422
76 120 0.07540462166070938
76 121 0.9205095171928406
76 122 0.9574111700057983
76 123 0.9459937810897827
76 124 0.9411247968673706
76 125 0.9457468390464783
76 126 0.9534558653831482
76 127 0.9506021738052368
76 128 0.9577125310897827
76 129 0.9546342492103577
76 130 0.15672555565834045
76 131 0.8293149471282959
76 132 0.9330585598945618
76 133 0.9667309522628784
76 134 0.10368135571479797
76 135 0.9352010488510132
76 136 0.9416887760162354
76 137 0.9468698501586914
76 138 0.9509713053703308
76 139 0.9419287443161011
76 140 0.9413025379180908
76 141 0.9518492817878723
76 142 0.9488604068756104
76 143 0.9528341889381409
76 144 0.3146384358406067
76 145 0.9554298520088196
76 146 0.9413025379180908
76 147 0.9598679542541504
76 149 0.8415924310684204
76 150 0.9577125310897827
76 151 0.9392976760864258
76 152 0.9461885094642639
76 153 0.9545047283172607
76 154 0.9411925077438354
76 155 0.9592543840408325
76 156 0.9483649730682373
76 157 0.9552509188652039
76 159 0.9494198560714722
76 160 0.20152732729911804
76 161 0.9447444677352905
76 162 0.9375345706939697
76 163 0.9464299082756042
76 164 0.23447857797145844
76 165 0.9523413777351379
76 166 0.9515918493270874
76 167 0.9383000135421753
76 168 0.09235141426324844
76 169 0.8731449842453003
76 170 0.9555537104606628
76 171 0.9443721771240234
76 172 0.9412415027618408
76 173 0.12825120985507965
76 174 0.8713682889938354
76 175 0.9500434398651123
76 176 0.9424307346343994
76 177 0.9506672024726868
76 178 0.7892041206359863
76 179 0.9522765874862671
76 180 0.9519665241241455
76 181 0.952964186668396
76 182 0.9486117959022522
76 183 0.16161498427391052
76 184 0.947053074836731
76 185 0.9091536402702332
76 186 0.15833666920661926
76 187 0.08638684451580048
76 188 0.9528987407684326
76 189 0.17479166388511658
76 190 0.9536395072937012
76 191 0.9522127509117126
76 192 0.9476137757301331
76 193 0.9556809663772583
76 195 0.9445035457611084
76 196 0.15618367493152618
76 198 0.17552845180034637
76 200 0.6381193399429321
76 201 0.9515297412872314
76 202 0.9461225867271423
76 203 0.9547532796859741
76 204 0.16095396876335144
76 205 0.9526456594467163
76 206 0.9489247798919678
76 207 0.9461225867271423
76 208 0.06195121258497238
76 209 0.179188072681427
76 210 0.12734171748161316
76 211 0.9588212370872498
76 212 0.12645739316940308
76 213 0.9492939710617065
76 214 0.12734171748161316
76 215 0.9493565559387207
76 216 0.935768723487854
76 217 0.9580285549163818
76 218 0.2870468497276306
76 219 0.08860225230455399
76 221 0.9512913227081299
76 222 0.9165223240852356
76 223 0.09844695031642914
76 224 0.9532032012939453
76 225 0.11802689731121063
76 226 0.9444373846054077
76 227 0.9466837048530579
76 228 0.10116590559482574
76 229 0.10829164832830429
76 230 0.9299468398094177
76 231 0.951718807220459
76 232 0.17109064757823944
76 233 0.9453065991401672
76 234 0.1371348649263382
76 235 0.9548736810684204
76 236 0.9300109148025513
76 237 0.9578373432159424
76 238 0.07301021367311478
76 239 0.25320202112197876
76 240 0.9446830153465271
76 241 0.9539481997489929
76 242 0.9522765874862671
76 243 0.10829164832830429
76 244 0.9428157210350037
76 245 0.9381008744239807
76 247 0.9421858787536621
76 248 0.9522765874862671
76 249 0.06664890050888062
76 250 0.9562364220619202
76 251 0.19659928977489471
76 252 0.944870114326477
76 253 0.1789308786392212
76 254 0.9486725330352783
76 255 0.9604818820953369
77 78 0.9577682018280029
77 79 0.9451870322227478
77 80 0.21656456589698792
77 81 0.08688469231128693
77 82 0.1661350280046463
77 83 0.9586992859840393
77 84 0.9491546750068665
77 85 0.9410516023635864
77 86 0.14631593227386475
77 87 0.08242606371641159
77 88 0.9550623893737793
77 89 0.2859954833984375
77 90 0.18499106168746948
77 91 0.16384923458099365
77 92 0.9364817142486572
77 93 0.947773277759552
77 94 0.951857328414917
77 95 0.1546633094549179
77 96 0.9400532245635986
77 97 0.9589921832084656
77 99 0.9556769728660583
77 100 0.9478346109390259
77 101 0.9523503184318542
77 102 0.9562302827835083
77 103 0.12218160182237625
77 104 0.9244178533554077
77 105 0.9540772438049316
77 106 0.9422375559806824
77 107 0.9442972540855408
77 108 0.8714108467102051
77 110 0.9461588859558105
77 111 0.1597452163696289
77 112 0.1843949407339096
77 113 0.9537757039070129
77 114 0.2740437686443329
77 115 0.9574291110038757
77 116 0.9610188007354736
77 117 0.15282201766967773
77 118 0.9267663955688477
77 119 0.9467177987098694
77 120 0.11286653578281403
77 121 0.9120074510574341
77 122 0.9595437049865723
77 123 0.9429259896278381
77 124 0.9444183707237244
77 125 0.9447982907295227
77 126 0.9577094316482544
77 127 0.9496322274208069
77 128 0.9577682018280029
77 129 0.9567833542823792
77 130 0.156392440199852
77 131 0.8467419743537903
77 132 0.9332133531570435
77 133 0.9677780866622925
77 134 0.11286653578281403
77 135 0.9321444034576416
77 136 0.9428618550300598
77 137 0.9406155943870544
77 138 0.9500033855438232
77 139 0.9420532584190369
77 140 0.9361070394515991
77 141 0.9540151357650757
77 142 0.9510565400123596
77 143 0.9570988416671753
77 144 0.34655147790908813
77 145 0.9513015151023865
77 146 0.9414318799972534
77 147 0.9567833542823792
77 149 0.8326462507247925
77 150 0.9546313881874084
77 151 0.9468655586242676
77 152 0.9483925104141235
77 153 0.954569399356842
77 154 0.9465955495834351
77 155 0.9551233649253845
77 156 0.9526653289794922
77 157 0.9500643014907837
77 159 0.9505600333213806
77 160 0.19607150554656982
77 161 0.9416760802268982
77 162 0.9408695697784424
77 163 0.9412420988082886
77 164 0.2545047998428345
77 165 0.9545083045959473
77 166 0.9495694041252136
77 167 0.9394904971122742
77 168 0.13055311143398285
77 169 0.867822527885437
77 170 0.9598028063774109
77 171 0.944480299949646
77 172 0.9392409920692444
77 173 0.1279786080121994
77 174 0.8798131942749023
77 175 0.9553813338279724
77 176 0.9383000135421753
77 177 0.9517947435379028
77 178 0.7681930661201477
77 179 0.9554969072341919
77 180 0.9488889575004578
77 181 0.9551233649253845
77 182 0.9455379247665405
77 183 0.16127148270606995
77 184 0.9460972547531128
77 185 0.9083196520805359
77 186 0.1580001413822174
77 187 0.06157374009490013
77 188 0.9550623893737793
77 189 0.1691346913576126
77 190 0.9484546780586243
77 191 0.9512388706207275
77 192 0.9498258829116821
77 193 0.9578278660774231
77 195 0.9467177987098694
77 196 0.19607150554656982
77 198 0.20606516301631927
77 200 0.6319993138313293
77 201 0.9526653289794922
77 202 0.9472763538360596
77 203 0.9495694041252136
77 204 0.16656048595905304
77 205 0.9537757039070129
77 206 0.9500643014907837
77 207 0.9483312368392944
77 208 0.07212280482053757
77 209 0.1732195019721985
77 210 0.11959629505872726
77 211 0.9567833542823792
77 212 0.12618862092494965
77 213 0.9483312368392944
77 214 0.13454583287239075
77 215 0.9462850093841553
77 216 0.9337798357009888
77 217 0.9538935422897339
77 218 0.28992989659309387
77 219 0.10806147754192352
77 220 0.05643326789140701
77 221 0.9524127244949341
77 222 0.9156683087348938
77 223 0.10806147754192352
77 224 0.9522281885147095
77 225 0.10936346650123596
77 226 0.9466562271118164
77 227 0.9509975910186768
77 228 0.10936346650123596
77 229 0.10806147754192352
77 230 0.9279703497886658
77 231 0.9528441429138184
77 232 0.17072701454162598
77 233 0.9422375559806824
77 234 0.14335975050926208
77 235 0.9528441429138184
77 236 0.9291096329689026
77 237 0.9578884243965149
77 238 0.05828402563929558
77 239 0.2566744089126587
77 240 0.9490445852279663
77 241 0.9529678821563721
77 242 0.9533991813659668
77 243 0.10806147754192352
77 244 0.9482114315032959
77 245 0.937171995639801
77 246 0.0651635229587555
77 247 0.9465359449386597
77 248 0.9533991813659668
77 249 0.07980868965387344
77 250 0.9615119695663452
77 251 0.21899323165416718
77 252 0.9460365176200867
77 253 0.18431027233600616
77 254 0.947712779045105
77 255 0.9584404826164246
78 79 0.9592717289924622
78 80 0.21330608427524567
78 81 0.08557740598917007
78 82 0.1321669965982437
78 83 0.9690423011779785
78 84 0.9599146842956543
78 85 0.9572307467460632
78 86 0.1441144347190857
78 87 0.1014823243021965
78 88 0.9695731401443481
78 89 0.2816922962665558
78 90 0.18741360306739807
78 91 0.19261951744556427
78 92 0.9528920650482178
78 93 0.9688573479652405
78 94 0.9695438146591187
78 95 0.1757725328207016
78 96 0.9583052396774292
78 97 0.9774173498153687
78 99 0.9721935987472534
78 100 0.9647269248962402
78 101 0.9679798483848572
78 102 0.9727227091789246
78 103 0.1283661127090454
78 104 0.9403615593910217
78 105 0.969603419303894
78 106 0.9604223966598511
78 107 0.9572601914405823
78 108 0.8821409940719604
78 110 0.9620854258537292
78 111 0.15734165906906128
78 112 0.17611683905124664
78 113 0.9653186202049255
78 114 0.29414403438568115
78 115 0.9678942561149597
78 116 0.9773916006088257
78 117 0.1505226045846939
78 118 0.9393885135650635
78 119 0.9605409502983093
78 120 0.11116830259561539
78 121 0.9348183274269104
78 122 0.9748651385307312
78 123 0.9599740505218506
78 124 0.9594076871871948
78 125 0.9598593711853027
78 126 0.9711344838142395
78 127 0.9684532880783081
78 128 0.975283145904541
78 129 0.9753091335296631
78 130 0.16045762598514557
78 131 0.8517211675643921
78 132 0.950758695602417
78 133 0.9827500581741333
78 134 0.10190428793430328
78 135 0.9497057795524597
78 136 0.9609861373901367
78 137 0.9609309434890747
78 138 0.9637182950973511
78 139 0.9540606141090393
78 140 0.957686185836792
78 141 0.96854168176651
78 142 0.9637182950973511
78 143 0.9705763459205627
78 144 0.3442545533180237
78 145 0.9679798483848572
78 146 0.9545393586158752
78 147 0.973251461982727
78 149 0.8600665330886841
78 150 0.9721935987472534
78 151 0.9566930532455444
78 152 0.9621464014053345
78 153 0.9711344838142395
78 154 0.9615214467048645
78 155 0.9716641902923584
78 156 0.9652888774871826
78 157 0.9668580293655396
78 159 0.9652888774871826
78 160 0.18321771919727325
78 161 0.9609309434890747
78 162 0.9540001749992371
78 163 0.9604505896568298
78 164 0.23045969009399414
78 165 0.9680102467536926
78 166 0.9663543701171875
78 167 0.9556769728660583
78 168 0.12858876585960388
78 169 0.8832192420959473
78 170 0.9742273092269897
78 171 0.9594379663467407
78 172 0.953460693359375
78 173 0.14005890488624573
78 174 0.8924936652183533
78 175 0.9679219126701355
78 176 0.9524734020233154
78 177 0.9664146304130554
78 178 0.7845640778541565
78 179 0.9679798483848572
78 180 0.9626500606536865
78 181 0.9726946353912354
78 182 0.962563157081604
78 183 0.16451798379421234
78 184 0.9589328765869141
78 185 0.9260252118110657
78 186 0.16715043783187866
78 187 0.0849061980843544
78 188 0.9695731401443481
78 189 0.19261951744556427
78 190 0.9642520546913147
78 191 0.9689844846725464
78 192 0.9625911712646484
78 193 0.9722226858139038
78 195 0.9636595845222473
78 196 0.19312137365341187
78 198 0.18774227797985077
78 200 0.6412585973739624
78 201 0.9663257002830505
78 202 0.9621154069900513
78 203 0.9642828702926636
78 204 0.16405436396598816
78 205 0.9653186202049255
78 206 0.9637491703033447
78 207 0.9621154069900513
78 208 0.07103762030601501
78 209 0.1816204935312271
78 210 0.13988372683525085
78 211 0.973251461982727
78 212 0.12428995221853256
78 213 0.9662714600563049
78 214 0.13252142071723938
78 215 0.9621464014053345
78 216 0.9523519277572632
78 217 0.9695153832435608
78 218 0.28900811076164246
78 219 0.10643555223941803
78 220 0.055584151297807693
78 221 0.9680102467536926
78 222 0.9288291335105896
78 223 0.10643555223941803
78 224 0.9689571261405945
78 225 0.10771795362234116
78 226 0.9615505337715149
78 227 0.9616116285324097
78 228 0.08285997062921524
78 229 0.10643555223941803
78 230 0.9415765404701233
78 231 0.9705489873886108
78 232 0.18443156778812408
78 233 0.9593784809112549
78 234 0.14120271801948547
78 235 0.9674481749534607
78 236 0.9469053745269775
78 237 0.9753361344337463
78 238 0.07175883650779724
78 239 0.25676262378692627
78 240 0.9588137865066528
78 241 0.96854168176651
78 242 0.9700459837913513
78 243 0.09675959497690201
78 244 0.965179979801178
78 245 0.9513925313949585
78 246 0.0641830563545227
78 247 0.9604505896568298
78 248 0.9690129160881042
78 249 0.07860786467790604
78 250 0.9778931736946106
78 251 0.21569819748401642
78 252 0.9620283842086792
78 253 0.1588449478149414
78 254 0.9605098962783813
78 255 0.9738090634346008
79 80 0.22176164388656616
79 81 0.0653371512889862
79 82 0.12172986567020416
79 83 0.9570515751838684
79 84 0.9431865811347961
79 85 0.938234269618988
79 86 0.14003735780715942
79 87 0.10330711305141449
79 88 0.9502570629119873
79 89 0.2758679986000061
79 90 0.15898628532886505
79 91 0.17488490045070648
79 92 0.9336236715316772
79 93 0.956648051738739
79 94 0.9512402415275574
79 95 0.17296871542930603
79 96 0.9468133449554443
79 97 0.9636378288269043
79 99 0.9571750164031982
79 100 0.9450744986534119
79 101 0.9548879265785217
79 102 0.9577303528785706
79 103 0.12250716239213943
79 104 0.9257956743240356
79 105 0.9524236917495728
79 106 0.9447482228279114
79 107 0.9457495212554932
79 108 0.8771999478340149
79 110 0.94868004322052
79 111 0.1153230294585228
79 112 0.1680784374475479
79 113 0.9531538486480713
79 114 0.27829670906066895
79 115 0.95048588514328
79 116 0.9604407548904419
79 117 0.11840438097715378
79 118 0.9249087572097778
79 119 0.9471238851547241
79 120 0.11316726356744766
79 121 0.9166252613067627
79 122 0.9610557556152344
79 123 0.9454384446144104
79 124 0.9458732008934021
79 125 0.938800573348999
79 126 0.956063449382782
79 127 0.9500560164451599
79 128 0.9582234025001526
79 129 0.9614273309707642
79 130 0.15027545392513275
79 131 0.8634286522865295
79 132 0.9410590529441833
79 133 0.9672465920448303
79 134 0.06601423770189285
79 135 0.9303408265113831
79 136 0.9485572576522827
79 137 0.9420586228370667
79 138 0.9451425075531006
79 139 0.9424312114715576
79 140 0.946075975894928
79 141 0.9513070583343506
79 142 0.9504225850105286
79 143 0.9607000946998596
79 144 0.3504447042942047
79 145 0.9517329931259155
79 146 0.9364656805992126
79 147 0.956190824508667
79 149 0.8408452868461609
79 150 0.9561266303062439
79 151 0.9408642649650574
79 152 0.9519761204719543
79 153 0.9539644718170166
79 154 0.951238751411438
79 155 0.9534726142883301
79 156 0.9467599391937256
79 157 0.9483760595321655
79 159 0.9488708972930908
79 160 0.16634872555732727
79 161 0.9484382271766663
79 162 0.934829592704773
79 163 0.942688524723053
79 164 0.2346036732196808
79 165 0.9517987966537476
79 166 0.9478819966316223
79 167 0.9398649334907532
79 168 0.13090096414089203
79 169 0.8678175806999207
79 170 0.9550139307975769
79 171 0.9395736455917358
79 172 0.9417436122894287
79 173 0.1425773650407791
79 174 0.899364709854126
79 175 0.9547654390335083
79 176 0.9376001954078674
79 177 0.9501221776008606
79 178 0.7741169333457947
79 179 0.9569911956787109
79 180 0.9482458233833313
79 181 0.956619381904602
79 182 0.9491178393363953
79 183 0.16170118749141693
79 184 0.9475582838058472
79 185 0.9107398986816406
79 186 0.17015603184700012
79 187 0.07408536970615387
79 188 0.9513070583343506
79 189 0.19608306884765625
79 190 0.9467599391937256
79 191 0.9474570751190186
79 192 0.9449412226676941
79 193 0.9624746441841125
79 195 0.9471238851547241
79 196 0.18651221692562103
79 198 0.17045672237873077
79 200 0.6241302490234375
79 201 0.9562591910362244
79 202 0.9434543251991272
79 203 0.9468276500701904
79 204 0.1670042723417282
79 205 0.9478819966316223
79 206 0.9525957703590393
79 207 0.9487427473068237
79 208 0.08264569193124771
79 209 0.1680784374475479
79 210 0.1274096518754959
79 211 0.9572380781173706
79 212 0.10965486615896225
79 213 0.952973484992981
79 214 0.1199149638414383
79 215 0.9435235857963562
79 216 0.9351966977119446
79 217 0.9501221776008606
79 218 0.23816585540771484
79 219 0.0689496248960495
79 220 0.05658363178372383
79 221 0.9528493881225586
79 222 0.9159143567085266
79 223 0.059099677950143814
79 224 0.9526578187942505
79 225 0.10121987015008926
79 226 0.9449412226676941
79 227 0.9471887350082397
79 228 0.0759149119257927
79 229 0.09849946945905685
79 230 0.9282841086387634
79 231 0.9553830623626709
79 232 0.17118191719055176
79 233 0.937309205532074
79 234 0.12414059042930603
79 235 0.9522265195846558
79 236 0.9326635003089905
79 237 0.9583483338356018
79 238 0.0730491578578949
79 239 0.23725222051143646
79 240 0.94305819272995
79 241 0.9534071087837219
79 242 0.9622493982315063
79 243 0.07879956811666489
79 244 0.9517979621887207
79 245 0.9375334978103638
79 246 0.0653371512889862
79 247 0.9469348192214966
79 248 0.9517329931259155
79 249 0.05334756150841713
79 250 0.9640740156173706
79 251 0.21957674622535706
79 252 0.9453741312026978
79 253 0.1559261530637741
79 254 0.9460006356239319
79 255 0.958902895450592
80 82 0.055470023304224014
80 83 0.22739019989967346
80 84 0.22530224919319153
80 85 0.19362859427928925
80 86 0.08660253882408142
80 87 0.17888544499874115
80 88 0.22272726893424988
80 89 0.06285393983125687
80 92 0.1993006020784378
80 93 0.21531109511852264
80 94 0.22295773029327393
80 95 0.12909944355487823
80 96 0.22566033899784088
80 97 0.22622349858283997
80 99 0.20876766741275787
80 100 0.2013566642999649
80 101 0.2139682024717331
80 102 0.20866024494171143
80 104 0.22082525491714478
80 105 0.20887525379657745
80 106 0.20701967179775238
80 107 0.2072390913963318
80 108 0.11006882041692734
80 110 0.21084067225456238
80 113 0.21452467143535614
80 114 0.07624929398298264
80 115 0.20093630254268646
80 116 0.2128680944442749
80 118 0.17795130610466003
80 119 0.21073001623153687
80 121 0.20361091196537018
80 122 0.22610780596733093
80 123 0.22023910284042358
80 124 0.22977882623672485
80 125 0.21195681393146515
80 126 0.20898298919200897
80 127 0.21430154144763947
80 128 0.22238293290138245
80 129 0.21762049198150635
80 131 0.22384905815124512
80 132 0.23199421167373657
80 133 0.2243935614824295
80 135 0.20879480242729187
80 136 0.2250644415616989
80 137 0.20712928473949432
80 138 0.2102891504764557
80 139 0.23075556755065918
80 140 0.21725758910179138
80 141 0.22727271914482117
80 142 0.21943214535713196
80 143 0.21840757131576538
80 145 0.21852070093154907
80 146 0.2126350998878479
80 147 0.21762049198150635
80 148 0.1414213627576828
80 149 0.18122312426567078
80 150 0.22692136466503143
80 151 0.21679484844207764
80 152 0.21497300267219543
80 153 0.22261232137680054
80 154 0.2157643884420395
80 155 0.22703830897808075
80 156 0.19647201895713806
80 157 0.21920321881771088
80 159 0.20104114711284637
80 160 0.08728715777397156
80 161 0.22093789279460907
80 162 0.22662368416786194
80 163 0.22058767080307007
80 165 0.209198996424675
80 166 0.21452467143535614
80 167 0.22117231786251068
80 169 0.1905965656042099
80 170 0.19989678263664246
80 171 0.2111736685037613
80 172 0.22211751341819763
80 174 0.2334008514881134
80 175 0.22353699803352356
80 176 0.21702584624290466
80 177 0.2095242738723755
80 178 0.16224172711372375
80 179 0.22307322919368744
80 180 0.21966180205345154
80 181 0.22249755263328552
80 182 0.2203551083803177
80 183 0.05000000447034836
80 184 0.22023910284042358
80 185 0.17639057338237762
80 188 0.2136363536119461
80 189 0.09176629036664963
80 190 0.21474848687648773
80 191 0.20963303744792938
80 192 0.21553738415241241
80 193 0.2085529863834381
80 195 0.21531109511852264
80 196 0.06546536833047867
80 199 0.10000000894069672
80 200 0.1792038381099701
80 201 0.2101793885231018
80 202 0.21977689862251282
80 203 0.20539596676826477
80 204 0.0774596631526947
80 205 0.21908901631832123
80 206 0.21006976068019867
80 207 0.21519821882247925
80 209 0.12126781791448593
80 211 0.22215425968170166
80 213 0.2243555784225464
80 215 0.20582520961761475
80 216 0.21331989765167236
80 217 0.2186340093612671
80 218 0.07580979913473129
80 219 0.08528028428554535
80 221 0.22284241020679474
80 222 0.20893244445323944
80 224 0.22809897363185883
80 226 0.19719377160072327
80 227 0.2242380976676941
80 230 0.17756234109401703
80 231 0.1913047581911087
80 233 0.2024192363023758
80 234 0.11313708871603012
80 235 0.2140791416168213
80 236 0.17736881971359253
80 237 0.19022256135940552
80 238 0.3162277638912201
80 239 0.05222329869866371
80 240 0.2303878366947174
80 241 0.22727271914482117
80 242 0.22307322919368744
80 244 0.22482742369174957
80 245 0.22188007831573486
80 247 0.22518326342105865
80 248 0.22762572765350342
80 250 0.212977334856987
80 252 0.21587814390659332
80 254 0.2201232761144638
80 255 0.22633935511112213
81 83 0.053596388548612595
81 84 0.08670081198215485
81 85 0.07606448978185654
81 86 0.34020692110061646
81 88 0.09642364829778671
81 91 0.10814761370420456
81 92 0.08739646524190903
81 93 0.07558407634496689
81 94 0.09652341902256012
81 95 0.12171611934900284
81 96 0.08683861047029495
81 97 0.08531422168016434
81 98 0.1666666567325592
81 99 0.09627458453178406
81 100 0.09707771986722946
81 102 0.09622504562139511
81 105 0.09632419049739838
81 106 0.08674667030572891
81 107 0.06512895226478577
81 108 0.106132373213768
81 110 0.08642716705799103
81 111 0.3922322690486908
81 112 0.057166192680597305
81 113 0.06454972177743912
81 114 0.1437770277261734
81 115 0.0861111581325531
81 116 0.07472646981477737
81 117 0.21320070326328278
81 118 0.08830215781927109
81 119 0.06478635221719742
81 121 0.08928660303354263
81 122 0.08527059108018875
81 123 0.09733285009860992
81 124 0.08665502071380615
81 125 0.08688469231128693
81 126 0.08566567301750183
81 127 0.09672388434410095
81 128 0.0641830563545227
81 129 0.09617558866739273
81 132 0.0656178668141365
81 133 0.07404609024524689
81 134 0.09622504562139511
81 135 0.0874904915690422
81 136 0.09743546694517136
81 137 0.08679260313510895
81 138 0.08620109409093857
81 139 0.09790129959583282
81 140 0.07626738399267197
81 141 0.09642364829778671
81 142 0.07542596012353897
81 143 0.07507377117872238
81 144 0.1818181574344635
81 145 0.09657341986894608
81 146 0.08716272562742233
81 147 0.09617558866739273
81 149 0.06102100387215614
81 150 0.07488022744655609
81 151 0.09784920513629913
81 152 0.07546538859605789
81 153 0.08566567301750183
81 154 0.09738411754369736
81 155 0.08562150597572327
81 156 0.09692560136318207
81 157 0.06458336114883423
81 159 0.06461706012487411
81 160 0.10286889970302582
81 161 0.08679260313510895
81 162 0.05450582876801491
81 163 0.07582314312458038
81 165 0.08575422316789627
81 166 0.09682458639144897
81 167 0.08688469231128693
81 169 0.09457691758871078
81 170 0.08566567301750183
81 171 0.09738411754369736
81 172 0.08725599944591522
81 173 0.2182178646326065
81 175 0.07526881992816925
81 176 0.06530231237411499
81 177 0.096623495221138
81 178 0.09230523556470871
81 179 0.09657341986894608
81 181 0.08562150597572327
81 182 0.0649227425456047
81 183 0.0589255653321743
81 184 0.08651808649301529
81 185 0.08989331871271133
81 186 0.05986843258142471
81 188 0.09642364829778671
81 189 0.10814761370420456
81 190 0.08615608513355255
81 191 0.08593212813138962
81 192 0.08647259324789047
81 193 0.07480323314666748
81 194 0.3333333134651184
81 195 0.08638180047273636
81 196 0.20573779940605164
81 197 0.1666666567325592
81 201 0.08615608513355255
81 202 0.09712859243154526
81 203 0.08606629818677902
81 205 0.09682458639144897
81 206 0.06458336114883423
81 207 0.06475239247083664
81 208 0.10540925711393356
81 209 0.11433238536119461
81 211 0.0854894146323204
81 212 0.08606629818677902
81 213 0.08633652329444885
81 215 0.08624616265296936
81 216 0.08744344860315323
81 217 0.06441566348075867
81 218 0.14294834434986115
81 221 0.08575422316789627
81 222 0.08953790366649628
81 226 0.08647259324789047
81 227 0.08629130572080612
81 228 0.17213259637355804
81 229 0.10050377994775772
81 230 0.0991227850317955
81 231 0.08588755130767822
81 232 0.11268723011016846
81 233 0.09759000688791275
81 234 0.06666667014360428
81 235 0.07515160739421844
81 236 0.0990147590637207
81 237 0.06405126303434372
81 240 0.07602410763502121
81 241 0.08570990711450577
81 242 0.0858430340886116
81 244 0.06488855928182602
81 245 0.08716272562742233
81 247 0.08665502071380615
81 248 0.07511265575885773
81 249 0.13608276844024658
81 250 0.07476481795310974
81 252 0.08660930395126343
81 253 0.1178511306643486
81 254 0.09728167206048965
81 255 0.07468818128108978
82 83 0.15766672790050507
82 84 0.13390199840068817
82 85 0.14065048098564148
82 88 0.1575852781534195
82 89 0.0653720423579216
82 90 0.12725695967674255
82 91 0.06362847983837128
82 92 0.15425871312618256
82 93 0.16517344117164612
82 94 0.13881853222846985
82 95 0.14322297275066376
82 96 0.1468876749277115
82 97 0.13176053762435913
82 98 0.1961161494255066
82 99 0.1447543352842331
82 100 0.14596189558506012
82 101 0.14520364999771118
82 102 0.14467985928058624
82 104 0.15637251734733582
82 105 0.1448289304971695
82 106 0.13397283852100372
82 107 0.1405012458562851
82 108 0.13876181840896606
82 109 0.1386750489473343
82 110 0.14619170129299164
82 111 0.23076923191547394
82 112 0.2018018364906311
82 113 0.14558129012584686
82 114 0.10573874413967133
82 115 0.15199008584022522
82 116 0.14445710182189941
82 117 0.0836242064833641
82 118 0.15585729479789734
82 119 0.133409321308136
82 121 0.11162972450256348
82 122 0.15677756071090698
82 123 0.14634551107883453
82 124 0.15295003354549408
82 125 0.14057579636573792
82 126 0.13230332732200623
82 127 0.12646076083183289
82 128 0.15734165906906128
82 129 0.15717986226081848
82 130 0.07844646275043488
82 131 0.07941048592329025
82 132 0.09008105844259262
82 133 0.15558892488479614
82 135 0.14799031615257263
82 136 0.1528693288564682
82 137 0.15319287776947021
82 138 0.15848836302757263
82 139 0.15360018610954285
82 140 0.07692307233810425
82 141 0.13867506384849548
82 142 0.13313022255897522
82 143 0.14512847363948822
82 144 0.08914370089769363
82 145 0.15783004462718964
82 146 0.10256410390138626
82 147 0.16346704959869385
82 150 0.1510479897260666
82 151 0.1471218764781952
82 152 0.13319984078407288
82 153 0.13860347867012024
82 154 0.12095778435468674
82 155 0.157422736287117
82 156 0.16474182903766632
82 157 0.13299132883548737
82 159 0.14573316276073456
82 160 0.18156826496124268
82 161 0.14680984616279602
82 162 0.12185999006032944
82 163 0.1465771198272705
82 164 0.14824986457824707
82 165 0.15766672790050507
82 166 0.14558129012584686
82 167 0.14057579636573792
82 169 0.09042179584503174
82 170 0.15120378136634827
82 171 0.16552117466926575
82 172 0.15401078760623932
82 174 0.07575226575136185
82 175 0.14550553262233734
82 176 0.1344718039035797
82 177 0.1452789455652237
82 178 0.09309881180524826
82 179 0.13889044523239136
82 180 0.15230806171894073
82 181 0.16371963918209076
82 182 0.114591583609581
82 183 0.17334382236003876
82 184 0.15270833671092987
82 185 0.13883255422115326
82 187 0.2223747968673706
82 188 0.15128186345100403
82 189 0.12725695967674255
82 190 0.158405601978302
82 191 0.1516740918159485
82 192 0.15898752212524414
82 193 0.15717986226081848
82 195 0.15882061421871185
82 197 0.1961161494255066
82 198 0.12403473258018494
82 200 0.10513927042484283
82 201 0.15206937491893768
82 202 0.16508685052394867
82 203 0.15824052691459656
82 205 0.14558129012584686
82 206 0.15199008584022522
82 207 0.14603838324546814
82 208 0.06201736629009247
82 209 0.16816820204257965
82 210 0.08998425304889679
82 211 0.1383182853460312
82 212 0.05063696950674057
82 213 0.12064039707183838
82 214 0.1349763721227646
82 215 0.15222837030887604
82 216 0.15434162318706512
82 217 0.13896247744560242
82 218 0.1682068556547165
82 219 0.11826248466968536
82 221 0.15136006474494934
82 222 0.14486858248710632
82 223 0.3547874391078949
82 224 0.15815816819667816
82 225 0.10127393901348114
82 226 0.15262803435325623
82 227 0.16500039398670197
82 228 0.20254787802696228
82 229 0.05913124233484268
82 230 0.14255692064762115
82 231 0.15159541368484497
82 233 0.15949146449565887
82 234 0.11766968667507172
82 235 0.15159541368484497
82 236 0.1424015462398529
82 237 0.14445710182189941
82 239 0.07242067903280258
82 240 0.14057579636573792
82 241 0.15128186345100403
82 242 0.1262640357017517
82 243 0.11826248466968536
82 244 0.12725695967674255
82 245 0.16025641560554504
82 247 0.15932294726371765
82 248 0.15783004462718964
82 249 0.1601281613111496
82 250 0.1508151888847351
82 252 0.15923888981342316
82 253 0.06933752447366714
82 254 0.15898752212524414
82 255 0.1569380909204483
83 84 0.9577158689498901
83 85 0.9560636281967163
83 86 0.10502704232931137
83 87 0.08135358989238739
83 88 0.9674419164657593
83 89 0.2715550363063812
83 90 0.18258412182331085
83 91 0.1773674339056015
83 92 0.9474833607673645
83 93 0.961483895778656
83 94 0.96637362241745
83 95 0.14090855419635773
83 96 0.9560964107513428
83 97 0.9722350835800171
83 99 0.9700742959976196
83 100 0.9604765772819519
83 101 0.9689446091651917
83 102 0.9706066250801086
83 103 0.09647349268198013
83 104 0.9423044323921204
83 105 0.9695417284965515
83 106 0.9571762681007385
83 107 0.9550492167472839
83 108 0.8828259706497192
83 110 0.9578197598457336
83 111 0.1387467384338379
83 112 0.17096570134162903
83 113 0.9673130512237549
83 114 0.27394577860832214
83 115 0.9647020101547241
83 116 0.9742616415023804
83 117 0.13026538491249084
83 118 0.9423941969871521
83 119 0.9625255465507507
83 120 0.11139799654483795
83 121 0.9292126893997192
83 122 0.9748228192329407
83 123 0.9609141945838928
83 124 0.9582550525665283
83 125 0.9566037654876709
83 126 0.9679757356643677
83 127 0.9642333984375
83 128 0.9752342700958252
83 129 0.9690768122673035
83 130 0.1607891470193863
83 131 0.8546647429466248
83 132 0.9495577812194824
83 133 0.9817190766334534
83 134 0.09283167123794556
83 135 0.9474477171897888
83 136 0.9556605815887451
83 137 0.9555898308753967
83 138 0.9625909328460693
83 139 0.9507846236228943
83 140 0.9502049088478088
83 141 0.966408371925354
83 142 0.9657094478607178
83 143 0.968442976474762
83 144 0.3303486108779907
83 145 0.9679093956947327
83 146 0.9502049088478088
83 147 0.9711386561393738
83 149 0.8453601598739624
83 150 0.9690423011779785
83 151 0.9523765444755554
83 152 0.9641343355178833
83 153 0.9679757356643677
83 154 0.9572447538375854
83 155 0.9705742001533508
83 156 0.9631273746490479
83 157 0.9678173065185547
83 159 0.9662443399429321
83 160 0.18359626829624176
83 161 0.9545432329177856
83 162 0.9601779580116272
83 163 0.9582550525665283
83 164 0.2511933743953705
83 165 0.9669079780578613
83 166 0.9621236324310303
83 167 0.9545083045959473
83 168 0.12127477675676346
83 169 0.8713579177856445
83 170 0.96900874376297
83 171 0.9582886099815369
83 172 0.9491172432899475
83 173 0.11227863281965256
83 174 0.8875623345375061
83 175 0.9657723307609558
83 176 0.9523413777351379
83 177 0.9642683863639832
83 178 0.7950900197029114
83 179 0.9679093956947327
83 180 0.9656795859336853
83 181 0.9736717939376831
83 182 0.9614202976226807
83 183 0.1591731458902359
83 184 0.9588274359703064
83 185 0.922518253326416
83 186 0.1732715219259262
83 187 0.07292710244655609
83 188 0.9684755206108093
83 189 0.16171737015247345
83 190 0.9631273746490479
83 191 0.965805172920227
83 192 0.9583232402801514
83 193 0.9721695780754089
83 195 0.9604421854019165
83 196 0.16871008276939392
83 198 0.20338398218154907
83 200 0.6300452351570129
83 201 0.9631273746490479
83 202 0.9588975310325623
83 203 0.9621236324310303
83 204 0.17026449739933014
83 205 0.9641993641853333
83 206 0.9647020101547241
83 207 0.9661855697631836
83 208 0.08135358989238739
83 209 0.1764807254076004
83 210 0.14017273485660553
83 211 0.9701077342033386
83 212 0.0913342833518982
83 213 0.9609798192977905
83 214 0.13279521465301514
83 215 0.9610141515731812
83 216 0.9479926824569702
83 217 0.9704827666282654
83 218 0.2758145034313202
83 219 0.10665546357631683
83 220 0.055698998272418976
83 221 0.9658737778663635
83 222 0.9307482838630676
83 223 0.10665546357631683
83 224 0.9668096303939819
83 225 0.1162436306476593
83 226 0.9583232402801514
83 227 0.9635984301567078
83 228 0.09963739663362503
83 229 0.09695951640605927
83 230 0.9424593448638916
83 231 0.9663398265838623
83 232 0.15763430297374725
83 233 0.9561302065849304
83 234 0.14792603254318237
83 235 0.9673755764961243
83 236 0.9424935579299927
83 237 0.9732317924499512
83 238 0.07190710306167603
83 239 0.25333476066589355
83 240 0.9586992859840393
83 241 0.9684755206108093
83 242 0.9668741822242737
83 243 0.10665546357631683
83 244 0.9598708152770996
83 245 0.9491537809371948
83 247 0.9551200270652771
83 248 0.9699797630310059
83 249 0.06564190238714218
83 250 0.9737312197685242
83 251 0.21614384651184082
83 252 0.959838330745697
83 253 0.1648579090833664
83 254 0.9614515900611877
83 255 0.9768504500389099
84 85 0.9432995915412903
84 86 0.1460062712430954
84 87 0.10281451791524887
84 88 0.958266019821167
84 89 0.263714998960495
84 90 0.1898738443851471
84 91 0.17405101656913757
84 92 0.9355652928352356
84 93 0.951033353805542
84 94 0.9550731778144836
84 95 0.16620796918869019
84 96 0.9465337991714478
84 97 0.965283989906311
84 99 0.9609581232070923
84 100 0.9500369429588318
84 101 0.9545212984085083
84 102 0.9583778977394104
84 103 0.11379481106996536
84 104 0.9235416054725647
84 105 0.9572775959968567
84 106 0.9444739818572998
84 107 0.9444162249565125
84 108 0.8592146039009094
84 110 0.9525864124298096
84 111 0.13390199840068817
84 112 0.17285290360450745
84 113 0.9570038318634033
84 114 0.29099351167678833
84 115 0.9554027915000916
84 116 0.9641911387443542
84 117 0.1386350691318512
84 118 0.9269582033157349
84 119 0.9499801397323608
84 120 0.09385638684034348
84 121 0.9209634065628052
84 122 0.9616715312004089
84 123 0.948314368724823
84 124 0.9487587809562683
84 125 0.9480953812599182
84 126 0.9609048366546631
84 127 0.9539119601249695
84 128 0.9588713049888611
84 129 0.9589276313781738
84 130 0.1495589017868042
84 131 0.8365722298622131
84 132 0.9397719502449036
84 133 0.970888614654541
84 134 0.10324202477931976
84 135 0.9419053792953491
84 136 0.9524821043014526
84 137 0.9460322856903076
84 138 0.9521966576576233
84 139 0.9421815872192383
84 140 0.9447529911994934
84 141 0.9551309943199158
84 142 0.9511456489562988
84 143 0.9571653008460999
84 144 0.33399516344070435
84 145 0.9555678963661194
84 146 0.9458156824111938
84 147 0.9589276313781738
84 149 0.8427878022193909
84 150 0.9599146842956543
84 151 0.9406198263168335
84 152 0.9526945352554321
84 153 0.9577714800834656
84 154 0.9498692750930786
84 155 0.9604093432426453
84 156 0.9548509120941162
84 157 0.9522531628608704
84 159 0.9538004994392395
84 160 0.18562287092208862
84 161 0.9492068290710449
84 162 0.9463213086128235
84 163 0.9498152732849121
84 164 0.2293887883424759
84 165 0.9577158689498901
84 166 0.9601517915725708
84 167 0.9427987337112427
84 168 0.12261345982551575
84 169 0.8809763193130493
84 170 0.9640381932258606
84 171 0.9498692750930786
84 172 0.9415085911750793
84 173 0.12770776450634003
84 174 0.8836595416069031
84 175 0.9554569721221924
84 176 0.9416220784187317
84 177 0.9571105241775513
84 178 0.7781429290771484
84 179 0.9555678963661194
84 180 0.9510890245437622
84 181 0.9583215117454529
84 182 0.9498692750930786
84 183 0.16667766869068146
84 184 0.9504240155220032
84 185 0.917357325553894
84 186 0.15766574442386627
84 188 0.958266019821167
84 189 0.17405101656913757
84 190 0.952750027179718
84 191 0.9534164667129517
84 192 0.9467613697052002
84 193 0.9599699974060059
84 195 0.955246090888977
84 196 0.20067338645458221
84 198 0.20048829913139343
84 200 0.6417537331581116
84 201 0.9516995549201965
84 202 0.9473767876625061
84 203 0.9528064131736755
84 204 0.16620796918869019
84 205 0.9528064131736755
84 206 0.9501533508300781
84 207 0.9515873789787292
84 208 0.061688706278800964
84 209 0.1784287989139557
84 210 0.08950737863779068
84 211 0.9610123038291931
84 212 0.12592154741287231
84 213 0.9547452926635742
84 214 0.12680211663246155
84 215 0.9537460803985596
84 216 0.9360681176185608
84 217 0.960252046585083
84 218 0.29280203580856323
84 219 0.10783277451992035
84 221 0.9577158689498901
84 222 0.9148221611976624
84 223 0.0882268100976944
84 224 0.9607009887695312
84 225 0.10073723644018173
84 226 0.9520328640937805
84 227 0.9489848613739014
84 228 0.10913200676441193
84 229 0.10783277451992035
84 230 0.9281548261642456
84 231 0.9550161957740784
84 232 0.17036567628383636
84 233 0.9455316066741943
84 234 0.1495589017868042
84 235 0.9571105241775513
84 236 0.9335817694664001
84 237 0.9610673785209656
84 238 0.07270084321498871
84 239 0.23612093925476074
84 240 0.9502139687538147
84 241 0.9561759829521179
84 242 0.9597544074058533
84 243 0.0882268100976944
84 244 0.953588604927063
84 245 0.9394394159317017
84 247 0.9455891847610474
84 248 0.9566145539283752
84 249 0.07963977754116058
84 250 0.9605188369750977
84 251 0.21852974593639374
84 252 0.9503701329231262
84 253 0.16667766869068146
84 254 0.9467613697052002
84 255 0.9636970162391663
85 86 0.09315959364175797
85 87 0.06185238063335419
85 88 0.954521894454956
85 89 0.27890318632125854
85 90 0.1798010915517807
85 91 0.1903776228427887
85 92 0.9369791746139526
85 93 0.948276698589325
85 94 0.960753858089447
85 95 0.1368902176618576
85 96 0.943737268447876
85 97 0.9605445861816406
85 99 0.9572307467460632
85 100 0.9483380913734436
85 101 0.9612514972686768
85 102 0.9567382335662842
85 103 0.1140967383980751
85 104 0.9281580448150635
85 105 0.9587708115577698
85 106 0.9469798803329468
85 107 0.956476092338562
85 108 0.8695671558380127
85 110 0.9508877396583557
85 111 0.1342572718858719
85 112 0.16772080957889557
85 113 0.954282283782959
85 114 0.25309786200523376
85 115 0.9505689740180969
85 116 0.9594412446022034
85 117 0.11120231449604034
85 118 0.9294176697731018
85 119 0.9503886103630066
85 120 0.11292648315429688
85 121 0.934321939945221
85 122 0.9600534439086914
85 123 0.9465998411178589
85 124 0.9470387101173401
85 125 0.9399895071983337
85 126 0.9603126645088196
85 127 0.9511876702308655
85 128 0.9593231081962585
85 129 0.9562464952468872
85 130 0.13691608607769012
85 131 0.8303919434547424
85 132 0.9390567541122437
85 133 0.9703611731529236
85 134 0.10351595282554626
85 135 0.9401262998580933
85 136 0.9444215297698975
85 137 0.9432372450828552
85 138 0.949454128742218
85 139 0.9393622279167175
85 140 0.9408664107322693
85 141 0.9534740447998047
85 142 0.954723060131073
85 143 0.9534118175506592
85 144 0.3111729025840759
85 145 0.9528562426567078
85 146 0.9408664107322693
85 147 0.9572916030883789
85 149 0.8426368832588196
85 150 0.9572307467460632
85 151 0.9452420473098755
85 152 0.9499505758285522
85 153 0.9582181572914124
85 154 0.9460402131080627
85 155 0.9587708115577698
85 156 0.9500117897987366
85 157 0.9537269473075867
85 159 0.9584375619888306
85 160 0.18611538410186768
85 161 0.9421762824058533
85 162 0.9403032660484314
85 163 0.9480980634689331
85 164 0.2464257925748825
85 165 0.9550153017044067
85 166 0.9511259198188782
85 167 0.9431759119033813
85 168 0.12293878942728043
85 169 0.8717520236968994
85 170 0.9582181572914124
85 171 0.9492148160934448
85 172 0.9376065731048584
85 173 0.10670550167560577
85 174 0.8757016658782959
85 175 0.9579920172691345
85 176 0.94624924659729
85 177 0.9544003009796143
85 178 0.7724698781967163
85 179 0.9518068432807922
85 180 0.954667329788208
85 181 0.9566773772239685
85 182 0.9492148160934448
85 183 0.16135714948177338
85 184 0.9434268474578857
85 185 0.9120989441871643
85 186 0.15808406472206116
85 187 0.061606451869010925
85 188 0.9566174149513245
85 189 0.14278320968151093
85 190 0.9521182179450989
85 191 0.955946147441864
85 192 0.9461020231246948
85 193 0.9572916030883789
85 195 0.948276698589325
85 196 0.19617566466331482
85 198 0.19071151316165924
85 200 0.6402789354324341
85 201 0.9500117897987366
85 202 0.9520013332366943
85 203 0.950073778629303
85 204 0.17260070145130157
85 205 0.9511259198188782
85 206 0.9526743292808533
85 207 0.9530567526817322
85 208 0.08246984332799911
85 209 0.12858596444129944
85 210 0.13461731374263763
85 211 0.9593817591667175
85 212 0.10942155867815018
85 213 0.9467240571975708
85 214 0.13461731374263763
85 215 0.9499505758285522
85 216 0.9364138245582581
85 217 0.9627998471260071
85 218 0.26911401748657227
85 219 0.08846089988946915
85 221 0.9560636281967163
85 222 0.9150601625442505
85 223 0.0786319151520729
85 224 0.9548372626304626
85 225 0.10942155867815018
85 226 0.9471591114997864
85 227 0.9462282657623291
85 228 0.08417043834924698
85 229 0.06880292296409607
85 230 0.9327716827392578
85 231 0.9533503651618958
85 232 0.18734844028949738
85 233 0.945919394493103
85 234 0.0977972075343132
85 235 0.9575501680374146
85 236 0.9263753890991211
85 237 0.9615293145179749
85 239 0.24878542125225067
85 240 0.9463622570037842
85 241 0.9629040360450745
85 242 0.9539056420326233
85 243 0.09828989207744598
85 244 0.9476574659347534
85 245 0.9366043210029602
85 246 0.0651981383562088
85 247 0.9438607096672058
85 248 0.9591526389122009
85 250 0.9588891267776489
85 251 0.21454477310180664
85 252 0.9454803466796875
85 253 0.1498316377401352
85 254 0.9492733478546143
85 255 0.9620800018310547
86 87 0.06454972177743912
86 88 0.15089836716651917
86 91 0.06622661650180817
86 92 0.1538676917552948
86 93 0.1256323605775833
86 94 0.1444869041442871
86 95 0.18633902072906494
86 96 0.13959112763404846
86 97 0.1567322313785553
86 98 0.10206206887960434
86 99 0.1441144347190857
86 100 0.15192195773124695
86 101 0.11170681565999985
86 102 0.15713483095169067
86 103 0.1530930995941162
86 104 0.09494199603796005
86 105 0.12452660501003265
86 106 0.1460835039615631
86 107 0.1262967437505722
86 108 0.1733134239912033
86 110 0.1521611511707306
86 111 0.1601281613111496
86 113 0.12517350912094116
86 114 0.2641352713108063
86 115 0.1516047865152359
86 116 0.150355726480484
86 117 0.34815531969070435
86 118 0.11490684002637863
86 119 0.1256323605775833
86 121 0.1503608226776123
86 122 0.1501249223947525
86 123 0.1390758901834488
86 124 0.1591954380273819
86 125 0.14631593227386475
86 126 0.15082049369812012
86 127 0.15136821568012238
86 128 0.12446246296167374
86 129 0.14396624267101288
86 131 0.10519479215145111
86 132 0.12724483013153076
86 133 0.14250905811786652
86 134 0.2357022613286972
86 135 0.12054773420095444
86 136 0.15911144018173218
86 137 0.1395171880722046
86 138 0.13856633007526398
86 139 0.1598721444606781
86 140 0.14011213183403015
86 141 0.15745915472507477
86 142 0.12536953389644623
86 143 0.1510545015335083
86 144 0.18556740880012512
86 145 0.144561767578125
86 146 0.14678414165973663
86 147 0.15051016211509705
86 149 0.1270497739315033
86 150 0.1375637799501419
86 151 0.15978708863258362
86 152 0.15184247493743896
86 153 0.12459083646535873
86 154 0.1590275913476944
86 155 0.13763466477394104
86 156 0.15168389678001404
86 157 0.11864722520112991
86 159 0.09232933074235916
86 160 0.09449111670255661
86 161 0.1328735053539276
86 162 0.12016032636165619
86 163 0.1392960250377655
86 165 0.14441218972206116
86 166 0.1515258252620697
86 167 0.1330144852399826
86 169 0.14479076862335205
86 170 0.14426307380199432
86 171 0.15240146219730377
86 172 0.1335829198360443
86 173 0.17817415297031403
86 174 0.10034875571727753
86 175 0.1316930055618286
86 176 0.1266328990459442
86 177 0.15121112763881683
86 178 0.16150052845478058
86 179 0.1577037274837494
86 180 0.09907953441143036
86 181 0.14418870210647583
86 182 0.1258968561887741
86 183 0.18042197823524475
86 184 0.1523212194442749
86 185 0.1376204788684845
86 188 0.15089836716651917
86 189 0.29801976680755615
86 190 0.13849399983882904
86 191 0.1315561830997467
86 192 0.14562195539474487
86 193 0.14396624267101288
86 194 0.20412413775920868
86 195 0.15208128094673157
86 196 0.1574852019548416
86 197 0.10206206887960434
86 200 0.12932921946048737
86 201 0.15168389678001404
86 202 0.15861031413078308
86 203 0.1515258252620697
86 205 0.15811389684677124
86 206 0.13183024525642395
86 207 0.11895774304866791
86 208 0.12909944355487823
86 209 0.14002801477909088
86 211 0.14396624267101288
86 212 0.05270463228225708
86 213 0.15200155973434448
86 215 0.1452406346797943
86 216 0.14725688099861145
86 217 0.11176473647356033
86 218 0.08753762394189835
86 221 0.15097637474536896
86 222 0.157637819647789
86 224 0.11852369457483292
86 226 0.13900277018547058
86 227 0.1387113481760025
86 228 0.10540926456451416
86 229 0.06154574826359749
86 230 0.12814459204673767
86 231 0.13806232810020447
86 232 0.17251640558242798
86 233 0.13280318677425385
86 234 0.12247448414564133
86 235 0.11176473647356033
86 236 0.16169041395187378
86 237 0.13728131353855133
86 239 0.05025189369916916
86 240 0.12636376917362213
86 241 0.15089836716651917
86 242 0.1511327475309372
86 244 0.12583057582378387
86 245 0.15345615148544312
86 247 0.15256230533123016
86 248 0.12484879791736603
86 249 0.0833333358168602
86 250 0.1438923180103302
86 251 0.17149858176708221
86 252 0.13922251760959625
86 253 0.14433757960796356
86 254 0.15886029601097107
86 255 0.11107552796602249
87 88 0.09147550910711288
87 89 0.07027283310890198
87 90 0.051298920065164566
87 92 0.07254762202501297
87 93 0.10243622213602066
87 94 0.1017446219921112
87 95 0.2309400886297226
87 96 0.09268013387918472
87 97 0.08093617856502533
87 99 0.08118585497140884
87 100 0.0920960083603859
87 101 0.10179731994867325
87 102 0.09128709137439728
87 103 0.23717081546783447
87 104 0.09455367922782898
87 105 0.09138115495443344
87 106 0.09258200228214264
87 107 0.08238234370946884
87 108 0.06712400168180466
87 110 0.10249000787734985
87 111 0.12403473258018494
87 112 0.10846523195505142
87 113 0.09185586124658585
87 115 0.09190374612808228
87 116 0.06076435744762421
87 117 0.06741998344659805
87 118 0.07329943031072617
87 119 0.08194897323846817
87 121 0.06352853029966354
87 122 0.10111849009990692
87 123 0.10259783267974854
87 124 0.09248419106006622
87 125 0.10303258150815964
87 126 0.09142829477787018
87 127 0.09176032990217209
87 128 0.09133408963680267
87 129 0.09124016761779785
87 131 0.10476454347372055
87 132 0.10375096648931503
87 133 0.09031666070222855
87 135 0.09337586909532547
87 136 0.09243540465831757
87 137 0.10292337089776993
87 138 0.10222192108631134
87 139 0.10319703072309494
87 140 0.07235359400510788
87 141 0.10163945704698563
87 142 0.10222192108631134
87 143 0.1017446219921112
87 144 0.1149919182062149
87 145 0.10179731994867325
87 146 0.10336227715015411
87 147 0.10137796401977539
87 149 0.08104544878005981
87 150 0.1014823243021965
87 151 0.07219948619604111
87 152 0.10227537155151367
87 153 0.09142829477787018
87 154 0.0718563124537468
87 155 0.10153461992740631
87 156 0.09195169806480408
87 157 0.10211528092622757
87 159 0.08173484355211258
87 161 0.10292337089776993
87 162 0.08273403346538544
87 163 0.09248419106006622
87 165 0.10169199109077454
87 166 0.10206206887960434
87 167 0.08242606371641159
87 169 0.07850810140371323
87 170 0.09142829477787018
87 171 0.10265187174081802
87 172 0.10347288846969604
87 173 0.0690065547823906
87 174 0.08883406966924667
87 175 0.0816071629524231
87 176 0.10325203090906143
87 177 0.08148008584976196
87 178 0.10007821768522263
87 179 0.10179731994867325
87 180 0.0920960083603859
87 181 0.10153461992740631
87 182 0.08212149888277054
87 183 0.11180339008569717
87 184 0.10259783267974854
87 185 0.10660035908222198
87 186 0.05679618567228317
87 188 0.08131156116724014
87 189 0.3077934980392456
87 190 0.09195169806480408
87 191 0.0815223827958107
87 192 0.09228949248790741
87 193 0.09124016761779785
87 195 0.09219259768724442
87 200 0.061647988855838776
87 201 0.09195169806480408
87 202 0.10238251835107803
87 203 0.09185586124658585
87 205 0.10206206887960434
87 206 0.08169221878051758
87 207 0.10238251835107803
87 209 0.21693046391010284
87 211 0.08110237121582031
87 212 0.08164965361356735
87 213 0.10238251835107803
87 215 0.10227537155151367
87 216 0.07258661836385727
87 217 0.061110060662031174
87 219 0.09534625709056854
87 221 0.09152279049158096
87 222 0.08494311571121216
87 223 0.09534625709056854
87 224 0.10200896114110947
87 226 0.09228949248790741
87 227 0.08186312019824982
87 228 0.08164965361356735
87 229 0.09534625709056854
87 231 0.07129507511854172
87 232 0.053452249616384506
87 233 0.10286889225244522
87 234 0.06324554979801178
87 235 0.08148008584976196
87 236 0.0834965705871582
87 237 0.08101914823055267
87 238 0.1414213627576828
87 239 0.07784989476203918
87 240 0.10303258150815964
87 241 0.09147550910711288
87 242 0.10179731994867325
87 244 0.09233804792165756
87 245 0.10336227715015411
87 246 0.15811388194561005
87 247 0.08220817148685455
87 248 0.10179731994867325
87 250 0.07092813402414322
87 252 0.10270600765943527
87 253 0.11180339008569717
87 254 0.09228949248790741
87 255 0.0910998284816742
88 89 0.2642722427845001
88 90 0.1981317698955536
88 91 0.1981317698955536
88 92 0.9512073993682861
88 93 0.9609870910644531
88 94 0.9689767360687256
88 95 0.17017653584480286
88 96 0.957695722579956
88 97 0.9717327356338501
88 98 0.06428243219852448
88 99 0.96854168176651
88 100 0.9610204100608826
88 101 0.9663746953010559
88 102 0.9711360335350037
88 103 0.09642364829778671
88 104 0.9343429207801819
88 105 0.9711048007011414
88 106 0.9545906782150269
88 107 0.9535091519355774
88 108 0.8800957202911377
88 110 0.9604499936103821
88 111 0.1575852781534195
88 112 0.1819017082452774
88 113 0.9637011885643005
88 114 0.2945995032787323
88 115 0.9673172235488892
88 116 0.971699595451355
88 117 0.15075567364692688
88 118 0.9397786855697632
88 119 0.9609870910644531
88 120 0.07422696053981781
88 121 0.933037281036377
88 122 0.9732913970947266
88 123 0.9604177474975586
88 124 0.9567155241966248
88 125 0.957156777381897
88 126 0.9695407152175903
88 127 0.9647715091705322
88 128 0.9706045985221863
88 129 0.9737281203269958
88 130 0.15427783131599426
88 131 0.8423917889595032
88 132 0.9480127096176147
88 133 0.9812118411064148
88 134 0.10206207633018494
88 135 0.9490671753883362
88 136 0.960386335849762
88 137 0.9582344889640808
88 138 0.9652105569839478
88 139 0.9523911476135254
88 140 0.9507644772529602
88 141 0.969008207321167
88 142 0.9610546827316284
88 143 0.9658743143081665
88 144 0.3418656587600708
88 145 0.9653400182723999
88 146 0.9528656601905823
88 147 0.974758505821228
88 149 0.8437466025352478
88 150 0.9706045985221863
88 151 0.9539811611175537
88 152 0.9625967144966125
88 153 0.9685081243515015
88 154 0.956750214099884
88 155 0.9711048007011414
88 156 0.9626297950744629
88 157 0.9631656408309937
88 159 0.961591362953186
88 160 0.20333939790725708
88 161 0.9540500640869141
88 162 0.9491705298423767
88 163 0.9588043689727783
88 164 0.2389153689146042
88 165 0.966408371925354
88 166 0.9657759666442871
88 167 0.9529678821563721
88 168 0.10606059432029724
88 169 0.870907723903656
88 170 0.9695407152175903
88 171 0.9577935338020325
88 172 0.9496785998344421
88 173 0.140275776386261
88 174 0.8792034387588501
88 175 0.9642365574836731
88 176 0.9539481997489929
88 177 0.9689461588859558
88 178 0.7794214487075806
88 179 0.9663746953010559
88 180 0.9599803686141968
88 181 0.9721367359161377
88 182 0.956750214099884
88 183 0.17613635957241058
88 184 0.9604177474975586
88 185 0.9198747277259827
88 186 0.17895472049713135
88 187 0.07288942486047745
88 188 0.9710744023323059
88 189 0.19291776418685913
88 190 0.961591362953186
88 191 0.9653061628341675
88 192 0.9609548449516296
88 193 0.9696065187454224
88 195 0.9630694389343262
88 196 0.17854191362857819
88 197 0.06428243219852448
88 198 0.1931149661540985
88 200 0.6422515511512756
88 201 0.9636682271957397
88 202 0.9604833126068115
88 203 0.9668132662773132
88 204 0.16430838406085968
88 205 0.9657759666442871
88 206 0.9621278047561646
88 207 0.9615238904953003
88 208 0.08131156116724014
88 209 0.18741388618946075
88 210 0.1253529042005539
88 211 0.9696065187454224
88 212 0.12448239326477051
88 213 0.9594427347183228
88 214 0.1253529042005539
88 215 0.964675784111023
88 216 0.947502851486206
88 217 0.9679110050201416
88 218 0.2997933328151703
88 219 0.10660036653280258
88 221 0.9705427289009094
88 222 0.9378217458724976
88 223 0.10660036653280258
88 224 0.9652733206748962
88 225 0.1161835715174675
88 226 0.966166079044342
88 227 0.9631005525588989
88 228 0.1161835715174675
88 229 0.10660036653280258
88 230 0.9494063258171082
88 231 0.9668757319450378
88 232 0.19015000760555267
88 233 0.9566817879676819
88 234 0.1607060730457306
88 235 0.9668757319450378
88 236 0.9430674314498901
88 237 0.971699595451355
88 238 0.07186995446681976
88 239 0.2571601867675781
88 240 0.957156777381897
88 241 0.9679751992225647
88 242 0.9653400182723999
88 243 0.10660036653280258
88 244 0.9572893381118774
88 245 0.9549667835235596
88 247 0.9567155241966248
88 248 0.9663746953010559
88 249 0.07872957736253738
88 250 0.9701384902000427
88 251 0.21603219211101532
88 252 0.9582985639572144
88 253 0.14204543828964233
88 254 0.9609548449516296
88 255 0.9763457179069519
89 90 0.37851667404174805
89 91 0.0901230126619339
89 92 0.26218941807746887
89 93 0.2807408571243286
89 94 0.2788454294204712
89 96 0.26051583886146545
89 97 0.2737164795398712
89 99 0.2709951102733612
89 100 0.2768512964248657
89 101 0.2825666666030884
89 102 0.2851112484931946
89 103 0.1388888955116272
89 104 0.2879307270050049
89 105 0.27113476395606995
89 106 0.2638544738292694
89 107 0.27498894929885864
89 108 0.2555038630962372
89 110 0.28088828921318054
89 113 0.25819888710975647
89 115 0.2619214653968811
89 116 0.2846722900867462
89 117 0.0947558730840683
89 118 0.25754794478416443
89 119 0.27714163064956665
89 121 0.2641395330429077
89 122 0.2877882719039917
89 123 0.2667641043663025
89 124 0.27440759539604187
89 125 0.2751348912715912
89 126 0.2819828391075134
89 127 0.24360087513923645
89 128 0.2745608687400818
89 129 0.27071648836135864
89 130 0.08888889104127884
89 131 0.274033784866333
89 132 0.27705326676368713
89 133 0.28208038210868835
89 135 0.29163500666618347
89 136 0.2526104748249054
89 137 0.2784596085548401
89 138 0.2765618562698364
89 139 0.2828259766101837
89 140 0.26875174045562744
89 141 0.2821284830570221
89 142 0.2765618562698364
89 143 0.2752705216407776
89 144 0.09090909361839294
89 145 0.2825666666030884
89 146 0.28691065311431885
89 147 0.2814026474952698
89 149 0.2644243538379669
89 150 0.2816922962665558
89 151 0.28629955649375916
89 152 0.2767064571380615
89 153 0.2855522334575653
89 154 0.2813319265842438
89 155 0.28183746337890625
89 156 0.27641746401786804
89 157 0.2834492325782776
89 159 0.28718698024749756
89 160 0.10286889970302582
89 161 0.28569233417510986
89 162 0.25799426436424255
89 163 0.2635757327079773
89 164 0.09799078851938248
89 165 0.28584742546081543
89 166 0.2761293649673462
89 167 0.2896156907081604
89 168 0.07856741547584534
89 169 0.2640272378921509
89 170 0.2855522334575653
89 171 0.26690465211868286
89 172 0.290853351354599
89 174 0.3004262149333954
89 175 0.283154159784317
89 176 0.2866046130657196
89 177 0.23619075119495392
89 178 0.21977436542510986
89 179 0.2539523243904114
89 180 0.28404223918914795
89 181 0.28183746337890625
89 182 0.29215237498283386
89 183 0.058925561606884
89 184 0.28118377923965454
89 185 0.23971551656723022
89 186 0.05986843630671501
89 188 0.27498599886894226
89 190 0.27641746401786804
89 191 0.2721184492111206
89 192 0.288241982460022
89 193 0.27071648836135864
89 195 0.266343891620636
89 196 0.15430335700511932
89 197 0.1111111119389534
89 198 0.05270462483167648
89 200 0.16245673596858978
89 201 0.28718698024749756
89 202 0.2841910421848297
89 203 0.25819888710975647
89 204 0.1420021504163742
89 205 0.26178500056266785
89 206 0.2906251549720764
89 207 0.2733989953994751
89 210 0.05098127946257591
89 211 0.2885267436504364
89 212 0.1147550642490387
89 213 0.26980161666870117
89 214 0.22941575944423676
89 215 0.27311286330223083
89 216 0.27326077222824097
89 217 0.26839858293533325
89 218 0.05956181138753891
89 219 0.10050377994775772
89 221 0.2715550363063812
89 222 0.2499600052833557
89 223 0.06700251996517181
89 224 0.2544803023338318
89 225 0.14344382286071777
89 226 0.2702268660068512
89 227 0.28044673800468445
89 230 0.24964258074760437
89 231 0.26839858293533325
89 232 0.11268723756074905
89 233 0.2783122658729553
89 234 0.08888889104127884
89 235 0.28629183769226074
89 236 0.22003279626369476
89 237 0.2811138927936554
89 240 0.26065412163734436
89 241 0.27141475677490234
89 242 0.2611059248447418
89 243 0.16750630736351013
89 244 0.28478872776031494
89 245 0.23969750106334686
89 246 0.1666666567325592
89 247 0.28523945808410645
89 248 0.2825666666030884
89 249 0.09072184562683105
89 250 0.2741376757621765
89 252 0.28148022294044495
89 253 0.15713484585285187
89 254 0.2666238248348236
89 255 0.2809698283672333
90 91 0.10526315867900848
90 92 0.17013095319271088
90 93 0.18392033874988556
90 94 0.18789799511432648
90 95 0.05923489108681679
90 96 0.17432764172554016
90 97 0.17645739018917084
90 99 0.19261951744556427
90 100 0.19422638416290283
90 101 0.1932174116373062
90 102 0.19772367179393768
90 103 0.08111070841550827
90 104 0.1886305958032608
90 105 0.17709293961524963
90 106 0.16358895599842072
90 107 0.17961031198501587
90 108 0.17216944694519043
90 110 0.19453218579292297
90 112 0.11128298193216324
90 113 0.1727772206068039
90 115 0.18334409594535828
90 116 0.19222399592399597
90 118 0.18800906836986542
90 119 0.17341060936450958
90 121 0.1901051104068756
90 122 0.19711622595787048
90 123 0.1894736886024475
90 124 0.18450206518173218
90 125 0.17970561981201172
90 126 0.18760691583156586
90 127 0.16213707625865936
90 128 0.19782546162605286
90 129 0.15601739287376404
90 130 0.06488857418298721
90 131 0.14928631484508514
90 132 0.18095862865447998
90 133 0.18532589077949524
90 135 0.20224787294864655
90 136 0.18440473079681396
90 137 0.18479500710964203
90 138 0.19402332603931427
90 139 0.17469856142997742
90 140 0.16437356173992157
90 141 0.1824897825717926
90 142 0.19402332603931427
90 143 0.1774592101573944
90 144 0.0737370103597641
90 145 0.1879953294992447
90 146 0.18558304011821747
90 147 0.19762204587459564
90 149 0.1544230431318283
90 150 0.19782546162605286
90 151 0.19576992094516754
90 152 0.1678916960954666
90 153 0.1980295181274414
90 154 0.17377567291259766
90 155 0.19792740046977997
90 156 0.1677163541316986
90 157 0.18858250975608826
90 159 0.19916316866874695
90 160 0.05006261542439461
90 161 0.17951515316963196
90 162 0.1697666496038437
90 163 0.20031654834747314
90 164 0.1226278617978096
90 165 0.1878008097410202
90 166 0.19371992349624634
90 167 0.1955619752407074
90 169 0.14383502304553986
90 170 0.1980295181274414
90 171 0.1843075305223465
90 172 0.18578162789344788
90 174 0.1765872836112976
90 175 0.16745437681674957
90 176 0.20127525925636292
90 177 0.16196879744529724
90 178 0.12834760546684265
90 179 0.15144068002700806
90 180 0.1732289344072342
90 181 0.1927187740802765
90 182 0.1843075305223465
90 183 0.08603089302778244
90 184 0.18421050906181335
90 185 0.18045993149280548
90 186 0.11654331535100937
90 188 0.1981317698955536
90 190 0.18343974649906158
90 191 0.18296292424201965
90 192 0.19989481568336487
90 193 0.18722088634967804
90 195 0.19443008303642273
90 196 0.05006261542439461
90 197 0.16222141683101654
90 198 0.12824730575084686
90 200 0.09487426280975342
90 201 0.1939220279455185
90 202 0.1943281590938568
90 203 0.18848426640033722
90 204 0.05923489108681679
90 205 0.1780129075050354
90 206 0.19905932247638702
90 207 0.18382392823696136
90 208 0.051298920065164566
90 209 0.05564149096608162
90 211 0.19242145121097565
90 212 0.08377078175544739
90 213 0.16806760430335999
90 214 0.2232968658208847
90 215 0.1888781636953354
90 216 0.18086129426956177
90 217 0.18286798894405365
90 219 0.19564637541770935
90 221 0.19301749765872955
90 222 0.196087047457695
90 223 0.09782318770885468
90 224 0.17792026698589325
90 225 0.12565617263317108
90 226 0.19989481568336487
90 227 0.19947576522827148
90 228 0.12565617263317108
90 230 0.17151828110218048
90 231 0.18809279799461365
90 233 0.17414307594299316
90 234 0.09733285009860992
90 235 0.19854240119457245
90 236 0.12849850952625275
90 237 0.19222399592399597
90 239 0.059904228895902634
90 240 0.16384923458099365
90 241 0.1668478101491928
90 242 0.15666276216506958
90 243 0.19564637541770935
90 244 0.19473683834075928
90 245 0.16967593133449554
90 247 0.17395909130573273
90 248 0.1932174116373062
90 249 0.13245323300361633
90 250 0.19232265651226044
90 252 0.1949421465396881
90 253 0.11470786482095718
90 254 0.17885325849056244
90 255 0.19212548434734344
91 92 0.19139732420444489
91 93 0.18392033874988556
91 94 0.1774592101573944
91 96 0.1848929524421692
91 97 0.19721707701683044
91 98 0.2433321177959442
91 99 0.19782546162605286
91 100 0.18897703289985657
91 101 0.17755113542079926
91 102 0.192520409822464
91 103 0.08111070841550827
91 104 0.1886305958032608
91 105 0.19792740046977997
91 106 0.18997427821159363
91 107 0.1901756227016449
91 108 0.17216944694519043
91 109 0.11470786482095718
91 110 0.17350167036056519
91 111 0.19088542461395264
91 113 0.12565617263317108
91 114 0.13994228839874268
91 115 0.16762889921665192
91 116 0.18702875077724457
91 118 0.19875244796276093
91 119 0.18392033874988556
91 121 0.18467354774475098
91 122 0.1919289529323578
91 123 0.1894736886024475
91 124 0.19504505395889282
91 125 0.18499106168746948
91 126 0.1615503877401352
91 127 0.18828822672367096
91 128 0.18741360306739807
91 129 0.19242145121097565
91 130 0.16222143173217773
91 131 0.11942906677722931
91 132 0.14902473986148834
91 133 0.18532589077949524
91 135 0.19160324335098267
91 136 0.18440473079681396
91 137 0.17951515316963196
91 138 0.17304782569408417
91 139 0.17469856142997742
91 140 0.17497830092906952
91 141 0.18770378828048706
91 142 0.19402332603931427
91 143 0.14092348515987396
91 144 0.10323180258274078
91 145 0.1879953294992447
91 146 0.16967593133449554
91 147 0.19762204587459564
91 149 0.1544230431318283
91 150 0.19261951744556427
91 151 0.20106101036071777
91 152 0.19412477314472198
91 153 0.18760691583156586
91 154 0.1843075305223465
91 155 0.1875101625919342
91 156 0.19916316866874695
91 157 0.17810571193695068
91 159 0.19916316866874695
91 160 0.25031307339668274
91 161 0.20063458383083344
91 162 0.1750718504190445
91 163 0.18450206518173218
91 165 0.19301749765872955
91 166 0.1727772206068039
91 167 0.1955619752407074
91 169 0.1495884209871292
91 170 0.19281820952892303
91 171 0.19483940303325653
91 172 0.18578162789344788
91 174 0.1765872836112976
91 175 0.16745437681674957
91 176 0.16949495673179626
91 177 0.19854240119457245
91 178 0.13476498425006866
91 179 0.1879953294992447
91 180 0.1837276667356491
91 181 0.1927187740802765
91 182 0.1843075305223465
91 184 0.1894736886024475
91 185 0.1640544831752777
91 186 0.058271657675504684
91 188 0.1668478101491928
91 190 0.17295747995376587
91 191 0.18819044530391693
91 192 0.18937404453754425
91 193 0.17681972682476044
91 194 0.16222141683101654
91 195 0.17866548895835876
91 196 0.05006261542439461
91 197 0.16222141683101654
91 198 0.051298920065164566
91 200 0.07906188815832138
91 201 0.1939220279455185
91 202 0.19958028197288513
91 203 0.18848426640033722
91 204 0.05923489108681679
91 205 0.1727772206068039
91 206 0.18858250975608826
91 207 0.16806760430335999
91 208 0.051298920065164566
91 209 0.05564149096608162
91 210 0.11164843291044235
91 211 0.19242145121097565
91 212 0.08377078175544739
91 213 0.15756337344646454
91 214 0.14886458218097687
91 215 0.1836315393447876
91 216 0.17554183304309845
91 217 0.19331759214401245
91 218 0.17391961812973022
91 221 0.19301749765872955
91 222 0.1634058654308319
91 224 0.17792026698589325
91 226 0.18937404453754425
91 227 0.19947576522827148
91 228 0.08377078175544739
91 229 0.09782318770885468
91 230 0.2036779671907425
91 231 0.19331759214401245
91 233 0.20052841305732727
91 234 0.06488857418298721
91 235 0.19331759214401245
91 236 0.1873936504125595
91 237 0.19222399592399597
91 239 0.059904228895902634
91 240 0.17442014813423157
91 241 0.17727579176425934
91 242 0.15666276216506958
91 244 0.15263158082962036
91 245 0.16967593133449554
91 247 0.1897735744714737
91 248 0.15666276216506958
91 249 0.06622661650180817
91 250 0.19232265651226044
91 252 0.18440473079681396
91 253 0.11470786482095718
91 254 0.18411363661289215
91 255 0.19212548434734344
92 93 0.9406161308288574
92 94 0.9521916508674622
92 95 0.16155792772769928
92 96 0.9381195902824402
92 97 0.954155683517456
92 99 0.9549956321716309
92 100 0.9491754770278931
92 101 0.9484647512435913
92 102 0.9534531235694885
92 103 0.12290128320455551
92 104 0.9189746379852295
92 105 0.9544355273246765
92 106 0.9381924867630005
92 107 0.9498593807220459
92 108 0.8637897968292236
92 110 0.9432345032691956
92 111 0.15425871312618256
92 112 0.17423981428146362
92 113 0.9477581977844238
92 114 0.26505571603775024
92 115 0.9471938610076904
92 116 0.9530346393585205
92 117 0.13974741101264954
92 118 0.9213728904724121
92 119 0.9427394270896912
92 120 0.11353134363889694
92 121 0.9140874743461609
92 122 0.9536678194999695
92 123 0.9399735927581787
92 124 0.9350711703300476
92 125 0.9396852254867554
92 126 0.9496636390686035
92 127 0.9541691541671753
92 128 0.9539439082145691
92 129 0.9561150074005127
92 130 0.14420418441295624
92 131 0.8215691447257996
92 132 0.931183397769928
92 133 0.9620381593704224
92 134 0.08514851331710815
92 135 0.9268823266029358
92 136 0.9430933594703674
92 137 0.954689621925354
92 138 0.9439454078674316
92 139 0.9315593242645264
92 140 0.941620945930481
92 141 0.9501540064811707
92 142 0.9428859949111938
92 143 0.9479737281799316
92 144 0.33965444564819336
92 145 0.9463546872138977
92 146 0.931979775428772
92 147 0.9529629945755005
92 149 0.8363508582115173
92 150 0.951840341091156
92 151 0.9417532682418823
92 152 0.9444389939308167
92 153 0.9517692923545837
92 154 0.946851909160614
92 155 0.953383207321167
92 156 0.9445114731788635
92 157 0.9429606199264526
92 159 0.9445114731788635
92 160 0.197226420044899
92 161 0.9376225471496582
92 162 0.9281907677650452
92 163 0.9457212686538696
92 164 0.20232567191123962
92 165 0.9506452083587646
92 166 0.9477581977844238
92 167 0.9354139566421509
92 168 0.13132210075855255
92 169 0.8659600615501404
92 170 0.950716495513916
92 171 0.9383408427238464
92 172 0.9308323264122009
92 173 0.14303605258464813
92 174 0.8642804026603699
92 175 0.9440934062004089
92 176 0.9341959357261658
92 177 0.9500120878219604
92 178 0.7649388909339905
92 179 0.9484647512435913
92 180 0.9428123235702515
92 181 0.9491740465164185
92 182 0.9383408427238464
92 183 0.15063416957855225
92 184 0.9421001672744751
92 185 0.9004123210906982
92 186 0.17658978700637817
92 187 0.08671099692583084
92 188 0.9501540064811707
92 189 0.2020305097103119
92 190 0.9455704092979431
92 191 0.9515613317489624
92 192 0.9426674246788025
92 193 0.9519122838973999
92 195 0.9427394270896912
92 196 0.19216935336589813
92 198 0.16582313179969788
92 200 0.6213462948799133
92 201 0.947688102722168
92 202 0.9411841034889221
92 203 0.9456427097320557
92 204 0.16754156351089478
92 205 0.9477581977844238
92 206 0.9493104815483093
92 207 0.9443673491477966
92 208 0.10363946110010147
92 209 0.15175725519657135
92 210 0.13533833622932434
92 211 0.9508616328239441
92 212 0.11846977472305298
92 213 0.9433062672615051
92 214 0.11278194934129715
92 215 0.9454989433288574
92 216 0.9371306896209717
92 217 0.9500120878219604
92 218 0.29515138268470764
92 219 0.06917143613100052
92 220 0.05676567181944847
92 221 0.9538069367408752
92 222 0.910057544708252
92 223 0.09881635010242462
92 224 0.94515061378479
92 225 0.07615914195775986
92 226 0.9469184875488281
92 227 0.9428123235702515
92 228 0.09308339655399323
92 229 0.08893471211194992
92 230 0.9301876425743103
92 231 0.9468453526496887
92 232 0.18835192918777466
92 233 0.9349940419197083
92 234 0.12453997135162354
92 235 0.9468453526496887
92 236 0.9367457628250122
92 237 0.9561834931373596
92 238 0.07328416407108307
92 239 0.2501179575920105
92 240 0.9396852254867554
92 241 0.9522607922554016
92 242 0.9474097490310669
92 243 0.09881635010242462
92 244 0.9399735927581787
92 245 0.9437634348869324
92 246 0.06554735451936722
92 247 0.9382662177085876
92 248 0.9463546872138977
92 249 0.06689899414777756
92 250 0.9566742777824402
92 251 0.22946162521839142
92 252 0.9356423020362854
92 253 0.17380866408348083
92 254 0.9458557367324829
92 255 0.9514972567558289
93 94 0.959896981716156
93 95 0.17151057720184326
93 96 0.9493802785873413
93 97 0.9669140577316284
93 99 0.9626200795173645
93 100 0.9549272060394287
93 101 0.9603942036628723
93 102 0.9631637930870056
93 103 0.12147441506385803
93 104 0.9362863898277283
93 105 0.9599958658218384
93 106 0.9578588604927063
93 107 0.951490044593811
93 108 0.882411003112793
93 110 0.9553806781768799
93 111 0.14611497521400452
93 112 0.18888306617736816
93 113 0.9587100148200989
93 114 0.2829367220401764
93 115 0.9592097401618958
93 116 0.9689427018165588
93 117 0.1381249725818634
93 118 0.938564658164978
93 119 0.9517313838005066
93 120 0.11221326142549515
93 121 0.921913206577301
93 122 0.9684913158416748
93 123 0.9553348422050476
93 124 0.9515836834907532
93 125 0.947773277759552
93 126 0.9646536111831665
93 127 0.9587572813034058
93 128 0.9678177833557129
93 129 0.9688995480537415
93 130 0.16196587681770325
93 131 0.847802996635437
93 132 0.942690908908844
93 133 0.9734841585159302
93 135 0.941628098487854
93 136 0.9552899599075317
93 137 0.9499315619468689
93 138 0.9560230374336243
93 139 0.9461146593093872
93 140 0.9433944225311279
93 141 0.9620282649993896
93 142 0.9591644406318665
93 143 0.9703193306922913
93 144 0.3504352569580078
93 145 0.9603942036628723
93 146 0.9433944225311279
93 147 0.9647456407546997
93 149 0.8491748571395874
93 150 0.9626200795173645
93 151 0.9445547461509705
93 152 0.9565228819847107
93 153 0.9656941890716553
93 154 0.9537350535392761
93 155 0.961035966873169
93 156 0.9555239081382751
93 157 0.9581636786460876
93 159 0.9597102403640747
93 160 0.1849398910999298
93 161 0.9583660364151001
93 162 0.9460175633430481
93 163 0.9515836834907532
93 164 0.24078825116157532
93 165 0.9594005346298218
93 166 0.9566190242767334
93 167 0.9519949555397034
93 168 0.12216231226921082
93 169 0.8708416223526001
93 170 0.9625723958015442
93 171 0.9547865390777588
93 172 0.9497036337852478
93 173 0.1343066543340683
93 174 0.8826831579208374
93 175 0.9603009819984436
93 176 0.9434458017349243
93 177 0.9577622413635254
93 178 0.7752798199653625
93 179 0.9614369869232178
93 180 0.959119975566864
93 181 0.9662363529205322
93 182 0.9579411745071411
93 183 0.15461169183254242
93 184 0.9563858509063721
93 185 0.9238097667694092
93 186 0.17453959584236145
93 187 0.08570428937673569
93 188 0.9609870910644531
93 189 0.19968494772911072
93 190 0.9586637020111084
93 191 0.9582594037055969
93 192 0.9527316093444824
93 193 0.9688995480537415
93 195 0.9559286832809448
93 196 0.17494314908981323
93 198 0.18438519537448883
93 200 0.6330775022506714
93 201 0.9576170444488525
93 202 0.9575250744819641
93 203 0.9555734992027283
93 204 0.14785394072532654
93 205 0.9545280337333679
93 206 0.9571176171302795
93 207 0.9564762711524963
93 208 0.08194897323846817
93 209 0.17777228355407715
93 210 0.14119857549667358
93 211 0.9626687169075012
93 212 0.10036658495664597
93 213 0.9543787240982056
93 214 0.11890406161546707
93 215 0.9523321986198425
93 216 0.9411216974258423
93 217 0.9598488211631775
93 218 0.2674143314361572
93 219 0.06836837530136108
93 220 0.056106630712747574
93 221 0.9594005346298218
93 222 0.9201573133468628
93 223 0.09766910970211029
93 224 0.9623908996582031
93 225 0.10873046517372131
93 226 0.9527316093444824
93 227 0.9528307318687439
93 228 0.10036658495664597
93 229 0.10743601620197296
93 230 0.9354427456855774
93 231 0.9608922004699707
93 232 0.15878795087337494
93 233 0.953643798828125
93 234 0.1490086168050766
93 235 0.9608922004699707
93 236 0.940838098526001
93 237 0.9668679237365723
93 238 0.07243335247039795
93 239 0.23923948407173157
93 240 0.9467177987098694
93 241 0.9609870910644531
93 242 0.9656080603599548
93 243 0.09766910970211029
93 244 0.9542838931083679
93 245 0.9433944225311279
93 246 0.06478635221719742
93 247 0.9505310654640198
93 248 0.9583086371421814
93 249 0.07934675365686417
93 250 0.9684020280838013
93 251 0.19504593312740326
93 252 0.9542378783226013
93 253 0.14315897226333618
93 254 0.9527316093444824
93 255 0.9684461951255798
94 95 0.15860415995121002
94 96 0.9544957280158997
94 97 0.9737675189971924
94 99 0.9685112237930298
94 100 0.9640970826148987
94 101 0.969446063041687
94 102 0.9690449237823486
94 103 0.12065427005290985
94 104 0.9342406988143921
94 105 0.9752086997032166
94 106 0.9555783867835999
94 107 0.9597344398498535
94 108 0.8810063004493713
94 110 0.9666576981544495
94 111 0.1514384001493454
94 112 0.1710541695356369
94 113 0.9688520431518555
94 114 0.2706180810928345
94 115 0.9641622304916382
94 116 0.9727049469947815
94 117 0.13719241321086884
94 118 0.9364895224571228
94 119 0.959896981716156
94 120 0.10216767340898514
94 121 0.9350799918174744
94 122 0.9722407460212708
94 123 0.9582797884941101
94 124 0.9566598534584045
94 125 0.9570988416671753
94 126 0.9726110100746155
94 127 0.9657697081565857
94 128 0.9705763459205627
94 129 0.9706097841262817
94 130 0.1351327896118164
94 131 0.8515539169311523
94 132 0.9563828706741333
94 133 0.9812059998512268
94 134 0.10216767340898514
94 135 0.9447711706161499
94 136 0.9561551213264465
94 137 0.9581787586212158
94 138 0.96724933385849
94 139 0.9523266553878784
94 140 0.954903244972229
94 141 0.9700108170509338
94 142 0.9651691913604736
94 143 0.9679089188575745
94 144 0.3246696889400482
94 145 0.9653031229972839
94 146 0.954903244972229
94 147 0.9685468673706055
94 149 0.8493315577507019
94 150 0.9674786925315857
94 151 0.9560176134109497
94 152 0.9635926485061646
94 153 0.9695102572441101
94 154 0.9598289132118225
94 155 0.9690102934837341
94 156 0.9605072736740112
94 157 0.9641622304916382
94 159 0.9605072736740112
94 160 0.16879738867282867
94 161 0.9529427886009216
94 162 0.9491004347801208
94 163 0.9597964286804199
94 164 0.24726976454257965
94 165 0.967408299446106
94 166 0.964698314666748
94 167 0.9550022482872009
94 168 0.11375394463539124
94 169 0.8809376358985901
94 170 0.9695102572441101
94 171 0.9566956758499146
94 172 0.9496084451675415
94 173 0.14042091369628906
94 174 0.8868918418884277
94 175 0.9641962647438049
94 176 0.9559857249259949
94 177 0.9699487686157227
94 178 0.7840463519096375
94 179 0.9663388133049011
94 180 0.9620147347450256
94 181 0.971076488494873
94 182 0.9587845206260681
94 183 0.16494320333003998
94 184 0.9603675007820129
94 185 0.9229956865310669
94 186 0.1733611673116684
94 187 0.08512565493583679
94 188 0.9731132388114929
94 189 0.19311736524105072
94 190 0.9605072736740112
94 191 0.9631944894790649
94 192 0.9567325115203857
94 193 0.9685468673706055
94 195 0.9630236625671387
94 196 0.1985851675271988
94 198 0.19840200245380402
94 200 0.6444841027259827
94 201 0.9625862836837769
94 202 0.9604353904724121
94 203 0.9626215100288391
94 204 0.17035260796546936
94 205 0.963659942150116
94 206 0.9610453844070435
94 207 0.9625187516212463
94 208 0.0813956931233406
94 209 0.1655362993478775
94 210 0.12548260390758514
94 211 0.9695783257484436
94 212 0.11630378663539886
94 213 0.9604353904724121
94 214 0.11810127645730972
94 215 0.9625520706176758
94 216 0.9495382905006409
94 217 0.9678761959075928
94 218 0.28285616636276245
94 219 0.08730871230363846
94 220 0.05572781711816788
94 221 0.96637362241745
94 222 0.9301496148109436
94 223 0.08730871230363846
94 224 0.962120532989502
94 225 0.107996366918087
94 226 0.9577757716178894
94 227 0.9588913321495056
94 228 0.09138154983520508
94 229 0.10671065002679825
94 230 0.9461362957954407
94 231 0.9637311697006226
94 232 0.19034674763679504
94 233 0.9555783867835999
94 234 0.14156769216060638
94 235 0.9678761959075928
94 236 0.9408574104309082
94 237 0.9737353324890137
94 238 0.07194431126117706
94 239 0.2613866329193115
94 240 0.9570988416671753
94 241 0.9710450172424316
94 242 0.9653031229972839
94 243 0.09700968116521835
94 244 0.9614114165306091
94 245 0.9538516402244568
94 247 0.9545688033103943
94 248 0.969446063041687
94 249 0.06567586958408356
94 250 0.9711422324180603
94 251 0.20724506676197052
94 252 0.9613800048828125
94 253 0.17063090205192566
94 254 0.9598624110221863
94 255 0.9732364416122437
95 96 0.1724175661802292
95 97 0.1577087640762329
95 98 0.09128709137439728
95 99 0.1464771032333374
95 100 0.1654229313135147
95 101 0.14105449616909027
95 102 0.17568209767341614
95 103 0.18257418274879456
95 104 0.13950929045677185
95 105 0.1524146944284439
95 106 0.1484784632921219
95 107 0.15458126366138458
95 108 0.1356392204761505
95 110 0.15976610779762268
95 112 0.250489741563797
95 113 0.1473139077425003
95 114 0.09843741357326508
95 115 0.15328632295131683
95 116 0.16956454515457153
95 117 0.11677483469247818
95 118 0.12091270834207535
95 119 0.16559642553329468
95 121 0.18339107930660248
95 122 0.17514236271381378
95 123 0.16585767269134521
95 124 0.16612018644809723
95 125 0.1368175446987152
95 126 0.17008869349956512
95 127 0.14127425849437714
95 128 0.15819527208805084
95 129 0.1638856679201126
95 131 0.1344129741191864
95 132 0.1437615603208542
95 133 0.17381449043750763
95 135 0.17970195412635803
95 136 0.17789201438426971
95 137 0.1723262220621109
95 138 0.15344642102718353
95 139 0.16682633757591248
95 140 0.14919058978557587
95 141 0.15257206559181213
95 142 0.13574106991291046
95 143 0.17035260796546936
95 144 0.18257418274879456
95 145 0.1586863100528717
95 146 0.14322297275066376
95 147 0.1638856679201126
95 149 0.11363676935434341
95 150 0.1757725328207016
95 151 0.16673757135868073
95 152 0.14171689748764038
95 153 0.17595383524894714
95 154 0.17187166213989258
95 155 0.175863116979599
95 156 0.1710624247789383
95 157 0.13559944927692413
95 159 0.12977150082588196
95 160 0.11268723011016846
95 161 0.1723262220621109
95 162 0.13135792315006256
95 163 0.16612018644809723
95 165 0.17026449739933014
95 166 0.1649915874004364
95 167 0.16061189770698547
95 169 0.1618809700012207
95 170 0.15249331295490265
95 171 0.14816522598266602
95 172 0.16727226972579956
95 173 0.35856857895851135
95 174 0.141043022274971
95 175 0.17668470740318298
95 176 0.1728764921426773
95 177 0.14700795710086823
95 178 0.1733405441045761
95 179 0.16456358134746552
95 180 0.12997516989707947
95 181 0.17000101506710052
95 182 0.15409183502197266
95 183 0.06454972177743912
95 184 0.16585767269134521
95 185 0.17848265171051025
95 186 0.06558258086442947
95 187 0.0690065547823906
95 188 0.1584402322769165
95 189 0.17770466208457947
95 190 0.17696112394332886
95 191 0.1529676467180252
95 192 0.17169083654880524
95 193 0.1638856679201126
95 195 0.17742474377155304
95 196 0.11268723011016846
95 197 0.09128709137439728
95 200 0.0978793352842331
95 201 0.17696112394332886
95 202 0.17142066359519958
95 203 0.1767767071723938
95 205 0.1708841472864151
95 206 0.17097321152687073
95 207 0.16550961136817932
95 208 0.1154700443148613
95 209 0.1252448707818985
95 211 0.1697387397289276
95 212 0.18856181204319
95 213 0.17142066359519958
95 215 0.17714613676071167
95 216 0.17361845076084137
95 217 0.1352473348379135
95 218 0.13701805472373962
95 219 0.05504818633198738
95 221 0.17613568902015686
95 222 0.17164675891399384
95 223 0.05504818633198738
95 224 0.16490572690963745
95 226 0.16577045619487762
95 227 0.1654229313135147
95 228 0.094280906021595
95 229 0.05504818633198738
95 230 0.13874568045139313
95 231 0.14700795710086823
95 232 0.18516401946544647
95 233 0.15441758930683136
95 234 0.07302967458963394
95 235 0.14700795710086823
95 236 0.14462029933929443
95 237 0.15787044167518616
95 239 0.06741998344659805
95 240 0.1546633094549179
95 241 0.17604470252990723
95 242 0.17631812393665314
95 244 0.17178116738796234
95 245 0.17902871966362
95 246 0.09128709137439728
95 247 0.17205305397510529
95 248 0.17044085264205933
95 250 0.1579514592885971
95 252 0.16010281443595886
95 253 0.06454972177743912
95 254 0.16577045619487762
95 255 0.14610141515731812
96 97 0.9636927843093872
96 98 0.06512895971536636
96 99 0.9572601914405823
96 100 0.9462780952453613
96 101 0.9591832160949707
96 102 0.9599011540412903
96 103 0.11397568136453629
96 104 0.9271732568740845
96 105 0.9556623697280884
96 106 0.9544496536254883
96 107 0.9448568820953369
96 108 0.8663404583930969
96 110 0.9498788118362427
96 111 0.1468876749277115
96 112 0.1507885754108429
96 113 0.9553717970848083
96 114 0.29496756196022034
96 115 0.9527150988578796
96 116 0.9636377692222595
96 117 0.13885541260242462
96 118 0.9262748956680298
96 119 0.9525449275970459
96 120 0.09400556236505508
96 121 0.9289693236351013
96 122 0.9652825593948364
96 123 0.9487650990486145
96 124 0.943917453289032
96 125 0.9464192390441895
96 126 0.9592937231063843
96 127 0.9564780592918396
96 128 0.9603952765464783
96 129 0.9604517817497253
96 130 0.14979663491249084
96 131 0.851087749004364
96 132 0.9391288757324219
96 133 0.970365047454834
96 134 0.09400556236505508
96 135 0.9401972889900208
96 136 0.953995943069458
96 137 0.9454160928726196
96 138 0.9526574611663818
96 139 0.9404910206794739
96 140 0.9441257119178772
96 141 0.957695722579956
96 142 0.9505521655082703
96 143 0.9565911889076233
96 144 0.3226843774318695
96 145 0.9518452286720276
96 146 0.9451901912689209
96 147 0.9594078063964844
96 149 0.8393583297729492
96 150 0.9603952765464783
96 151 0.9410527348518372
96 152 0.9552620053291321
96 153 0.9540631175041199
96 154 0.9492648243904114
96 155 0.957753598690033
96 156 0.952160120010376
96 157 0.9506120085716248
96 159 0.9490038156509399
96 160 0.18089309334754944
96 161 0.9443562030792236
96 162 0.9403705596923828
96 163 0.9481502771377563
96 164 0.2215479016304016
96 165 0.9550492167472839
96 166 0.9532697796821594
96 167 0.943236231803894
96 168 0.09210626035928726
96 169 0.86274254322052
96 170 0.9551092386245728
96 171 0.9482077360153198
96 172 0.937677264213562
96 173 0.13501688838005066
96 174 0.875916063785553
96 175 0.9506727457046509
96 176 0.943118691444397
96 177 0.9544364809989929
96 178 0.7845326066017151
96 179 0.9549901485443115
96 180 0.9504931569099426
96 181 0.959844708442688
96 182 0.9482077360153198
96 183 0.16694259643554688
96 184 0.9498215913772583
96 185 0.9089357256889343
96 186 0.1637651026248932
96 187 0.08615751564502716
96 188 0.9608357548713684
96 189 0.1901756227016449
96 190 0.9511079788208008
96 191 0.9517838358879089
96 192 0.9440422654151917
96 193 0.9614957571029663
96 195 0.9493802785873413
96 196 0.20099233090877533
96 198 0.17506247758865356
96 200 0.6475350260734558
96 201 0.9542643427848816
96 202 0.9499368667602539
96 203 0.9511677026748657
96 204 0.1724175661802292
96 205 0.9553717970848083
96 206 0.9506120085716248
96 207 0.9530998468399048
96 208 0.06178675591945648
96 209 0.1507885754108429
96 210 0.11206205934286118
96 211 0.9573199152946472
96 212 0.1177135780453682
96 213 0.9530998468399048
96 214 0.1045912578701973
96 215 0.9499959349632263
96 216 0.9407594799995422
96 217 0.9575830101966858
96 218 0.27930232882499695
96 219 0.06872992217540741
96 220 0.05640333145856857
96 221 0.9560964107513428
96 222 0.9195563197135925
96 223 0.06872992217540741
96 224 0.9538241624832153
96 225 0.10089734941720963
96 226 0.9524900913238525
96 227 0.9494393467903137
96 228 0.07567301392555237
96 229 0.09818560630083084
96 230 0.9317820072174072
96 231 0.9586318135261536
96 232 0.17614087462425232
96 233 0.9406785368919373
96 234 0.14979663491249084
96 235 0.9565341472625732
96 236 0.9361403584480286
96 237 0.9584233164787292
96 238 0.0728163942694664
96 239 0.24852146208286285
96 240 0.9549072980880737
96 241 0.9597890973091125
96 242 0.9591832160949707
96 243 0.0883670449256897
96 244 0.9477085471153259
96 245 0.9398680925369263
96 247 0.9418010711669922
96 248 0.9549901485443115
96 250 0.9610021114349365
96 251 0.22799697518348694
96 252 0.9487076997756958
96 253 0.16118595004081726
96 254 0.9482661485671997
96 255 0.9631439447402954
97 98 0.0639856681227684
97 99 0.9743372797966003
97 100 0.9690068960189819
97 101 0.9732420444488525
97 102 0.9748620986938477
97 103 0.11997313052415848
97 104 0.9427840709686279
97 105 0.9738121628761292
97 106 0.9626724720001221
97 107 0.9616090655326843
97 108 0.8805599808692932
97 110 0.966385006904602
97 111 0.12548622488975525
97 112 0.1591150462627411
97 113 0.9685452580451965
97 114 0.29668933153152466
97 115 0.9669839143753052
97 116 0.9795086979866028
97 117 0.14323879778385162
97 118 0.9428558349609375
97 119 0.9669140577316284
97 120 0.11082642525434494
97 121 0.9415842890739441
97 122 0.9769822359085083
97 123 0.9642876386642456
97 124 0.9658138751983643
97 125 0.9621194005012512
97 126 0.9732867479324341
97 127 0.9706324338912964
97 128 0.9753639698028564
97 129 0.976412296295166
97 130 0.15356560051441193
97 131 0.8549902439117432
97 132 0.9551823139190674
97 133 0.9868346452713013
97 134 0.11082642525434494
97 135 0.9541326761245728
97 136 0.9642652273178101
97 137 0.9600583910942078
97 138 0.9669597148895264
97 139 0.9573908448219299
97 140 0.9620609879493713
97 141 0.9727610349655151
97 142 0.9669597148895264
97 143 0.9717088341712952
97 144 0.3344705402851105
97 145 0.9711822271347046
97 146 0.958923876285553
97 147 0.9753866791725159
97 149 0.8644495606422424
97 150 0.9743372797966003
97 151 0.9589684009552002
97 152 0.9716041684150696
97 153 0.9743145108222961
97 154 0.9720653295516968
97 155 0.9748393893241882
97 156 0.9685221314430237
97 157 0.9700832962989807
97 159 0.9685221314430237
97 160 0.19746406376361847
97 161 0.9600583910942078
97 162 0.9594365358352661
97 163 0.9606157541275024
97 164 0.23781238496303558
97 165 0.9712063074111938
97 166 0.9685452580451965
97 167 0.9589921832084656
97 168 0.12819331884384155
97 169 0.8895804286003113
97 170 0.9743145108222961
97 171 0.9658341407775879
97 172 0.9568094611167908
97 173 0.13264676928520203
97 174 0.902106523513794
97 175 0.9701052904129028
97 176 0.9568564891815186
97 177 0.9716858267784119
97 178 0.7884793281555176
97 179 0.9722121953964233
97 180 0.967971682548523
97 181 0.9748393893241882
97 182 0.9658341407775879
97 183 0.1583564430475235
97 184 0.9653257131576538
97 185 0.9274912476539612
97 186 0.17238247394561768
97 187 0.07255292683839798
97 188 0.9737893342971802
97 189 0.17645739018917084
97 190 0.9685221314430237
97 191 0.9711592793464661
97 192 0.9627431631088257
97 193 0.976412296295166
97 195 0.9648414254188538
97 196 0.20733727514743805
97 198 0.17704789340496063
97 200 0.6517603993415833
97 201 0.9685221314430237
97 202 0.9664071798324585
97 203 0.9675127267837524
97 204 0.1752319633960724
97 205 0.9706104397773743
97 206 0.968017041683197
97 207 0.9653714299201965
97 208 0.10117022693157196
97 209 0.1700884997844696
97 210 0.12477421015501022
97 211 0.9825661778450012
97 212 0.12390770763158798
97 213 0.9705504179000854
97 214 0.1174345463514328
97 215 0.9653958082199097
97 216 0.9567667841911316
97 217 0.9727163314819336
97 218 0.284689337015152
97 219 0.08681582659482956
97 220 0.05541321262717247
97 221 0.9742926955223083
97 222 0.9302695393562317
97 223 0.07716961950063705
97 224 0.9680412411689758
97 225 0.0991261675953865
97 226 0.9627431631088257
97 227 0.9659010767936707
97 228 0.09086565673351288
97 229 0.10610823333263397
97 230 0.9450232982635498
97 231 0.9716858267784119
97 232 0.18386438488960266
97 233 0.9595502614974976
97 234 0.14076848328113556
97 235 0.9706554412841797
97 236 0.9492728114128113
97 237 0.9774595499038696
97 238 0.07153815031051636
97 239 0.24415883421897888
97 240 0.9610770344734192
97 241 0.9748176336288452
97 242 0.9763317108154297
97 243 0.07716961950063705
97 244 0.9674016237258911
97 245 0.9568324089050293
97 246 0.0639856681227684
97 247 0.9626950621604919
97 248 0.9711822271347046
97 249 0.06530510634183884
97 250 0.9779611825942993
97 251 0.22847454249858856
97 252 0.9611480236053467
97 253 0.16966761648654938
97 254 0.9648180603981018
97 255 0.975934624671936
98 99 0.0641830563545227
98 100 0.06471847742795944
98 102 0.06415002793073654
98 105 0.06421612948179245
98 108 0.053066182881593704
98 109 0.3535533845424652
98 110 0.06482037156820297
98 111 0.2941741943359375
98 114 0.16174916923046112
98 117 0.10660035163164139
98 118 0.06622661650180817
98 121 0.05022371560335159
98 122 0.06395295262336731
98 124 0.06499126553535461
98 129 0.06411705911159515
98 130 0.10000000894069672
98 135 0.0656178742647171
98 136 0.06495697796344757
98 138 0.06465081870555878
98 139 0.06526753306388855
98 144 0.13636362552642822
98 145 0.06438227742910385
98 147 0.06411705911159515
98 150 0.0641830563545227
98 156 0.06461706012487411
98 159 0.06461706012487411
98 160 0.231454998254776
98 161 0.06509445607662201
98 164 0.0629940778017044
98 165 0.06431566923856735
98 171 0.0649227499961853
98 174 0.0526721216738224
98 176 0.06530231237411499
98 178 0.05933908000588417
98 179 0.06438227742910385
98 181 0.06421612948179245
98 184 0.06488857418298721
98 185 0.05056498572230339
98 186 0.08980264514684677
98 191 0.06444909423589706
98 194 0.5
98 196 0.07715167105197906
98 197 0.5
98 202 0.06475239247083664
98 203 0.06454972177743912
98 205 0.06454972177743912
98 206 0.06458336859941483
98 207 0.06475239247083664
98 208 0.15811388194561005
98 209 0.2572478652000427
98 216 0.06558258086442947
98 218 0.16081687808036804
98 221 0.06431566923856735
98 222 0.05036506801843643
98 223 0.15075567364692688
98 226 0.0648544430732727
98 227 0.06471847742795944
98 228 0.25819888710975647
98 230 0.06608185917139053
98 233 0.06506000459194183
98 234 0.10000000894069672
98 237 0.06405126303434372
98 241 0.06428243219852448
98 247 0.06499126553535461
98 253 0.0883883461356163
98 254 0.0648544430732727
99 100 0.9647269248962402
99 101 0.9700459837913513
99 102 0.9737520217895508
99 103 0.11232034116983414
99 104 0.9360968470573425
99 105 0.9716641902923584
99 106 0.9593784809112549
99 107 0.9624854326248169
99 108 0.8821409940719604
99 110 0.9652056694030762
99 111 0.15734165906906128
99 112 0.17061319947242737
99 113 0.9673900604248047
99 114 0.28376248478889465
99 115 0.9658217430114746
99 116 0.9732806086540222
99 117 0.12999679148197174
99 118 0.9436391592025757
99 119 0.9615805149078369
99 120 0.10190428793430328
99 121 0.9315948486328125
99 122 0.9758912920951843
99 123 0.9620563983917236
99 124 0.9573220610618591
99 125 0.9577682018280029
99 126 0.9701035618782043
99 127 0.9725919961929321
99 128 0.9721935987472534
99 129 0.9763379096984863
99 130 0.16045762598514557
99 131 0.8469959497451782
99 132 0.950758695602417
99 133 0.9827500581741333
99 134 0.10190428793430328
99 135 0.9476000070571899
99 136 0.9599438905715942
99 137 0.9577975273132324
99 138 0.9647557139396667
99 139 0.9551078677177429
99 140 0.9629309177398682
99 141 0.9706045985221863
99 142 0.9668304324150085
99 143 0.9685112237930298
99 144 0.3355023264884949
99 145 0.9669467806816101
99 146 0.9566372632980347
99 147 0.9722226858139038
99 149 0.850666880607605
99 150 0.9711636900901794
99 151 0.9566930532455444
99 152 0.9652601480484009
99 153 0.969072699546814
99 154 0.9594379663467407
99 155 0.9706338047981262
99 156 0.9642520546913147
99 157 0.9647854566574097
99 159 0.9683992862701416
99 160 0.19807320833206177
99 161 0.9588419795036316
99 162 0.9540001749992371
99 163 0.9594076871871948
99 164 0.24258914589881897
99 165 0.9680102467536926
99 166 0.9684258699417114
99 167 0.9577682018280029
99 168 0.12858876585960388
99 169 0.8889101147651672
99 170 0.9731963872909546
99 171 0.960479736328125
99 172 0.953460693359375
99 173 0.13305595517158508
99 174 0.891366720199585
99 175 0.9648162722587585
99 176 0.9545691013336182
99 177 0.9726161956787109
99 178 0.7871030569076538
99 179 0.9690129160881042
99 180 0.9626500606536865
99 181 0.9706338047981262
99 182 0.9594379663467407
99 183 0.15317191183567047
99 184 0.9620563983917236
99 185 0.9216979742050171
99 186 0.17867805063724518
99 187 0.07277674227952957
99 188 0.9706045985221863
99 189 0.1770017296075821
99 190 0.9642520546913147
99 191 0.9669162631034851
99 192 0.9594692587852478
99 193 0.973251461982727
99 195 0.9605409502983093
99 196 0.20302504301071167
99 198 0.18774227797985077
99 200 0.6334383487701416
99 201 0.9673624634742737
99 202 0.9610764384269714
99 203 0.9642828702926636
99 204 0.16991344094276428
99 205 0.9673900604248047
99 206 0.9658217430114746
99 207 0.9621154069900513
99 208 0.08118585497140884
99 209 0.1816204935312271
99 210 0.13252142071723938
99 211 0.9722226858139038
99 212 0.09943195432424545
99 213 0.9652323722839355
99 214 0.1251591145992279
99 215 0.9621464014053345
99 216 0.9534042477607727
99 217 0.9726161956787109
99 218 0.28900811076164246
99 219 0.09675959497690201
99 220 0.055584151297807693
99 221 0.9700742959976196
99 222 0.9277516603469849
99 223 0.08708363026380539
99 224 0.9679219126701355
99 225 0.09943195432424545
99 226 0.9646724462509155
99 227 0.9636884927749634
99 228 0.09943195432424545
99 229 0.10643555223941803
99 230 0.9479385018348694
99 231 0.9715825915336609
99 232 0.16273373365402222
99 233 0.9562467336654663
99 234 0.14120271801948547
99 235 0.9684817790985107
99 236 0.9500828385353088
99 237 0.9743083715438843
99 238 0.07175883650779724
99 239 0.25676262378692627
99 240 0.9609049558639526
99 241 0.9695731401443481
99 242 0.9690129160881042
99 243 0.08708363026380539
99 244 0.9599740505218506
99 245 0.9555883407592773
99 247 0.9573220610618591
99 248 0.9669467806816101
99 249 0.05240524560213089
99 250 0.9778931736946106
99 251 0.22468562424182892
99 252 0.9609861373901367
99 253 0.18153709173202515
99 254 0.963631808757782
99 255 0.975863516330719
100 101 0.9604296684265137
100 102 0.9652685523033142
100 103 0.12943695485591888
100 104 0.9277799725532532
100 105 0.9610681533813477
100 106 0.9505395293235779
100 107 0.9504931569099426
100 108 0.8711833953857422
100 110 0.9564773440361023
100 111 0.15865422785282135
100 112 0.18313559889793396
100 113 0.95561683177948
100 114 0.27217215299606323
100 115 0.9561149477958679
100 116 0.9648186564445496
100 117 0.1448792815208435
100 118 0.9332951903343201
100 119 0.9528307318687439
100 120 0.11209569126367569
100 121 0.9296151399612427
100 122 0.9654071927070618
100 123 0.9522342681884766
100 124 0.95058673620224
100 125 0.9488889575004578
100 126 0.9615639448165894
100 127 0.9587961435317993
100 128 0.9647269248962402
100 129 0.9637349247932434
100 130 0.15532435476779938
100 131 0.8338120579719543
100 132 0.9417032599449158
100 133 0.9734911918640137
100 134 0.1027543917298317
100 135 0.9406415820121765
100 136 0.9511362314224243
100 137 0.9552556276321411
100 138 0.9592055678367615
100 139 0.9451234936714172
100 140 0.9498099684715271
100 141 0.9620605111122131
100 142 0.9539754390716553
100 143 0.9599325060844421
100 144 0.3500681221485138
100 145 0.959388017654419
100 146 0.9455791711807251
100 147 0.9626975655555725
100 149 0.8506548404693604
100 150 0.9616116285324097
100 151 0.9477869868278503
100 152 0.9555208086967468
100 153 0.9626034498214722
100 154 0.9569375514984131
100 155 0.9610681533813477
100 156 0.9555683732032776
100 157 0.9571599364280701
100 159 0.9555683732032776
100 160 0.1747598648071289
100 161 0.9499896168708801
100 162 0.9439681768417358
100 163 0.9547929167747498
100 164 0.23645910620689392
100 165 0.9615171551704407
100 166 0.960838794708252
100 167 0.9467803239822388
100 168 0.1296614706516266
100 169 0.8791106343269348
100 170 0.9646825194358826
100 171 0.9527358412742615
100 172 0.9412969350814819
100 173 0.14828866720199585
100 174 0.8885761499404907
100 175 0.957207202911377
100 176 0.9477402567863464
100 177 0.9588432908058167
100 178 0.7783079147338867
100 179 0.9583463072776794
100 180 0.9560209512710571
100 181 0.9621071219444275
100 182 0.9506349563598633
100 183 0.17733114957809448
100 184 0.9511843323707581
100 185 0.9195694923400879
100 186 0.16854484379291534
100 187 0.08561450242996216
100 188 0.9641405940055847
100 189 0.18897703289985657
100 190 0.9545229077339172
100 191 0.9603837728500366
100 192 0.9527828097343445
100 193 0.9626975655555725
100 195 0.9538789391517639
100 196 0.20971184968948364
100 197 0.06471847742795944
100 198 0.1995413452386856
100 200 0.6434538960456848
100 201 0.9555683732032776
100 202 0.9533788561820984
100 203 0.9577056169509888
100 204 0.17723886668682098
100 205 0.960838794708252
100 206 0.9582048654556274
100 207 0.9523311853408813
100 208 0.10232890397310257
100 209 0.18868517875671387
100 210 0.14105066657066345
100 211 0.9658097624778748
100 212 0.12532679736614227
100 213 0.9544265866279602
100 214 0.12620322406291962
100 215 0.9534277319908142
100 216 0.9411967992782593
100 217 0.9578010439872742
100 218 0.2914190888404846
100 219 0.08781010657548904
100 220 0.056047845631837845
100 221 0.9604765772819519
100 222 0.9224528670310974
100 223 0.09756678342819214
100 224 0.9561633467674255
100 225 0.11697167903184891
100 226 0.9527828097343445
100 227 0.9549738168716431
100 228 0.10861656069755554
100 229 0.08781010657548904
100 230 0.9344627261161804
100 231 0.9609277248382568
100 232 0.19143983721733093
100 233 0.9505395293235779
100 234 0.15532435476779938
100 235 0.9588432908058167
100 236 0.9377163052558899
100 237 0.9668912887573242
100 238 0.07235746085643768
100 239 0.2509382665157318
100 240 0.9488889575004578
100 241 0.9599803686141968
100 242 0.9614713191986084
100 243 0.10732346028089523
100 244 0.9511843323707581
100 245 0.9455791711807251
100 246 0.06471847742795944
100 247 0.95058673620224
100 248 0.9645963907241821
100 249 0.07926362752914429
100 250 0.9673875570297241
100 251 0.2174975872039795
100 252 0.952187180519104
100 253 0.17733114957809448
100 254 0.9517335295677185
100 255 0.9643242359161377
101 102 0.9695468544960022
101 103 0.1287645548582077
101 104 0.945419430732727
101 105 0.9705458879470825
101 106 0.9581676721572876
101 107 0.9612798094749451
101 108 0.8826014995574951
101 110 0.9608985185623169
101 111 0.13257724046707153
101 112 0.1711427867412567
101 113 0.9672760367393494
101 114 0.2742295265197754
101 115 0.9646616578102112
101 116 0.9711469411849976
101 117 0.11667395383119583
101 118 0.9412383437156677
101 119 0.9656080603599548
101 120 0.11151337623596191
101 121 0.9355642795562744
101 122 0.973773717880249
101 123 0.9650426506996155
101 124 0.9540172219276428
101 125 0.9575945138931274
101 126 0.9710465669631958
101 127 0.9641941785812378
101 128 0.9710790514945984
101 129 0.970080554485321
101 130 0.14807924628257751
101 131 0.8531799912452698
101 132 0.9526536464691162
101 133 0.9817143082618713
101 134 0.09292782098054886
101 135 0.9484289884567261
101 136 0.95665043592453
101 137 0.9576273560523987
101 138 0.9656690955162048
101 139 0.9517694115638733
101 140 0.9553978443145752
101 141 0.9663746953010559
101 142 0.9667096734046936
101 143 0.9673745632171631
101 144 0.3189849257469177
101 145 0.9658031463623047
101 146 0.9532934427261353
101 147 0.968016505241394
101 149 0.8592003583908081
101 150 0.9690129160881042
101 151 0.9523130059242249
101 152 0.9620094895362854
101 153 0.9689782857894897
101 154 0.961371123790741
101 155 0.9715794920921326
101 156 0.9599647521972656
101 157 0.9688196778297424
101 159 0.9651650190353394
101 160 0.16888482868671417
101 161 0.954484224319458
101 162 0.951697587966919
101 163 0.9623857736587524
101 164 0.23928643763065338
101 165 0.9658389687538147
101 166 0.96312016248703
101 167 0.9554969072341919
101 168 0.12898790836334229
101 169 0.877968966960907
101 170 0.9689782857894897
101 171 0.9551013112068176
101 172 0.9511536359786987
101 173 0.0983455553650856
101 174 0.8963943123817444
101 175 0.9657341837882996
101 176 0.9575320482254028
101 177 0.9652671217918396
101 178 0.7819055318832397
101 179 0.9658031463623047
101 180 0.9656381011009216
101 181 0.9674450755119324
101 182 0.9592812061309814
101 183 0.1479567140340805
101 184 0.959820568561554
101 185 0.920218288898468
101 186 0.17345097661018372
101 187 0.08516974747180939
101 188 0.9705133438110352
101 189 0.1879953294992447
101 190 0.962044894695282
101 191 0.9636934399604797
101 192 0.9582719802856445
101 193 0.9711125493049622
101 195 0.9624797105789185
101 196 0.1887536197900772
101 198 0.1985047608613968
101 200 0.641680121421814
101 201 0.9641249775886536
101 202 0.9609329700469971
101 203 0.96312016248703
101 204 0.17631812393665314
101 205 0.962081253528595
101 206 0.9667406678199768
101 207 0.9651018381118774
101 208 0.09161758422851562
101 209 0.14353910088539124
101 210 0.1255476027727127
101 211 0.9711125493049622
101 212 0.11636403203010559
101 213 0.9619751572608948
101 214 0.13293276727199554
101 215 0.9620094895362854
101 216 0.9468633532524109
101 217 0.9683775305747986
101 218 0.23123390972614288
101 219 0.08735393732786179
101 220 0.05575668811798096
101 221 0.9668741822242737
101 222 0.9295504689216614
101 223 0.08735393732786179
101 224 0.9657341837882996
101 225 0.1080523133277893
101 226 0.959315836429596
101 227 0.959388017654419
101 228 0.09142888337373734
101 229 0.08735393732786179
101 230 0.9402446746826172
101 231 0.9673407077789307
101 232 0.18500405550003052
101 233 0.9539790153503418
101 234 0.1352027803659439
101 235 0.9725247621536255
101 236 0.9424071907997131
101 237 0.9732088446617126
101 238 0.07198157161474228
101 239 0.2575596272945404
101 240 0.95864337682724
101 241 0.9694786667823792
101 242 0.9668393731117249
101 243 0.0970599353313446
101 244 0.9577317833900452
101 245 0.9511890411376953
101 246 0.06438227742910385
101 247 0.956109344959259
101 248 0.9709844589233398
101 249 0.05256791412830353
101 250 0.9737083315849304
101 251 0.2118600606918335
101 252 0.95665043592453
101 253 0.1650286465883255
101 254 0.9614036083221436
101 255 0.9747709035873413
102 103 0.12830005586147308
102 104 0.9356151819229126
102 105 0.9701343774795532
102 106 0.9599282741546631
102 107 0.9578121900558472
102 108 0.8839566111564636
102 110 0.9647090435028076
102 111 0.16355112195014954
102 112 0.1815270334482193
102 113 0.9648219347000122
102 114 0.2836165130138397
102 115 0.9653248190879822
102 116 0.9738070368766785
102 117 0.15044516324996948
102 118 0.9399672150611877
102 119 0.962124764919281
102 120 0.10185185819864273
102 121 0.9418550133705139
102 122 0.9774405360221863
102 123 0.9615614414215088
102 124 0.9599564671516418
102 125 0.9583204388618469
102 126 0.9716652035713196
102 127 0.9658867120742798
102 128 0.9758107662200928
102 129 0.971722424030304
102 130 0.16037507355213165
102 131 0.8536443710327148
102 132 0.9513218402862549
102 133 0.9832622408866882
102 134 0.10185185819864273
102 135 0.9502694606781006
102 136 0.9625751972198486
102 137 0.9604365229606628
102 138 0.9642593860626221
102 139 0.953569769859314
102 140 0.9592902064323425
102 141 0.9690742492675781
102 142 0.9632225036621094
102 143 0.9690449237823486
102 144 0.3469933271408081
102 145 0.9685142636299133
102 146 0.9603386521339417
102 147 0.971722424030304
102 149 0.8561009168624878
102 150 0.9706640243530273
102 151 0.9572470188140869
102 152 0.9626887440681458
102 153 0.9706348180770874
102 154 0.9631091356277466
102 155 0.9732239842414856
102 156 0.9647921919822693
102 157 0.9642890691757202
102 159 0.9658284783363342
102 160 0.1831234246492386
102 161 0.9562607407569885
102 162 0.954558253288269
102 163 0.9620410203933716
102 164 0.2545875310897827
102 165 0.9695751667022705
102 166 0.9679275751113892
102 167 0.9583204388618469
102 168 0.10584215074777603
102 169 0.8770769238471985
102 170 0.9737260341644287
102 171 0.9589443206787109
102 172 0.9508710503578186
102 173 0.1399868279695511
102 174 0.8909080624580383
102 175 0.9653544425964355
102 176 0.9561724662780762
102 177 0.9669504165649414
102 178 0.7866981029510498
102 179 0.9674817323684692
102 180 0.962154746055603
102 181 0.9732239842414856
102 182 0.9599854946136475
102 183 0.18144367635250092
102 184 0.9626021385192871
102 185 0.9223049879074097
102 186 0.17858612537384033
102 187 0.07273928821086884
102 188 0.9752597808837891
102 189 0.192520409822464
102 190 0.9637559056282043
102 191 0.9664187431335449
102 192 0.9631359577178955
102 193 0.971722424030304
102 195 0.9631637930870056
102 196 0.2029205560684204
102 197 0.06415002793073654
102 198 0.18764567375183105
102 200 0.6456183791160583
102 201 0.9668647646903992
102 202 0.9626588821411133
102 203 0.9658570885658264
102 204 0.17568209767341614
102 205 0.9668923020362854
102 206 0.9653248190879822
102 207 0.9626588821411133
102 208 0.10143010318279266
102 209 0.16502459347248077
102 210 0.13981175422668457
102 211 0.972750723361969
102 212 0.1159442588686943
102 213 0.9647358059883118
102 214 0.13981175422668457
102 215 0.9658008813858032
102 216 0.9497584104537964
102 217 0.9690165519714355
102 218 0.28198182582855225
102 219 0.08703882992267609
102 220 0.0555555559694767
102 221 0.9685437083244324
102 222 0.9315822124481201
102 223 0.09670981019735336
102 224 0.9674237966537476
102 225 0.12422599643468857
102 226 0.9652161598205566
102 227 0.9642305374145508
102 228 0.10766252875328064
102 229 0.09670981019735336
102 230 0.9442713260650635
102 231 0.9690165519714355
102 232 0.18433667719364166
102 233 0.9578415155410767
102 234 0.15396006405353546
102 235 0.9700496196746826
102 236 0.9464181661605835
102 237 0.9738070368766785
102 238 0.05737753212451935
102 239 0.26057863235473633
102 240 0.9593654870986938
102 241 0.9690742492675781
102 242 0.9695468544960022
102 243 0.10638079792261124
102 244 0.9626021385192871
102 245 0.9519514441490173
102 246 0.06415002793073654
102 247 0.9578717947006226
102 248 0.9685142636299133
102 249 0.07856741547584534
102 250 0.9753345847129822
102 251 0.21109582483768463
102 252 0.9604917168617249
102 253 0.17010344564914703
102 254 0.9610557556152344
102 255 0.974334716796875
103 104 0.1162797063589096
103 105 0.12040524184703827
103 106 0.11385500431060791
103 107 0.11397568136453629
103 108 0.1326654553413391
103 110 0.11343564838171005
103 112 0.08574929088354111
103 113 0.10489329695701599
103 114 0.08087458461523056
103 115 0.09687504917383194
103 116 0.1200961098074913
103 117 0.053300175815820694
103 118 0.09933992475271225
103 119 0.09717952460050583
103 120 0.2886751592159271
103 121 0.10881804674863815
103 122 0.10392353683710098
103 123 0.1216660663485527
103 124 0.11373472213745117
103 125 0.12218160182237625
103 126 0.1124361976981163
103 127 0.10478420555591583
103 128 0.1042974591255188
103 129 0.11220484972000122
103 130 0.05000000447034836
103 131 0.11043151468038559
103 132 0.11483127623796463
103 133 0.11106914281845093
103 134 0.14433757960796356
103 135 0.12303350865840912
103 136 0.11367471516132355
103 137 0.13018891215324402
103 138 0.08889488130807877
103 139 0.1060597375035286
103 140 0.10622957348823547
103 141 0.10445895045995712
103 142 0.11313892900943756
103 143 0.12065427005290985
103 144 0.1818181723356247
103 145 0.10462120175361633
103 146 0.11440107971429825
103 147 0.08816095441579819
103 149 0.13729725778102875
103 150 0.1283661127090454
103 151 0.12231151759624481
103 152 0.10511251538991928
103 153 0.12849850952625275
103 154 0.11361480504274368
103 155 0.11237822473049164
103 156 0.12115699052810669
103 157 0.12109380960464478
103 159 0.09692559391260147
103 161 0.12205210328102112
103 162 0.08175874501466751
103 163 0.1218586266040802
103 165 0.1286313384771347
103 166 0.11296200752258301
103 167 0.12218160182237625
103 168 0.0589255653321743
103 169 0.1241322010755539
103 170 0.12046735733747482
103 171 0.11361480504274368
103 172 0.12270374596118927
103 173 0.054554469883441925
103 174 0.13168030977249146
103 175 0.12096773833036423
103 176 0.11427904665470123
103 177 0.096623495221138
103 178 0.10878831893205643
103 179 0.11266898363828659
103 180 0.11325733363628387
103 181 0.11237822473049164
103 182 0.11361480504274368
103 184 0.11355499923229218
103 185 0.1348399668931961
103 188 0.10445895045995712
103 189 0.20277677476406097
103 190 0.09692559391260147
103 191 0.12084205448627472
103 192 0.1297088861465454
103 193 0.11220484972000122
103 195 0.11337611824274063
103 196 0.15430334210395813
103 197 0.125
103 198 0.07905694097280502
103 200 0.07310552150011063
103 201 0.12115699052810669
103 202 0.12950478494167328
103 203 0.11296200752258301
103 205 0.10489329695701599
103 206 0.12916673719882965
103 207 0.12141072750091553
103 208 0.15811388194561005
103 209 0.08574929088354111
103 210 0.05735393241047859
103 211 0.12021948397159576
103 212 0.322748601436615
103 213 0.12141072750091553
103 214 0.22941572964191437
103 215 0.12128367274999619
103 216 0.10657169669866562
103 217 0.06441566348075867
103 219 0.07537783682346344
103 220 0.14433757960796356
103 221 0.12059187144041061
103 222 0.09233596920967102
103 223 0.07537783682346344
103 224 0.11290322244167328
103 225 0.12909944355487823
103 226 0.10538846999406815
103 227 0.09707771241664886
103 228 0.12909944355487823
103 230 0.07434209436178207
103 231 0.11272741109132767
103 232 0.12677313387393951
103 233 0.12198750674724579
103 235 0.11272741109132767
103 236 0.11551721394062042
103 237 0.12810252606868744
103 240 0.10589072108268738
103 241 0.10445895045995712
103 242 0.12071677297353745
103 243 0.07537783682346344
103 244 0.11355499923229218
103 245 0.10622957348823547
103 246 0.375
103 247 0.1218586266040802
103 248 0.1287645548582077
103 250 0.1281682699918747
103 252 0.11367471516132355
103 253 0.1767766922712326
103 254 0.08106806129217148
103 255 0.10402996093034744
104 105 0.9397794604301453
104 106 0.9294337630271912
104 107 0.9336645007133484
104 108 0.8509442210197449
104 110 0.9292407035827637
104 111 0.11727939546108246
104 112 0.14244146645069122
104 113 0.9339388608932495
104 114 0.25435778498649597
104 115 0.9322800040245056
104 116 0.9416226148605347
104 117 0.09208054840564728
104 118 0.9251975417137146
104 119 0.9330578446388245
104 120 0.11508706212043762
104 121 0.8999160528182983
104 122 0.9454889893531799
104 123 0.9269846677780151
104 124 0.9306110143661499
104 125 0.9233354330062866
104 126 0.938129723072052
104 127 0.9351097941398621
104 128 0.9382292628288269
104 129 0.9383295774459839
104 130 0.16611386835575104
104 131 0.825489342212677
104 132 0.9177833199501038
104 133 0.9499179124832153
104 134 0.07672471553087234
104 135 0.928683340549469
104 136 0.9333571195602417
104 137 0.9223567843437195
104 138 0.9321797490119934
104 139 0.9280617833137512
104 140 0.9208604693412781
104 141 0.9364784955978394
104 142 0.9396973848342896
104 143 0.9374474883079529
104 144 0.3141062259674072
104 145 0.9422109723091125
104 146 0.9165167808532715
104 147 0.9393946528434753
104 149 0.8380804061889648
104 150 0.9414277076721191
104 151 0.9221498966217041
104 152 0.9337416291236877
104 153 0.9391969442367554
104 154 0.9350221753120422
104 155 0.9397794604301453
104 156 0.9316930770874023
104 157 0.9397897720336914
104 159 0.944573700428009
104 160 0.18967625498771667
104 161 0.9256007075309753
104 162 0.9180932641029358
104 163 0.934929370880127
104 164 0.2134694904088974
104 165 0.9412360787391663
104 166 0.929649829864502
104 167 0.9352424144744873
104 168 0.13312160968780518
104 169 0.8507257103919983
104 170 0.9359951615333557
104 171 0.9296298623085022
104 172 0.9261942505836487
104 173 0.11599685996770859
104 174 0.8831233382225037
104 175 0.9388113617897034
104 176 0.9220477342605591
104 177 0.9341393113136292
104 178 0.7530781626701355
104 179 0.9368635416030884
104 180 0.9417558312416077
104 181 0.9387127161026001
104 182 0.9393360018730164
104 183 0.12333326041698456
104 184 0.9312962293624878
104 185 0.8959515690803528
104 186 0.1551416516304016
104 187 0.08789920061826706
104 188 0.9343429207801819
104 189 0.1616833657026291
104 190 0.9381333589553833
104 191 0.9346241354942322
104 192 0.9351157546043396
104 193 0.9425898790359497
104 195 0.9276768565177917
104 196 0.15891794860363007
104 198 0.17334839701652527
104 200 0.6411948800086975
104 201 0.9327664375305176
104 202 0.9368711709976196
104 203 0.9339388608932495
104 204 0.16377176344394684
104 205 0.9285776019096375
104 206 0.9419353604316711
104 207 0.9357955455780029
104 208 0.09455367922782898
104 209 0.17662742733955383
104 210 0.13719289004802704
104 211 0.9415248036384583
104 212 0.1029369980096817
104 213 0.9304174184799194
104 214 0.13719289004802704
104 215 0.9315926432609558
104 216 0.9194685220718384
104 217 0.9426995515823364
104 218 0.26713913679122925
104 219 0.07011930644512177
104 220 0.05754353106021881
104 221 0.9412360787391663
104 222 0.8901782631874084
104 223 0.11018747836351395
104 224 0.9366679191589355
104 225 0.1115150898694992
104 226 0.9264971613883972
104 227 0.934230387210846
104 228 0.1115150898694992
104 229 0.08013635128736496
104 230 0.9176867008209229
104 231 0.9330692887306213
104 232 0.17408590018749237
104 233 0.9305145144462585
104 234 0.11960198730230331
104 235 0.9405595064163208
104 236 0.911203920841217
104 237 0.940558671951294
104 238 0.07428838312625885
104 239 0.18811428546905518
104 240 0.9233354330062866
104 241 0.9386141896247864
104 242 0.9347245693206787
104 243 0.08013635128736496
104 244 0.9302183389663696
104 245 0.9165167808532715
104 246 0.06644555181264877
104 247 0.9252130389213562
104 248 0.9357941150665283
104 249 0.06781571358442307
104 250 0.9399767518043518
104 251 0.20004111528396606
104 252 0.9247248768806458
104 253 0.1526983082294464
104 254 0.9286518096923828
104 255 0.9432669281959534
105 106 0.9598729014396667
105 107 0.9587991237640381
105 108 0.8837315440177917
105 110 0.9625812768936157
105 111 0.16371963918209076
105 112 0.17620761692523956
105 113 0.965816080570221
105 114 0.28044643998146057
105 115 0.9683931469917297
105 116 0.971725583076477
105 117 0.13690924644470215
105 118 0.9419989585876465
105 119 0.9620760679244995
105 120 0.11122559756040573
105 121 0.9299247860908508
105 122 0.9733142256736755
105 123 0.9625522494316101
105 124 0.957815408706665
105 125 0.9582617878913879
105 126 0.969572126865387
105 127 0.9699875712394714
105 128 0.969603419303894
105 129 0.9727237224578857
105 130 0.14127549529075623
105 131 0.8415228724479675
105 132 0.9501951932907104
105 133 0.9822375774383545
105 134 0.11122559756040573
105 135 0.9501951932907104
105 136 0.9583529233932495
105 137 0.9593361616134644
105 138 0.9652529358863831
105 139 0.9545522928237915
105 140 0.9560808539390564
105 141 0.9700728058815002
105 142 0.9652529358863831
105 143 0.9679772853851318
105 144 0.3415130376815796
105 145 0.9705458879470825
105 146 0.9539818167686462
105 147 0.9716944098472595
105 149 0.8546320199966431
105 150 0.969603419303894
105 151 0.9561388492584229
105 152 0.9636806845664978
105 153 0.9706035852432251
105 154 0.9588900804519653
105 155 0.9701030850410461
105 156 0.9637115597724915
105 157 0.9704668521881104
105 159 0.9647489786148071
105 160 0.18826651573181152
105 161 0.9572461247444153
105 162 0.9502915740013123
105 163 0.957815408706665
105 164 0.24675939977169037
105 165 0.9685091376304626
105 166 0.964779794216156
105 167 0.9572156071662903
105 168 0.12865504622459412
105 169 0.8791193962097168
105 170 0.9706035852432251
105 171 0.9578478336334229
105 172 0.9529014825820923
105 173 0.11911141872406006
105 174 0.8861887454986572
105 175 0.9653134942054749
105 176 0.9540125727653503
105 177 0.9710491895675659
105 178 0.7824280858039856
105 179 0.9684786796569824
105 180 0.9641851186752319
105 181 0.9701030850410461
105 182 0.9599323868751526
105 183 0.15325085818767548
105 184 0.9604688286781311
105 185 0.9243377447128296
105 186 0.17300336062908173
105 187 0.08494995534420013
105 188 0.9700728058815002
105 189 0.17709293961524963
105 190 0.9699357748031616
105 191 0.9674144983291626
105 192 0.9589225649833679
105 193 0.9706650376319885
105 195 0.9631161689758301
105 196 0.18826651573181152
105 198 0.1979924887418747
105 200 0.6337648034095764
105 201 0.9678610563278198
105 202 0.9605321288108826
105 203 0.964779794216156
105 204 0.17000101506710052
105 205 0.964779794216156
105 206 0.9663195013999939
105 207 0.9657297730445862
105 208 0.10153461992740631
105 209 0.17620761692523956
105 210 0.13258971273899078
105 211 0.9716944098472595
105 212 0.12435399740934372
105 213 0.9626112580299377
105 214 0.12522362172603607
105 215 0.9636806845664978
105 216 0.948631227016449
105 217 0.9689809083938599
105 218 0.28915709257125854
105 219 0.08712851256132126
105 221 0.9685091376304626
105 222 0.9260735511779785
105 223 0.08712851256132126
105 224 0.9642777442932129
105 225 0.10777346044778824
105 226 0.9599636793136597
105 227 0.9610681533813477
105 228 0.11606372892856598
105 229 0.10649040341377258
105 230 0.9494878649711609
105 231 0.9679467678070068
105 232 0.18995387852191925
105 233 0.964050829410553
105 234 0.13485386967658997
105 235 0.9700150489807129
105 236 0.9452738761901855
105 237 0.9737821221351624
105 238 0.07179581373929977
105 239 0.26084715127944946
105 240 0.9561694860458374
105 241 0.9700728058815002
105 242 0.9674450755119324
105 243 0.09680946171283722
105 244 0.9583853483200073
105 245 0.9571303129196167
105 247 0.9630322456359863
105 248 0.9684786796569824
105 250 0.9722242951393127
105 251 0.21580936014652252
105 252 0.957310140132904
105 253 0.18163064122200012
105 254 0.9610048532485962
105 255 0.9732831120491028
106 107 0.9480937123298645
106 108 0.8746298551559448
106 110 0.9467644691467285
106 111 0.1467321515083313
106 112 0.16736547648906708
106 113 0.9564601182937622
106 114 0.2876396179199219
106 115 0.9548577070236206
106 116 0.9615756869316101
106 117 0.13870839774608612
106 118 0.927448570728302
106 119 0.955751359462738
106 120 0.11268723011016846
106 121 0.920361340045929
106 122 0.9600998163223267
106 123 0.9583146572113037
106 124 0.948203444480896
106 125 0.9475370049476624
106 126 0.9624581336975098
106 127 0.9575629234313965
106 128 0.9614664316177368
106 129 0.9604777693748474
106 130 0.14963801205158234
106 131 0.8310274481773376
106 132 0.9402690529823303
106 133 0.9703699350357056
106 134 0.11268723011016846
106 135 0.9370672106742859
106 136 0.954042375087738
106 137 0.9497089385986328
106 138 0.9505972862243652
106 139 0.9458646774291992
106 140 0.9409996271133423
106 141 0.9608640074729919
106 142 0.9537519812583923
106 143 0.9608116149902344
106 144 0.3371291160583496
106 145 0.9560733437538147
106 146 0.9409996271133423
106 147 0.9583920240402222
106 149 0.8575257658958435
106 150 0.9572906494140625
106 151 0.9411172866821289
106 152 0.9542505741119385
106 153 0.9551430344581604
106 154 0.9535396099090576
106 155 0.9567395448684692
106 156 0.951151967048645
106 157 0.9611603617668152
106 159 0.9501010179519653
106 160 0.19074055552482605
106 161 0.9465327262878418
106 162 0.9478856921195984
106 163 0.9492605924606323
106 164 0.22131332755088806
106 165 0.9550841450691223
106 166 0.9522604942321777
106 167 0.9475370049476624
106 168 0.09967613220214844
106 169 0.8756737112998962
106 170 0.9603680968284607
106 171 0.9503716826438904
106 172 0.9409421682357788
106 173 0.12777531147003174
106 174 0.8704195022583008
106 175 0.9528142809867859
106 176 0.938933789730072
106 177 0.9565691351890564
106 178 0.7708333134651184
106 179 0.9550261497497559
106 180 0.9505395293235779
106 181 0.964050829410553
106 182 0.9524836540222168
106 183 0.16101528704166412
106 184 0.9540929794311523
106 185 0.9090699553489685
106 186 0.15774913132190704
106 187 0.08606629818677902
106 188 0.9566817879676819
106 189 0.20052841305732727
106 190 0.9606109857559204
106 191 0.9560173749923706
106 192 0.9483169913291931
106 193 0.9656921029090881
106 195 0.9504826068878174
106 196 0.165643110871315
106 198 0.1748771220445633
106 200 0.6309953331947327
106 201 0.9574580192565918
106 202 0.9520907402038574
106 203 0.9522604942321777
106 204 0.1484784632921219
106 205 0.9512105584144592
106 206 0.9496054649353027
106 207 0.9520907402038574
106 208 0.07200822234153748
106 209 0.1450500786304474
106 210 0.12686920166015625
106 211 0.9583920240402222
106 212 0.08399210125207901
106 213 0.954197108745575
106 214 0.1194063052535057
106 215 0.950042188167572
106 216 0.93656325340271
106 217 0.9597123265266418
106 218 0.27203139662742615
106 220 0.05634361505508423
106 221 0.9561302065849304
106 222 0.9185827374458313
106 223 0.06865714490413666
106 224 0.9559623599052429
106 225 0.11758894473314285
106 226 0.947262167930603
106 227 0.9484341740608215
106 228 0.08399210125207901
106 229 0.1078898087143898
106 230 0.9318702816963196
106 231 0.9565691351890564
106 232 0.17045579850673676
106 233 0.9449735879898071
106 234 0.14963801205158234
106 235 0.9565691351890564
106 236 0.9405174851417542
106 237 0.9626175165176392
106 238 0.07273929566144943
106 239 0.24425417184829712
106 240 0.9464771151542664
106 241 0.9587728977203369
106 242 0.9602620601654053
106 243 0.07846531271934509
106 244 0.9509267210960388
106 245 0.9388729929924011
106 246 0.06506000459194183
106 247 0.9492605924606323
106 248 0.9560733437538147
106 249 0.05312127247452736
106 250 0.9610269069671631
106 251 0.2095351368188858
106 252 0.9498162865638733
106 253 0.16101528704166412
106 254 0.9493718147277832
106 255 0.9631655216217041
107 108 0.869796633720398
107 110 0.9593775868415833
107 111 0.11495556682348251
107 112 0.17312763631343842
107 113 0.9564228057861328
107 114 0.2422947734594345
107 115 0.9569213390350342
107 116 0.9594661593437195
107 117 0.11802709847688675
107 118 0.9284315705299377
107 119 0.9525449275970459
107 120 0.11280666291713715
107 121 0.9246079325675964
107 122 0.960076093673706
107 123 0.9455955028533936
107 124 0.943917453289032
107 125 0.9411141872406006
107 126 0.9624320864677429
107 127 0.9554280638694763
107 128 0.9603952765464783
107 129 0.9573199152946472
107 130 0.12374503910541534
107 131 0.8283121585845947
107 132 0.9434024691581726
107 133 0.9713984727859497
107 134 0.10340611636638641
107 135 0.9369920492172241
107 136 0.9476500749588013
107 137 0.9485957622528076
107 138 0.9516047835350037
107 139 0.947929859161377
107 140 0.9451901912689209
107 141 0.957695722579956
107 142 0.9589734673500061
107 143 0.9565911889076233
107 144 0.3078823387622833
107 145 0.9528934955596924
107 146 0.9483833312988281
107 147 0.9573199152946472
107 149 0.8488964438438416
107 150 0.9583052396774292
107 151 0.95061194896698
107 152 0.9542087316513062
107 153 0.9561553597450256
107 154 0.9587786197662354
107 155 0.959844708442688
107 156 0.952160120010376
107 157 0.9506120085716248
107 159 0.952160120010376
107 160 0.1708434820175171
107 161 0.9432963728904724
107 162 0.9393056035041809
107 163 0.9481502771377563
107 164 0.22565065324306488
107 165 0.9560964107513428
107 166 0.9543207883834839
107 167 0.947480320930481
107 168 0.1381593942642212
107 169 0.8835315108299255
107 170 0.96138596534729
107 171 0.9460935592651367
107 172 0.9440705180168152
107 173 0.13501688838005066
107 174 0.8884944915771484
107 175 0.9580260515213013
107 176 0.9452452659606934
107 177 0.9649247527122498
107 178 0.779379665851593
107 179 0.9560384154319763
107 180 0.9568157196044922
107 181 0.957753598690033
107 182 0.9556073546409607
107 183 0.1726992279291153
107 184 0.9508781433105469
107 185 0.9078379273414612
107 186 0.16961385309696198
107 187 0.08615751564502716
107 188 0.9556024670600891
107 189 0.1848929524421692
107 190 0.952160120010376
107 191 0.9528331756591797
107 192 0.9493221044540405
107 193 0.9646276235580444
107 195 0.9493802785873413
107 196 0.19094271957874298
107 198 0.16991357505321503
107 200 0.6380124688148499
107 201 0.952160120010376
107 202 0.9520455002784729
107 203 0.9490657448768616
107 204 0.16647213697433472
107 205 0.950116753578186
107 206 0.9548182487487793
107 207 0.9530998468399048
107 208 0.08238234370946884
107 209 0.13961905241012573
107 210 0.1344744712114334
107 211 0.9604517817497253
107 212 0.12612168490886688
107 213 0.9488825798034668
107 214 0.11953286826610565
107 215 0.9510491490364075
107 216 0.9396916627883911
107 217 0.9586318135261536
107 218 0.2723197340965271
107 219 0.05891135707497597
107 220 0.05640333145856857
107 221 0.9592380523681641
107 222 0.9140892624855042
107 223 0.07854848355054855
107 224 0.9548746347427368
107 225 0.1177135780453682
107 226 0.9482661485671997
107 227 0.9473318457603455
107 228 0.07567301392555237
107 229 0.09818560630083084
107 230 0.9360858798027039
107 231 0.9544364809989929
107 232 0.18714967370033264
107 233 0.9417378306388855
107 234 0.09118054807186127
107 235 0.9554853439331055
107 236 0.9329159259796143
107 237 0.9625949263572693
107 238 0.0728163942694664
107 239 0.24852146208286285
107 240 0.9453582763671875
107 241 0.9660690426826477
107 242 0.9560384154319763
107 243 0.0883670449256897
107 244 0.9477085471153259
107 245 0.9388037323951721
107 246 0.06512895971536636
107 247 0.9428592920303345
107 248 0.9549901485443115
107 249 0.053177572786808014
107 250 0.9620454907417297
107 251 0.21887709200382233
107 252 0.9455347657203674
107 253 0.15542930364608765
107 254 0.9503781199455261
107 255 0.9600169062614441
108 109 0.050031278282403946
108 110 0.8691151738166809
108 111 0.1734522581100464
108 112 0.15774677693843842
108 113 0.8780461549758911
108 114 0.31281763315200806
108 115 0.8830734491348267
108 116 0.8859946727752686
108 117 0.1357649862766266
108 118 0.8610265254974365
108 119 0.8789730072021484
108 120 0.11233852058649063
108 121 0.8599650263786316
108 122 0.8835033774375916
108 123 0.879211962223053
108 124 0.8737058043479919
108 125 0.8679528832435608
108 126 0.8830508589744568
108 127 0.8737110495567322
108 128 0.8832764029502869
108 129 0.8812338709831238
108 130 0.16273631155490875
108 131 0.7956821322441101
108 132 0.8682011365890503
108 133 0.8913997411727905
108 134 0.10212592780590057
108 135 0.8554335236549377
108 136 0.8663507699966431
108 137 0.8693358302116394
108 138 0.8759905695915222
108 139 0.8681837320327759
108 140 0.8614795804023743
108 141 0.8789586424827576
108 142 0.8737033605575562
108 143 0.8878358006477356
108 144 0.3537745773792267
108 145 0.8860180377960205
108 146 0.8672612905502319
108 147 0.8778314590454102
108 149 0.777156412601471
108 150 0.8775997757911682
108 151 0.8700295686721802
108 152 0.8798811435699463
108 153 0.880777895450592
108 154 0.8785266876220703
108 155 0.8791879415512085
108 156 0.8766762018203735
108 157 0.8785037994384766
108 159 0.8778191804885864
108 160 0.15830694139003754
108 161 0.8670328855514526
108 162 0.8665679097175598
108 163 0.8760049939155579
108 164 0.23622845113277435
108 165 0.873724639415741
108 166 0.8723371624946594
108 167 0.8679528832435608
108 168 0.1084011048078537
108 169 0.7979950308799744
108 170 0.8887333869934082
108 171 0.8681910634040833
108 172 0.8693469762802124
108 173 0.09263992309570312
108 174 0.8074758648872375
108 175 0.8798716068267822
108 176 0.865181028842926
108 177 0.8796408176422119
108 178 0.7501376867294312
108 179 0.8860180377960205
108 180 0.8734729290008545
108 181 0.8814597129821777
108 182 0.8750814199447632
108 183 0.17510947585105896
108 184 0.8734729886054993
108 185 0.8455348610877991
108 186 0.15884946286678314
108 187 0.0802285298705101
108 188 0.8800957202911377
108 189 0.20086434483528137
108 190 0.8732472658157349
108 191 0.8789573907852173
108 192 0.8661304712295532
108 193 0.8857704997062683
108 195 0.8789730072021484
108 196 0.19106009602546692
108 197 0.053066182881593704
108 198 0.20137201249599457
108 200 0.5482929944992065
108 201 0.8823911547660828
108 202 0.8808029890060425
108 203 0.8780461549758911
108 204 0.1356392204761505
108 205 0.8780461549758911
108 206 0.8842158317565918
108 207 0.8762214183807373
108 208 0.06712400168180466
108 209 0.14561240375041962
108 210 0.09739374369382858
108 211 0.876697301864624
108 212 0.10961303859949112
108 213 0.8682036995887756
108 214 0.12174218147993088
108 215 0.8753044009208679
108 216 0.858453631401062
108 217 0.8773620128631592
108 218 0.1744716316461563
108 219 0.07466693222522736
108 221 0.8771376609802246
108 222 0.8398160934448242
108 223 0.09600034356117249
108 224 0.8684595823287964
108 225 0.11874745786190033
108 226 0.8741608262062073
108 227 0.8723281621932983
108 228 0.08220978081226349
108 229 0.09600034356117249
108 230 0.8614823222160339
108 231 0.8807803392410278
108 232 0.16743667423725128
108 233 0.8677248358726501
108 234 0.13443434238433838
108 235 0.876222550868988
108 236 0.8722196817398071
108 237 0.8871276378631592
108 239 0.22208786010742188
108 240 0.8633422255516052
108 241 0.8732732534408569
108 242 0.8791849613189697
108 243 0.08533363789319992
108 244 0.8677340149879456
108 245 0.8695739507675171
108 246 0.07075491547584534
108 247 0.8771545886993408
108 248 0.8791849613189697
108 249 0.07221393287181854
108 250 0.8875828385353088
108 251 0.17338420450687408
108 252 0.8697978258132935
108 253 0.19387120008468628
108 254 0.8764552474021912
108 255 0.8832757472991943
109 111 0.1386750489473343
109 114 0.07624928653240204
109 144 0.06428243219852448
109 160 0.10910893976688385
109 169 0.050156984478235245
109 178 0.055945418775081635
109 189 0.11470786482095718
109 209 0.12126781791448593
109 229 0.21320070326328278
110 111 0.15254785120487213
110 112 0.15007412433624268
110 113 0.9633976221084595
110 114 0.2551262676715851
110 115 0.9565736651420593
110 116 0.9663376808166504
110 117 0.13819749653339386
110 118 0.9336914420127869
110 119 0.9532809853553772
110 120 0.07484812289476395
110 121 0.9267380237579346
110 122 0.967963457107544
110 123 0.9484758377075195
110 124 0.9478706121444702
110 125 0.9472148418426514
110 126 0.9693248271942139
110 127 0.957170844078064
110 128 0.9620854258537292
110 129 0.9652522206306458
110 130 0.13612279295921326
110 131 0.837510883808136
110 132 0.9453125596046448
110 133 0.9739953279495239
110 134 0.08420413732528687
110 135 0.9399958252906799
110 136 0.9526336789131165
110 137 0.9493755102157593
110 138 0.9638587236404419
110 139 0.9497844576835632
110 140 0.9513053894042969
110 141 0.9594083428382874
110 142 0.9575726985931396
110 143 0.9614437818527222
110 144 0.3064235746860504
110 145 0.9567252397537231
110 146 0.9534240365028381
110 147 0.9621351957321167
110 149 0.8531806468963623
110 150 0.9620854258537292
110 151 0.950336217880249
110 152 0.9570252299308777
110 153 0.9589132070541382
110 154 0.9552878737449646
110 155 0.9625812768936157
110 156 0.9570727944374084
110 157 0.9555270671844482
110 159 0.9602141976356506
110 160 0.1650329977273941
110 161 0.9483206868171692
110 162 0.9422745704650879
110 163 0.9489237666130066
110 164 0.2531645894050598
110 165 0.9609465003013611
110 166 0.9633976221084595
110 167 0.9493268728256226
110 168 0.12222646176815033
110 169 0.8839430809020996
110 170 0.9682837128639221
110 171 0.9489754438400269
110 172 0.940657913684845
110 173 0.11315971612930298
110 174 0.8888370394706726
110 175 0.9555777311325073
110 176 0.9534652829170227
110 177 0.9666160941123962
110 178 0.7769690155982971
110 179 0.9588118195533752
110 180 0.9564773440361023
110 181 0.964662492275238
110 182 0.9521316289901733
110 183 0.16042223572731018
110 184 0.9516304135322571
110 185 0.9144619107246399
110 186 0.16881020367145538
110 188 0.9635751247406006
110 189 0.18927456438541412
110 190 0.953931450843811
110 191 0.9577181935310364
110 192 0.9511299729347229
110 193 0.9631742238998413
110 195 0.9595801830291748
110 196 0.20504100620746613
110 198 0.17935749888420105
110 200 0.655523955821991
110 201 0.9581198692321777
110 202 0.9548798203468323
110 203 0.955029308795929
110 204 0.17160063982009888
110 205 0.9571213722229004
110 206 0.9576202034950256
110 207 0.9559292197227478
110 208 0.07174300402402878
110 209 0.18342392146587372
110 210 0.11896651238203049
110 211 0.9631742238998413
110 212 0.1255241185426712
110 213 0.9548798203468323
110 214 0.111531101167202
110 215 0.9528323411941528
110 216 0.9426786303520203
110 217 0.9613967537879944
110 218 0.2814536690711975
110 219 0.08794834464788437
110 221 0.9588619470596313
110 222 0.9217287302017212
110 223 0.09772038459777832
110 224 0.9597597122192383
110 225 0.09205102175474167
110 226 0.9563847780227661
110 227 0.9522823095321655
110 228 0.0753144696354866
110 229 0.10749242454767227
110 230 0.9380757212638855
110 231 0.9572213292121887
110 232 0.16982796788215637
110 233 0.9457101225852966
110 234 0.1490868777036667
110 235 0.9613967537879944
110 236 0.9370533227920532
110 237 0.9694514870643616
110 238 0.07247138023376465
110 239 0.2593122124671936
110 240 0.9493268728256226
110 241 0.9677419066429138
110 242 0.9588118195533752
110 243 0.09772038459777832
110 244 0.953733503818512
110 245 0.946008563041687
110 247 0.9478706121444702
110 248 0.9640284180641174
110 249 0.0661570206284523
110 250 0.9657951593399048
110 251 0.21330170333385468
110 252 0.9600021243095398
110 253 0.16615159809589386
110 254 0.953231930732727
110 255 0.9679173231124878
111 113 0.1392516791820526
111 114 0.1480342298746109
111 115 0.1583230048418045
111 116 0.13189560174942017
111 117 0.2926847040653229
111 118 0.15585729479789734
111 119 0.12705650925636292
111 121 0.11819618195295334
111 122 0.15050645172595978
111 123 0.1590711921453476
111 124 0.1274583637714386
111 125 0.1469656080007553
111 126 0.13230332732200623
111 127 0.1580759435892105
111 128 0.1384606659412384
111 129 0.16346704959869385
111 130 0.07844646275043488
111 131 0.12994442880153656
111 132 0.11581850796937943
111 133 0.14314182102680206
111 134 0.1132277101278305
111 135 0.15442466735839844
111 136 0.1528693288564682
111 137 0.15319287776947021
111 138 0.16482789814472198
111 139 0.14720019698143005
111 140 0.12179487943649292
111 141 0.1575852781534195
111 142 0.13313022255897522
111 143 0.13881853222846985
111 144 0.17828740179538727
111 145 0.15783004462718964
111 146 0.13461539149284363
111 147 0.16346704959869385
111 149 0.09334418177604675
111 150 0.1384606659412384
111 151 0.15991507470607758
111 152 0.13954268395900726
111 153 0.13860347867012024
111 154 0.13369017839431763
111 155 0.157422736287117
111 156 0.16474182903766632
111 157 0.15199008584022522
111 159 0.1267244964838028
111 160 0.12104551494121552
111 161 0.14680984616279602
111 162 0.12827368080615997
111 163 0.13383127748966217
111 164 0.14824986457824707
111 165 0.15136006474494934
111 166 0.14558129012584686
111 167 0.1533554047346115
111 169 0.11128836870193481
111 170 0.14490364491939545
111 171 0.16552117466926575
111 172 0.15401078760623932
111 174 0.09641196578741074
111 175 0.11387388408184052
111 176 0.14727863669395447
111 177 0.15159541368484497
111 178 0.11637351661920547
111 179 0.16414323449134827
111 180 0.12692338228225708
111 181 0.1448289304971695
111 182 0.12095778435468674
111 183 0.1386750489473343
111 184 0.14634551107883453
111 185 0.13883255422115326
111 186 0.07044699788093567
111 188 0.15128186345100403
111 189 0.1590711921453476
111 190 0.11405204236507416
111 191 0.1579938381910324
111 192 0.15898752212524414
111 193 0.14460547268390656
111 194 0.1961161494255066
111 195 0.15882061421871185
111 196 0.09078413248062134
111 197 0.1961161494255066
111 198 0.1860520839691162
111 200 0.09558115899562836
111 201 0.158405601978302
111 202 0.16508685052394867
111 203 0.14558129012584686
111 205 0.164570152759552
111 206 0.13932424783706665
111 207 0.13333939015865326
111 208 0.06201736629009247
111 209 0.2018018364906311
111 211 0.13203108310699463
111 213 0.13333939015865326
111 215 0.13319984078407288
111 216 0.14147983491420746
111 217 0.13264599442481995
111 218 0.10512928664684296
111 221 0.1387467384338379
111 222 0.1580384373664856
111 223 0.11826248466968536
111 224 0.12020021677017212
111 226 0.14626853168010712
111 227 0.15865422785282135
111 228 0.20254787802696228
111 229 0.05913124233484268
111 230 0.14903677999973297
111 231 0.15159541368484497
111 232 0.0994490310549736
111 233 0.15949146449565887
111 234 0.07844646275043488
111 235 0.1452789455652237
111 236 0.1618199199438095
111 237 0.15073782205581665
111 239 0.07242067903280258
111 240 0.14057579636573792
111 241 0.13237164914608002
111 242 0.13889044523239136
111 244 0.10816841572523117
111 245 0.16025641560554504
111 247 0.1465771198272705
111 248 0.1515168398618698
111 249 0.0800640806555748
111 250 0.1508151888847351
111 252 0.1528693288564682
111 253 0.2426813393831253
111 254 0.15262803435325623
111 255 0.14438305795192719
112 113 0.16051769256591797
112 114 0.0739726796746254
112 115 0.1772153079509735
112 116 0.18673992156982422
112 117 0.07312723994255066
112 118 0.17604544758796692
112 119 0.161106139421463
112 121 0.15503932535648346
112 122 0.17548543214797974
112 123 0.18918107450008392
112 124 0.17276160418987274
112 125 0.15645632147789001
112 126 0.16527985036373138
112 127 0.17140941321849823
112 128 0.1816204935312271
112 129 0.1759357452392578
112 131 0.1262589991092682
112 132 0.1575472056865692
112 133 0.17415498197078705
112 135 0.16880057752132416
112 136 0.17824047803878784
112 137 0.1786177158355713
112 138 0.17185662686824799
112 139 0.1567060649394989
112 140 0.1569569706916809
112 141 0.16536518931388855
112 142 0.16076910495758057
112 143 0.1765720546245575
112 144 0.14031702280044556
112 145 0.18218424916267395
112 146 0.15135136246681213
112 147 0.1759357452392578
112 149 0.11930118501186371
112 150 0.18712414801120758
112 151 0.16221633553504944
112 152 0.14975982904434204
112 153 0.18731717765331268
112 154 0.17257946729660034
112 155 0.18171408772468567
112 156 0.17730776965618134
112 157 0.17167732119560242
112 159 0.16622602939605713
112 160 0.07938840985298157
112 161 0.1786177158355713
112 162 0.15143229067325592
112 163 0.18390750885009766
112 165 0.18199573457241058
112 166 0.17712298035621643
112 167 0.15645632147789001
112 168 0.08084520697593689
112 169 0.12164855748414993
112 170 0.17629851400852203
112 171 0.16701237857341766
112 172 0.17957136034965515
112 173 0.11227216571569443
112 174 0.12646472454071045
112 175 0.18809522688388824
112 176 0.17358843982219696
112 177 0.16570793092250824
112 178 0.11533444374799728
112 179 0.1711427867412567
112 180 0.1609373539686203
112 181 0.18171408772468567
112 182 0.16701237857341766
112 183 0.15158477425575256
112 184 0.17248861491680145
112 185 0.18499889969825745
112 186 0.09240616112947464
112 187 0.19446110725402832
112 188 0.1819017082452774
112 189 0.11128298193216324
112 190 0.17176689207553864
112 191 0.17684687674045563
112 192 0.1890815645456314
112 193 0.18143373727798462
112 195 0.17777228355407715
112 197 0.08574929088354111
112 198 0.13558153808116913
112 200 0.09194162487983704
112 201 0.15514428913593292
112 202 0.1721266210079193
112 203 0.1881931573152542
112 204 0.06262243539094925
112 205 0.17158788442611694
112 206 0.1827532798051834
112 207 0.18323156237602234
112 208 0.10846523195505142
112 209 0.05882352963089943
112 210 0.07868894189596176
112 211 0.18693174421787262
112 212 0.08856149017810822
112 213 0.1721266210079193
112 214 0.15737788379192352
112 215 0.18858645856380463
112 216 0.1630861461162567
112 217 0.14913713932037354
112 218 0.09193289279937744
112 219 0.15512630343437195
112 221 0.17096570134162903
112 222 0.17275077104568481
112 223 0.206835076212883
112 224 0.18809522688388824
112 225 0.08856149017810822
112 226 0.1779591143131256
112 227 0.17758604884147644
112 228 0.17712298035621643
112 230 0.13032887876033783
112 231 0.18227870762348175
112 232 0.1159542053937912
112 233 0.1729443371295929
112 234 0.06859943270683289
112 235 0.1767551302909851
112 236 0.17546918988227844
112 237 0.1812475621700287
112 239 0.12666009366512299
112 240 0.13969314098358154
112 241 0.17638954520225525
112 242 0.18218424916267395
112 243 0.1034175381064415
112 244 0.17805276811122894
112 245 0.16816818714141846
112 246 0.08574929088354111
112 247 0.1894804686307907
112 248 0.18218424916267395
112 249 0.14002801477909088
112 250 0.18134057521820068
112 252 0.17824047803878784
112 254 0.1779591143131256
112 255 0.17017561197280884
113 114 0.26102158427238464
113 115 0.9702971577644348
113 116 0.9685045480728149
113 117 0.13073945045471191
113 118 0.9372739791870117
113 119 0.9587100148200989
113 120 0.09316951036453247
113 121 0.9250298142433167
113 122 0.9701141119003296
113 123 0.9549869298934937
113 124 0.9523032307624817
113 125 0.952724039554596
113 126 0.9683879017829895
113 127 0.9635801315307617
113 128 0.9694616198539734
113 129 0.968464732170105
113 130 0.10973452776670456
113 131 0.8518347144126892
113 132 0.957249104976654
113 133 0.9801706671714783
113 134 0.09316951036453247
113 135 0.946660041809082
113 136 0.9559937119483948
113 137 0.9538151621818542
113 138 0.9629641771316528
113 139 0.9521383047103882
113 140 0.9547178149223328
113 141 0.9657759666442871
113 142 0.9619209170341492
113 143 0.9688520431518555
113 144 0.316880464553833
113 145 0.962081253528595
113 146 0.9526079893112183
113 147 0.966395378112793
113 149 0.8507999777793884
113 150 0.9663543701171875
113 151 0.9505789875984192
113 152 0.9603360891342163
113 153 0.9663142561912537
113 154 0.955489993095398
113 155 0.967888593673706
113 156 0.9572476744651794
113 157 0.9630016088485718
113 159 0.9593331217765808
113 160 0.14940357208251953
113 161 0.9517142176628113
113 162 0.9531172513961792
113 163 0.956498384475708
113 164 0.2480412721633911
113 165 0.9631614685058594
113 166 0.9645833373069763
113 167 0.9495694041252136
113 168 0.10650160163640976
113 169 0.8813969492912292
113 170 0.9673510789871216
113 171 0.9544423222541809
113 172 0.9483470320701599
113 173 0.11268723011016846
113 174 0.8873924612998962
113 175 0.9619991183280945
113 176 0.9536994695663452
113 177 0.9667380452156067
113 178 0.778831958770752
113 179 0.9641591310501099
113 180 0.960838794708252
113 181 0.9689249396324158
113 182 0.9596807360649109
113 183 0.17116329073905945
113 184 0.9581283330917358
113 185 0.9204355478286743
113 186 0.16230860352516174
113 187 0.08539125323295593
113 188 0.9657759666442871
113 189 0.18848426640033722
113 190 0.9593331217765808
113 191 0.960999608039856
113 192 0.9555312395095825
113 193 0.9746728539466858
113 195 0.9597554802894592
113 196 0.19422464072704315
113 198 0.19391793012619019
113 200 0.6417760848999023
113 201 0.960375964641571
113 202 0.9550725817680359
113 203 0.9604166746139526
113 204 0.1649915874004364
113 205 0.9614583253860474
113 206 0.9598750472068787
113 207 0.9623871445655823
113 208 0.05103103443980217
113 209 0.16051769256591797
113 210 0.11846978217363358
113 211 0.966395378112793
113 212 0.10833333432674408
113 213 0.9602972865104675
113 214 0.11106541752815247
113 215 0.9592922329902649
113 216 0.9461508989334106
113 217 0.9656984806060791
113 218 0.26297736167907715
113 219 0.08758113533258438
113 220 0.055901702493429184
113 221 0.9641993641853333
113 222 0.9254659414291382
113 223 0.08758113533258438
113 224 0.9661636352539062
113 225 0.10833333432674408
113 226 0.9576243758201599
113 227 0.9566612839698792
113 228 0.0833333358168602
113 229 0.09731236845254898
113 230 0.9394908547401428
113 231 0.9656984806060791
113 232 0.17457431554794312
113 233 0.9522604942321777
113 234 0.14200939238071442
113 235 0.9667380452156067
113 236 0.941662609577179
113 237 0.9705718755722046
113 238 0.05773502215743065
113 239 0.2622022032737732
113 240 0.9558787941932678
113 241 0.968887984752655
113 242 0.9641591310501099
113 243 0.08758113533258438
113 244 0.9623168706893921
113 245 0.9526079893112183
113 247 0.9533520340919495
113 248 0.9683150053024292
113 249 0.05270463228225708
113 250 0.9710699915885925
113 251 0.21693044900894165
113 252 0.9622831344604492
113 253 0.14834152162075043
113 254 0.9597176313400269
113 255 0.9731737375259399
114 115 0.29249656200408936
114 116 0.2866332530975342
114 117 0.16093015670776367
114 118 0.278514564037323
114 119 0.2899228036403656
114 121 0.27800917625427246
114 122 0.27929702401161194
114 123 0.297377347946167
114 124 0.28733572363853455
114 125 0.2951240837574005
114 126 0.27019885182380676
114 127 0.2920401394367218
114 128 0.280301958322525
114 129 0.2903846502304077
114 130 0.1509658843278885
114 131 0.23419338464736938
114 132 0.24765150249004364
114 133 0.2840234935283661
114 134 0.12451456487178802
114 135 0.28303030133247375
114 136 0.29418864846229553
114 137 0.27375328540802
114 138 0.27537333965301514
114 139 0.2780001759529114
114 140 0.26082220673561096
114 141 0.2911336421966553
114 142 0.2684018909931183
114 143 0.2810264825820923
114 144 0.22546854615211487
114 145 0.2985283434391022
114 146 0.2572976052761078
114 147 0.2903846502304077
114 149 0.24872641265392303
114 150 0.2872230112552643
114 151 0.2637837827205658
114 152 0.29993027448654175
114 153 0.2771270275115967
114 154 0.2870327830314636
114 155 0.28737103939056396
114 156 0.2752295732498169
114 157 0.282050222158432
114 159 0.25432607531547546
114 160 0.09983374178409576
114 161 0.27024364471435547
114 162 0.2785941958427429
114 163 0.28032755851745605
114 165 0.2670104503631592
114 166 0.2679821848869324
114 167 0.26350364089012146
114 169 0.21799276769161224
114 170 0.28751930594444275
114 171 0.29403358697891235
114 172 0.27168652415275574
114 173 0.1176552027463913
114 174 0.22340472042560577
114 175 0.271321177482605
114 176 0.24998140335083008
114 177 0.28479090332984924
114 178 0.23888470232486725
114 179 0.2985283434391022
114 180 0.27217215299606323
114 181 0.2735218405723572
114 182 0.27303117513656616
114 183 0.1715608835220337
114 184 0.29387879371643066
114 185 0.2798982560634613
114 186 0.0774693489074707
114 187 0.081513911485672
114 188 0.28420186042785645
114 189 0.1574350744485855
114 190 0.2717456519603729
114 191 0.2918884754180908
114 192 0.2902275323867798
114 193 0.2903846502304077
114 194 0.10783278197050095
114 195 0.2899228036403656
114 196 0.0831947922706604
114 197 0.05391639098525047
114 198 0.11934901028871536
114 199 0.07624928653240204
114 200 0.18394066393375397
114 201 0.2856813371181488
114 202 0.28977084159851074
114 203 0.2993047535419464
114 204 0.05906244367361069
114 205 0.28190329670906067
114 206 0.2472292184829712
114 207 0.2618411183357239
114 208 0.06819943338632584
114 209 0.1109590083360672
114 211 0.2834707200527191
114 213 0.28278839588165283
114 215 0.27900490164756775
114 216 0.272270143032074
114 217 0.2708986699581146
114 218 0.08092620968818665
114 221 0.2808811068534851
114 222 0.29689493775367737
114 224 0.2747996747493744
114 225 0.11136921495199203
114 226 0.27274394035339355
114 227 0.27217215299606323
114 228 0.11136921495199203
114 229 0.16256402432918549
114 230 0.2814687192440033
114 231 0.2952100932598114
114 232 0.07290826737880707
114 233 0.2701006531715393
114 234 0.06469966471195221
114 235 0.26742562651634216
114 236 0.2989569902420044
114 237 0.27972641587257385
114 239 0.06636648625135422
114 240 0.2740437686443329
114 241 0.28420186042785645
114 242 0.2881145775318146
114 244 0.26589033007621765
114 245 0.2854945957660675
114 247 0.2943439483642578
114 248 0.2777007818222046
114 250 0.2902355492115021
114 251 0.06039843335747719
114 252 0.2766773998737335
114 253 0.15249857306480408
114 254 0.2867308259010315
114 255 0.26577651500701904
115 116 0.9690093398094177
115 117 0.1514614224433899
115 118 0.9399011135101318
115 119 0.9592097401618958
115 120 0.08389625698328018
115 121 0.9244307279586792
115 122 0.9695872068405151
115 123 0.96177077293396
115 124 0.9548982381820679
115 125 0.9563770294189453
115 126 0.9668179750442505
115 127 0.9661646485328674
115 128 0.9710031747817993
115 129 0.9700047373771667
115 130 0.13562507927417755
115 131 0.8439580798149109
115 132 0.9503318071365356
115 133 0.9776073694229126
115 134 0.10253987461328506
115 135 0.9418562054634094
115 136 0.9554433226585388
115 137 0.9543123841285706
115 138 0.9613783955574036
115 139 0.9505269527435303
115 140 0.9520490765571594
115 141 0.9693930149078369
115 142 0.9655537605285645
115 143 0.9662402272224426
115 144 0.34053048491477966
115 145 0.9636221528053284
115 146 0.9499380588531494
115 147 0.9689695239067078
115 149 0.8488788604736328
115 150 0.9637491703033447
115 151 0.951074481010437
115 152 0.9608367085456848
115 153 0.9626684784889221
115 154 0.9549397826194763
115 155 0.9694300293922424
115 156 0.9577466249465942
115 157 0.9603754281997681
115 159 0.9587898850440979
115 160 0.13951601088047028
115 161 0.9511592984199524
115 162 0.9493898153305054
115 163 0.9569969177246094
115 164 0.24817056953907013
115 165 0.9626251459121704
115 166 0.9609172344207764
115 167 0.9490122199058533
115 168 0.11416833847761154
115 169 0.872694194316864
115 170 0.9668179750442505
115 171 0.9517950415611267
115 172 0.9477846622467041
115 173 0.12683922052383423
115 174 0.879917562007904
115 175 0.9604172110557556
115 176 0.9478704333305359
115 177 0.9682820439338684
115 178 0.7792379260063171
115 179 0.9667406678199768
115 180 0.9582048654556274
115 181 0.9683931469917297
115 182 0.9559879899024963
115 183 0.17696093022823334
115 184 0.9565324187278748
115 185 0.9176497459411621
115 186 0.16819296777248383
115 187 0.08543576300144196
115 188 0.968355119228363
115 189 0.19905932247638702
115 190 0.9587898850440979
115 191 0.9604598879814148
115 192 0.9591707587242126
115 193 0.9751808643341064
115 195 0.9633938670158386
115 196 0.15944688022136688
115 198 0.1991247832775116
115 200 0.6468319296836853
115 201 0.9619197845458984
115 202 0.9545249342918396
115 203 0.9598750472068787
115 204 0.14149506390094757
115 205 0.9609172344207764
115 206 0.9572471380233765
115 207 0.9587069153785706
115 208 0.051057640463113785
115 209 0.17167732119560242
115 210 0.13334797322750092
115 211 0.965863823890686
115 212 0.10838979482650757
115 213 0.9597523808479309
115 214 0.09630686044692993
115 215 0.956659197807312
115 216 0.9434674382209778
115 217 0.9641218781471252
115 218 0.2700384855270386
115 219 0.07789047062397003
115 220 0.055930834263563156
115 221 0.9615867137908936
115 222 0.9259483218193054
115 223 0.09736309200525284
115 224 0.9625005125999451
115 225 0.11672747135162354
115 226 0.9560293555259705
115 227 0.9561149477958679
115 228 0.1000521183013916
115 229 0.09736309200525284
115 230 0.9410474300384521
115 231 0.9693220853805542
115 232 0.18558189272880554
115 233 0.9538072943687439
115 234 0.14208340644836426
115 235 0.9651618599891663
115 236 0.9464165568351746
115 237 0.9700434803962708
115 238 0.05776512250304222
115 239 0.26233887672424316
115 240 0.9521685242652893
115 241 0.9662793874740601
115 242 0.9625826478004456
115 243 0.08762677758932114
115 244 0.9544370770454407
115 245 0.9499380588531494
115 247 0.9538488984107971
115 248 0.965701162815094
115 249 0.07909814268350601
115 250 0.9715760946273804
115 251 0.2125217765569687
115 252 0.9606872200965881
115 253 0.15983568131923676
115 254 0.9602178931236267
115 255 0.9716137051582336
116 117 0.15021352469921112
116 118 0.9427618980407715
116 119 0.9637556672096252
116 120 0.10169504582881927
116 121 0.9404048919677734
116 122 0.9790078401565552
116 123 0.961120069026947
116 124 0.9636819362640381
116 125 0.9620622396469116
116 126 0.9742844700813293
116 127 0.9685298204421997
116 128 0.9794471263885498
116 129 0.9763864874839783
116 130 0.15372303128242493
116 131 0.8629400134086609
116 132 0.953009307384491
116 133 0.9858136177062988
116 134 0.10169504582881927
116 135 0.950907826423645
116 136 0.9621333479881287
116 137 0.961042582988739
116 138 0.9658804535865784
116 139 0.9552369117736816
116 140 0.9578132629394531
116 141 0.970670223236084
116 142 0.9679509997367859
116 143 0.9737353324890137
116 144 0.33772483468055725
116 145 0.9701159596443176
116 146 0.9557197093963623
116 147 0.9743331670761108
116 149 0.858300507068634
116 150 0.9732806086540222
116 151 0.9578623175621033
116 152 0.9684571027755737
116 153 0.9722268581390381
116 154 0.9689034223556519
116 155 0.9737821221351624
116 156 0.9664108753204346
116 157 0.9700434803962708
116 159 0.9664108753204346
116 160 0.1976664811372757
116 161 0.9641696214675903
116 162 0.956230640411377
116 163 0.9616004824638367
116 164 0.25016072392463684
116 165 0.9711719751358032
116 166 0.9685045480728149
116 167 0.9589318633079529
116 168 0.11322770267724991
116 169 0.8859490156173706
116 170 0.9742844700813293
116 171 0.960586667060852
116 172 0.9556945562362671
116 173 0.1327827423810959
116 174 0.8951593637466431
116 175 0.9690335988998413
116 176 0.9547002911567688
116 177 0.9706190228462219
116 178 0.793088436126709
116 179 0.9690850377082825
116 180 0.9689639806747437
116 181 0.9758387207984924
116 182 0.9657846093177795
116 183 0.15285740792751312
116 184 0.9642371535301208
116 185 0.9284420013427734
116 186 0.16680721938610077
116 187 0.08473184704780579
116 188 0.9737582802772522
116 189 0.16624778509140015
116 190 0.9684802889823914
116 191 0.9700908660888672
116 192 0.9637300968170166
116 193 0.9753598570823669
116 195 0.9647931456565857
116 196 0.182841494679451
116 198 0.19748416543006897
116 200 0.6446242928504944
116 201 0.9674456119537354
116 202 0.9642873406410217
116 203 0.9674709439277649
116 204 0.17541161179542542
116 205 0.9664373397827148
116 206 0.9690093398094177
116 207 0.968434751033783
116 208 0.05063696578145027
116 209 0.17026287317276
116 210 0.13224931061267853
116 211 0.9784399271011353
116 212 0.1157657578587532
116 213 0.968434751033783
116 214 0.13224931061267853
116 215 0.9643139243125916
116 216 0.956697404384613
116 217 0.9737134575843811
116 218 0.28841468691825867
116 219 0.10621700435876846
116 220 0.055470019578933716
116 221 0.970142126083374
116 222 0.9269219040870667
116 223 0.09656091034412384
116 224 0.9700667262077332
116 225 0.1157657578587532
116 226 0.9637300968170166
116 227 0.9648186564445496
116 228 0.08268982917070389
116 229 0.09656091034412384
116 230 0.9481083154678345
116 231 0.9737134575843811
116 232 0.17863954603672028
116 233 0.9584503173828125
116 234 0.14091278612613678
116 235 0.9706190228462219
116 236 0.9470749497413635
116 237 0.9784615635871887
116 238 0.05728919059038162
116 239 0.24835121631622314
116 240 0.9610188007354736
116 241 0.9727289080619812
116 242 0.9721778631210327
116 243 0.10621700435876846
116 244 0.9652761816978455
116 245 0.9536261558532715
116 247 0.9616004824638367
116 248 0.9711469411849976
116 249 0.07844645529985428
116 250 0.9789637327194214
116 251 0.21973977982997894
116 252 0.9662938714027405
116 253 0.16984155774116516
116 254 0.9637300968170166
116 255 0.9789852499961853
117 118 0.11295649409294128
117 119 0.11740622669458389
117 121 0.1356312781572342
117 122 0.13634814321994781
117 123 0.12450859695672989
117 124 0.13856184482574463
117 125 0.14587555825710297
117 126 0.136979877948761
117 127 0.13060347735881805
117 128 0.1163129210472107
117 129 0.13669802248477936
117 131 0.11772039532661438
117 132 0.1259079873561859
117 133 0.13531440496444702
117 134 0.12309149652719498
117 135 0.11191821098327637
117 136 0.12463986873626709
117 137 0.1318427473306656
117 138 0.14472781121730804
117 139 0.12523575127124786
117 140 0.12543630599975586
117 141 0.14390315115451813
117 142 0.12405241280794144
117 143 0.14405202865600586
117 144 0.15505507588386536
117 145 0.1372634768486023
117 146 0.13937367498874664
117 147 0.1503678262233734
117 149 0.09366998821496964
117 150 0.12315485626459122
117 151 0.1390768140554428
117 152 0.12411727756261826
117 153 0.13013088703155518
117 154 0.13841576874256134
117 155 0.1437547206878662
117 156 0.15154045820236206
117 157 0.13769221305847168
117 159 0.11021123081445694
117 160 0.09869274497032166
117 161 0.1387818455696106
117 162 0.13247577846050262
117 163 0.10392138361930847
117 164 0.10744307190179825
117 165 0.13026538491249084
117 166 0.13073945045471191
117 167 0.11114327609539032
117 169 0.13610610365867615
117 170 0.143828883767128
117 171 0.15225733816623688
117 172 0.1534750908613205
117 174 0.11978382617235184
117 175 0.14442630112171173
117 176 0.1253025084733963
117 177 0.13046792149543762
117 178 0.10120907425880432
117 179 0.14412665367126465
117 180 0.1310812532901764
117 181 0.13690924644470215
117 182 0.1453365534543991
117 183 0.15075567364692688
117 184 0.13834288716316223
117 185 0.13655290007591248
117 188 0.14390315115451813
117 189 0.13834288716316223
117 190 0.13776405155658722
117 191 0.11679504811763763
117 192 0.14518363773822784
117 193 0.14353293180465698
117 195 0.14503122866153717
117 196 0.09869274497032166
117 197 0.21320070326328278
117 198 0.06741998344659805
117 200 0.1454707384109497
117 201 0.14465224742889404
117 202 0.15185782313346863
117 203 0.1445014923810959
117 205 0.1376204788684845
117 206 0.12392298877239227
117 207 0.13114993274211884
117 209 0.10969085246324539
117 211 0.1503678262233734
117 212 0.05504818633198738
117 213 0.14495518803596497
117 215 0.1448034942150116
117 216 0.13982254266738892
117 217 0.11673445999622345
117 218 0.09143006801605225
117 219 0.06428243219852448
117 221 0.13712146878242493
117 222 0.136013001203537
117 223 0.12856486439704895
117 224 0.12379396706819534
117 225 0.05504818633198738
117 226 0.13827012479305267
117 227 0.13798026740550995
117 228 0.16514456272125244
117 229 0.06428243219852448
117 230 0.08453219383955002
117 231 0.144201397895813
117 232 0.10811249166727066
117 233 0.131772980093956
117 234 0.08528028428554535
117 235 0.1373346596956253
117 236 0.11962342262268066
117 237 0.12972986698150635
117 239 0.07872957736253738
117 240 0.13198263943195343
117 241 0.12334555387496948
117 242 0.1372634768486023
117 243 0.12856486439704895
117 244 0.1452600359916687
117 245 0.13240498304367065
117 247 0.14548993110656738
117 248 0.14412665367126465
117 249 0.17407765984535217
117 250 0.13662783801555634
117 251 0.08956220746040344
117 252 0.14541317522525787
117 253 0.15075567364692688
117 254 0.13827012479305267
117 255 0.12283899635076523
118 119 0.9364193081855774
118 120 0.09558989107608795
118 121 0.8969508409500122
118 122 0.9476679563522339
118 123 0.9400454163551331
118 124 0.9286207556724548
118 125 0.922450840473175
118 126 0.9382299184799194
118 127 0.9416372179985046
118 128 0.9425764083862305
118 129 0.9479766488075256
118 130 0.15894387662410736
118 131 0.8252073526382446
118 132 0.9158456921577454
118 133 0.9509912729263306
118 134 0.07647190988063812
118 135 0.92562335729599
118 136 0.9335081577301025
118 137 0.9236286878585815
118 138 0.9344602823257446
118 139 0.9250038266181946
118 140 0.921073317527771
118 141 0.9408430457115173
118 142 0.9419531226158142
118 143 0.9396857023239136
118 144 0.3401639759540558
118 145 0.9455021619796753
118 146 0.9221556782722473
118 147 0.943730354309082
118 149 0.8183459043502808
118 150 0.9468270540237427
118 151 0.922351598739624
118 152 0.9370908141136169
118 153 0.944612443447113
118 154 0.9254919290542603
118 155 0.9430621862411499
118 156 0.9350422620773315
118 157 0.9399011135101318
118 159 0.9414613842964172
118 160 0.1890512853860855
118 161 0.9268618822097778
118 162 0.9237315654754639
118 163 0.9372290372848511
118 164 0.24196931719779968
118 165 0.9402644634246826
118 166 0.9351365566253662
118 167 0.933239758014679
118 168 0.09365857392549515
118 169 0.8420504927635193
118 170 0.9382299184799194
118 171 0.9308664202690125
118 172 0.9231425523757935
118 173 0.12284057587385178
118 174 0.8569582104682922
118 175 0.9335816502571106
118 176 0.9222532510757446
118 177 0.9395934343338013
118 178 0.772865891456604
118 179 0.9433702826499939
118 180 0.9332951903343201
118 181 0.9419989585876465
118 182 0.9308664202690125
118 183 0.16390252113342285
118 184 0.937896728515625
118 185 0.8974645137786865
118 186 0.1843670904636383
118 187 0.08760957419872284
118 188 0.9397786855697632
118 189 0.19338077306747437
118 190 0.9339724183082581
118 191 0.9400811791419983
118 192 0.9331083297729492
118 193 0.95116126537323
118 195 0.9299834370613098
118 196 0.16861331462860107
118 197 0.06622661650180817
118 198 0.19371992349624634
118 200 0.6051915287971497
118 201 0.9318327903747559
118 202 0.9348562955856323
118 203 0.9415488839149475
118 204 0.15114088356494904
118 205 0.9329990148544312
118 206 0.9399011135101318
118 207 0.9359284043312073
118 208 0.08377078175544739
118 209 0.17604544758796692
118 210 0.14433756470680237
118 211 0.9405456781387329
118 212 0.08549819886684418
118 213 0.9337842464447021
118 214 0.12914413213729858
118 215 0.9328069686889648
118 216 0.9207822680473328
118 217 0.9395934343338013
118 218 0.24495822191238403
118 219 0.09984038025140762
118 220 0.05735393241047859
118 221 0.9360051155090332
118 222 0.896139919757843
118 223 0.10982441902160645
118 224 0.9367861747741699
118 225 0.11969747394323349
118 226 0.9288133382797241
118 227 0.9322237372398376
118 228 0.11969747394323349
118 229 0.10982441902160645
118 230 0.9277921319007874
118 231 0.9449259638786316
118 232 0.12873494625091553
118 233 0.9285257458686829
118 234 0.1390758901834488
118 235 0.9449259638786316
118 236 0.9300596117973328
118 237 0.9427618980407715
118 238 0.07404360920190811
118 239 0.2486339658498764
118 240 0.9235297441482544
118 241 0.9387143850326538
118 242 0.9369745850563049
118 243 0.0898563414812088
118 244 0.9282276630401611
118 245 0.9221556782722473
118 247 0.9264686703681946
118 248 0.9391064643859863
118 249 0.08111070841550827
118 250 0.9443067908287048
118 251 0.15301409363746643
118 252 0.9324327111244202
118 253 0.18146349489688873
118 254 0.9309608340263367
118 255 0.9518182277679443
119 120 0.11221326142549515
119 121 0.9229978322982788
119 122 0.9664196372032166
119 123 0.9553348422050476
119 124 0.9494783878326416
119 125 0.9456623792648315
119 126 0.9646536111831665
119 127 0.9608460664749146
119 128 0.9657386541366577
119 129 0.9647456407546997
119 130 0.15548723936080933
119 131 0.8370712995529175
119 132 0.9458792805671692
119 133 0.9755401611328125
119 134 0.11221326142549515
119 135 0.9458792805671692
119 136 0.9531857967376709
119 137 0.9488772749900818
119 138 0.9560230374336243
119 139 0.9461146593093872
119 140 0.9476296901702881
119 141 0.9630694389343262
119 142 0.9612586498260498
119 143 0.9609392285346985
119 144 0.33865591883659363
119 145 0.9583086371421814
119 146 0.9476296901702881
119 147 0.9647456407546997
119 149 0.8539188504219055
119 150 0.9615805149078369
119 151 0.9477243423461914
119 152 0.9628089070320129
119 153 0.9604911208152771
119 154 0.9558380842208862
119 155 0.961035966873169
119 156 0.9555239081382751
119 157 0.9560716152191162
119 159 0.9565705060958862
119 160 0.17494314908981323
119 161 0.9467686414718628
119 162 0.9544925093650818
119 163 0.9557942152023315
119 164 0.2203824520111084
119 165 0.9604421854019165
119 166 0.9566190242767334
119 167 0.954105794429779
119 168 0.12979745864868164
119 169 0.8708416223526001
119 170 0.9604911208152771
119 171 0.9495289325714111
119 172 0.942284107208252
119 173 0.14137542247772217
119 174 0.8838205933570862
119 175 0.9634358286857605
119 176 0.9476765394210815
119 177 0.9619354605674744
119 178 0.7919387221336365
119 179 0.9614369869232178
119 180 0.9559754133224487
119 181 0.9620760679244995
119 182 0.9537350535392761
119 183 0.15461169183254242
119 184 0.9511309862136841
119 185 0.9150740504264832
119 186 0.16872160136699677
119 187 0.08570428937673569
119 188 0.9620282649993896
119 189 0.17341060936450958
119 190 0.9576170444488525
119 191 0.9582594037055969
119 192 0.9506307244300842
119 193 0.9657841920852661
119 195 0.9548792839050293
119 196 0.17994153499603271
119 198 0.18950700759887695
119 200 0.6157112717628479
119 201 0.9565705060958862
119 202 0.9522812366485596
119 203 0.9597554802894592
119 204 0.1596822589635849
119 205 0.9566190242767334
119 206 0.9581636786460876
119 207 0.9575250744819641
119 208 0.09219259768724442
119 209 0.14443998038768768
119 210 0.12633557617664337
119 211 0.9637071490287781
119 212 0.10873046517372131
119 213 0.9543787240982056
119 214 0.11890406161546707
119 215 0.9533798694610596
119 216 0.944308340549469
119 217 0.9650654196739197
119 218 0.27436015009880066
119 219 0.07813528180122375
119 220 0.056106630712747574
119 221 0.9625255465507507
119 222 0.9255955815315247
119 223 0.06836837530136108
119 224 0.9582111239433289
119 225 0.11709434539079666
119 226 0.9527316093444824
119 227 0.9559754133224487
119 228 0.07527493685483932
119 229 0.09766910970211029
119 230 0.9386537075042725
119 231 0.9598488211631775
119 232 0.1806897222995758
119 233 0.9462676048278809
119 234 0.1490086168050766
119 235 0.9608922004699707
119 236 0.9376306533813477
119 237 0.9658305048942566
119 238 0.07243335247039795
119 239 0.259176105260849
119 240 0.9498840570449829
119 241 0.9641105532646179
119 242 0.9593513607978821
119 243 0.07813528180122375
119 244 0.9521819353103638
119 245 0.946570873260498
119 246 0.06478635221719742
119 247 0.9547415971755981
119 248 0.9603942036628723
119 249 0.05289783701300621
119 250 0.9652882218360901
119 251 0.22679759562015533
119 252 0.9489774703979492
119 253 0.1488853245973587
119 254 0.9527316093444824
119 255 0.9663724303245544
120 121 0.08699002861976624
120 122 0.0830773189663887
120 123 0.09365858137607574
120 124 0.11256817728281021
120 125 0.10346099734306335
120 126 0.10200940072536469
120 127 0.09307260066270828
120 128 0.10190428793430328
120 129 0.10179950296878815
120 130 0.057735029608011246
120 131 0.0956365093588829
120 132 0.09471124410629272
120 133 0.10076912492513657
120 134 0.0833333358168602
120 135 0.09471124410629272
120 136 0.10313306003808975
120 137 0.10335133969783783
120 138 0.09331542253494263
120 139 0.10362612456083298
120 140 0.07548514008522034
120 141 0.11134044080972672
120 142 0.11197850108146667
120 143 0.11145563423633575
120 144 0.15745915472507477
120 145 0.10222060233354568
120 146 0.10379206389188766
120 147 0.09254500269889832
120 149 0.10569147765636444
120 150 0.10190428793430328
120 151 0.11298653483390808
120 152 0.08402779698371887
120 153 0.11128297448158264
120 154 0.11244949698448181
120 155 0.09268800169229507
120 156 0.09326670318841934
120 157 0.10253987461328506
120 159 0.11192003637552261
120 160 0.08908707648515701
120 161 0.11274690181016922
120 162 0.11328823864459991
120 163 0.10318750143051147
120 165 0.11139799654483795
120 166 0.08385255932807922
120 167 0.10346099734306335
120 168 0.20412413775920868
120 169 0.10238252580165863
120 170 0.11128297448158264
120 171 0.09370791912078857
120 172 0.11334886401891708
120 174 0.11150430887937546
120 175 0.11174521595239639
120 176 0.08483019471168518
120 177 0.09297600388526917
120 178 0.05709905922412872
120 179 0.11151337623596191
120 180 0.11209569126367569
120 181 0.09268800169229507
120 182 0.11244949698448181
120 184 0.07492686063051224
120 185 0.10704360902309418
120 188 0.09278370440006256
120 190 0.09326670318841934
120 191 0.11162911355495453
120 192 0.11233119666576385
120 193 0.09254500269889832
120 195 0.1028621643781662
120 198 0.13693062961101532
120 200 0.05627666413784027
120 201 0.10259337723255157
120 202 0.10280823707580566
120 203 0.10248646140098572
120 205 0.10248646140098572
120 206 0.11186166852712631
120 207 0.10280823707580566
120 208 0.18257418274879456
120 210 0.06622661650180817
120 211 0.10179950296878815
120 212 0.07453560084104538
120 213 0.10280823707580566
120 214 0.13245323300361633
120 215 0.10270064324140549
120 216 0.08519428223371506
120 217 0.09297600388526917
120 218 0.06189844757318497
120 220 0.1666666716337204
120 221 0.11139799654483795
120 222 0.08723486959934235
120 224 0.10243312269449234
120 225 0.07453560084104538
120 226 0.09360933303833008
120 227 0.0934130847454071
120 228 0.14907120168209076
120 230 0.09538095444440842
120 231 0.1022736057639122
120 233 0.10329663008451462
120 235 0.09297600388526917
120 236 0.07622159272432327
120 237 0.11094003915786743
120 240 0.09405545145273209
120 241 0.10206207633018494
120 242 0.11151337623596191
120 244 0.11239028722047806
120 245 0.08492077887058258
120 246 0.2886751592159271
120 247 0.11256817728281021
120 248 0.11151337623596191
120 250 0.10174723714590073
120 252 0.0843815952539444
120 253 0.05103103443980217
120 254 0.08424840122461319
120 255 0.08316238969564438
121 122 0.9357494115829468
121 123 0.9266266822814941
121 124 0.9280932545661926
121 125 0.9218257665634155
121 126 0.9336313009262085
121 127 0.9240677356719971
121 128 0.9391162991523743
121 129 0.9306368827819824
121 130 0.14062640070915222
121 131 0.8257796764373779
121 132 0.9117752909660339
121 133 0.9456555247306824
121 134 0.08699002861976624
121 135 0.9128738045692444
121 136 0.9178165197372437
121 137 0.925207793712616
121 138 0.9275609254837036
121 139 0.9145558476448059
121 140 0.9214923977851868
121 141 0.9265803098678589
121 142 0.9243139028549194
121 143 0.927539050579071
121 144 0.30134230852127075
121 145 0.9312528967857361
121 146 0.9160203337669373
121 147 0.9317102432250977
121 149 0.8372764587402344
121 150 0.9305203557014465
121 151 0.9173454642295837
121 152 0.9258800745010376
121 153 0.9357825517654419
121 154 0.932549238204956
121 155 0.9331499338150024
121 156 0.9227495789527893
121 157 0.9255119562149048
121 159 0.9238313436508179
121 160 0.17565958201885223
121 161 0.9132204055786133
121 162 0.9132250547409058
121 163 0.9259171485900879
121 164 0.23623014986515045
121 165 0.9292126893997192
121 166 0.923949122428894
121 167 0.9218257665634155
121 168 0.07891895622015
121 169 0.8490633368492126
121 170 0.9336313009262085
121 171 0.9173327684402466
121 172 0.9071403741836548
121 173 0.13151656091213226
121 174 0.8653364181518555
121 175 0.9321089386940002
121 176 0.921602725982666
121 177 0.9295790195465088
121 178 0.7536668181419373
121 179 0.9247859120368958
121 180 0.9220308065414429
121 181 0.9363751411437988
121 182 0.9238541126251221
121 183 0.1598108857870102
121 184 0.9211950898170471
121 185 0.8939257264137268
121 186 0.17439527809619904
121 187 0.06327593326568604
121 188 0.9373419880867004
121 189 0.15751567482948303
121 190 0.9259949326515198
121 191 0.9322194457054138
121 192 0.9207106828689575
121 193 0.9295635223388672
121 195 0.9305900931358337
121 196 0.20149186253547668
121 198 0.15882132947444916
121 200 0.6478388905525208
121 201 0.9259949326515198
121 202 0.9246820211410522
121 203 0.9261104464530945
121 204 0.1772780418395996
121 205 0.9271910786628723
121 206 0.9244307279586792
121 207 0.9235979914665222
121 208 0.06352853029966354
121 209 0.12058614939451218
121 210 0.0921768844127655
121 211 0.9381506443023682
121 212 0.12967707216739655
121 213 0.9235979914665222
121 214 0.11522110551595688
121 215 0.9258800745010376
121 216 0.9134807586669922
121 217 0.9328142404556274
121 218 0.26922738552093506
121 219 0.07066742330789566
121 220 0.05799334868788719
121 221 0.9281359314918518
121 222 0.8926398754119873
121 223 0.07066742330789566
121 224 0.9245483875274658
121 225 0.08645138144493103
121 226 0.9239678382873535
121 227 0.9198638796806335
121 228 0.05187082663178444
121 229 0.08076277375221252
121 230 0.9137973189353943
121 231 0.9306573867797852
121 232 0.1980849951505661
121 233 0.9116478562355042
121 234 0.10044743120670319
121 235 0.9306573867797852
121 236 0.9006454944610596
121 237 0.9382603168487549
121 239 0.26377010345458984
121 240 0.9338259100914001
121 241 0.9362658262252808
121 242 0.9301750659942627
121 243 0.10095346719026566
121 244 0.9222813844680786
121 245 0.9105482697486877
121 247 0.9150367975234985
121 248 0.9312528967857361
121 249 0.0683458223938942
121 250 0.9365960955619812
121 251 0.1828508973121643
121 252 0.9232537746429443
121 253 0.14797304570674896
121 254 0.9293966293334961
121 255 0.9367076754570007
122 123 0.964832067489624
122 124 0.964280903339386
122 125 0.9585018157958984
122 126 0.9768979549407959
122 127 0.9701360464096069
122 128 0.9748651385307312
122 129 0.9759129881858826
122 130 0.15348707139492035
122 131 0.8592612743377686
122 132 0.9525956511497498
122 133 0.9873446822166443
122 134 0.07384650409221649
122 135 0.9525956511497498
122 136 0.9658492803573608
122 137 0.9616489410400391
122 138 0.9685325026512146
122 139 0.9579447507858276
122 140 0.9594786763191223
122 141 0.9722636342048645
122 142 0.9726670980453491
122 143 0.9722407460212708
122 144 0.3372064530849457
122 145 0.9727444052696228
122 146 0.9573883414268494
122 147 0.9769381284713745
122 149 0.8546415567398071
122 150 0.9758912920951843
122 151 0.9574350714683533
122 152 0.9690389037132263
122 153 0.9727889895439148
122 154 0.9643021821975708
122 155 0.9743409156799316
122 156 0.9669937491416931
122 157 0.9675220251083374
122 159 0.9721593260765076
122 160 0.19736309349536896
122 161 0.9616489410400391
122 162 0.9589459300041199
122 163 0.9632418155670166
122 164 0.25380539894104004
122 165 0.9758511185646057
122 166 0.9701141119003296
122 167 0.9626691937446594
122 168 0.12812776863574982
122 169 0.8766505718231201
122 170 0.9727889895439148
122 171 0.9632642269134521
122 172 0.9552739262580872
122 173 0.13955678045749664
122 174 0.8971537947654724
122 175 0.969609260559082
122 176 0.9594992995262146
122 177 0.9711889624595642
122 178 0.7969309687614441
122 179 0.9706856608390808
122 180 0.9664419293403625
122 181 0.9784477353096008
122 182 0.9643021821975708
122 183 0.1695808619260788
122 184 0.964832067489624
122 185 0.9259390234947205
122 186 0.17229433357715607
122 187 0.0725158229470253
122 188 0.9732913970947266
122 189 0.1919289529323578
122 190 0.9700931310653687
122 191 0.9716930389404297
122 192 0.9632877111434937
122 193 0.9748879075050354
122 195 0.9664196372032166
122 196 0.2022971659898758
122 197 0.06395295262336731
122 198 0.19718104600906372
122 200 0.6451933979988098
122 201 0.968026876449585
122 202 0.964877724647522
122 203 0.9680500030517578
122 204 0.1576281189918518
122 205 0.9701141119003296
122 206 0.9706197381019592
122 207 0.967983603477478
122 208 0.09100664407014847
122 209 0.18096934258937836
122 210 0.13204632699489594
122 211 0.9759129881858826
122 212 0.1073317676782608
122 213 0.9659129977226257
122 214 0.12471041828393936
122 215 0.9659363031387329
122 216 0.9562775492668152
122 217 0.9732487797737122
122 218 0.28797200322151184
122 219 0.10605397075414658
122 220 0.05538487434387207
122 221 0.9717379212379456
122 222 0.9340885281562805
122 223 0.10605397075414658
122 224 0.9706407189369202
122 225 0.1073317676782608
122 226 0.9653615951538086
122 227 0.9664419293403625
122 228 0.1073317676782608
122 229 0.08677142858505249
122 230 0.9508792161941528
122 231 0.970159113407135
122 232 0.17836534976959229
122 233 0.9600998163223267
122 234 0.15348707139492035
122 235 0.9732487797737122
122 236 0.9456212520599365
122 237 0.975935697555542
122 238 0.07150156795978546
122 239 0.25584208965301514
122 240 0.9616273641586304
122 241 0.9743191599845886
122 242 0.9727444052696228
122 243 0.10605397075414658
122 244 0.9658695459365845
122 245 0.9584335088729858
122 247 0.9611636400222778
122 248 0.9717150330543518
122 249 0.06527170538902283
122 250 0.9774610996246338
122 251 0.2194025069475174
122 252 0.9648106694221497
122 253 0.15827547013759613
122 254 0.9653615951538086
122 255 0.9805532693862915
123 124 0.9509764313697815
123 125 0.9450401663780212
123 126 0.9599219560623169
123 127 0.9602699279785156
123 128 0.9641388058662415
123 129 0.9641875624656677
123 130 0.14275485277175903
123 131 0.8455577492713928
123 132 0.9399203062057495
123 133 0.9709016680717468
123 134 0.1030244380235672
123 135 0.9463071227073669
123 136 0.950474739074707
123 137 0.9472063779830933
123 138 0.952287495136261
123 139 0.9444310069084167
123 140 0.9470038414001465
123 141 0.9625033140182495
123 142 0.9554338455200195
123 143 0.9561920166015625
123 144 0.3391902446746826
123 145 0.9619094133377075
123 146 0.9417014718055725
123 147 0.9610671997070312
123 149 0.8469510674476624
123 150 0.9610152244567871
123 151 0.9428703188896179
123 152 0.9548840522766113
123 153 0.9640910029411316
123 154 0.9499738216400146
123 155 0.9625522494316101
123 156 0.9517903327941895
123 157 0.962818443775177
123 159 0.9538868069648743
123 160 0.17021289467811584
123 161 0.9440385103225708
123 162 0.9443269968032837
123 163 0.9615194201469421
123 164 0.2329929620027542
123 165 0.9598708152770996
123 166 0.9539398550987244
123 167 0.9492685794830322
123 168 0.11470786482095718
123 169 0.8687635660171509
123 170 0.9609642028808594
123 171 0.9499738216400146
123 172 0.9384627342224121
123 173 0.1345185488462448
123 174 0.8749615550041199
123 175 0.9544899463653564
123 176 0.948112428188324
123 177 0.958228349685669
123 178 0.7816369533538818
123 179 0.9587761759757996
123 180 0.9511843323707581
123 181 0.9604688286781311
123 182 0.9478674530982971
123 183 0.17779718339443207
123 184 0.9536842107772827
123 185 0.9154239892959595
123 186 0.18064212799072266
123 187 0.08583950251340866
123 188 0.963546097278595
123 189 0.19473683834075928
123 190 0.9549350738525391
123 191 0.9608166813850403
123 192 0.9510785341262817
123 193 0.9673079252243042
123 195 0.9553348422050476
123 196 0.19023793935775757
123 198 0.1898059844970703
123 200 0.6356574892997742
123 201 0.9549350738525391
123 202 0.9506322741508484
123 203 0.9549869298934937
123 204 0.17178116738796234
123 205 0.9528926610946655
123 206 0.9523416757583618
123 207 0.9516826868057251
123 208 0.09233804792165756
123 209 0.16692446172237396
123 210 0.1414213478565216
123 211 0.9600270390510559
123 212 0.10052493959665298
123 213 0.9495818614959717
123 214 0.13397812843322754
123 215 0.9527854323387146
123 216 0.9362232089042664
123 217 0.9571834206581116
123 218 0.23305228352546692
123 219 0.08804087340831757
123 220 0.05619514361023903
123 221 0.9567407965660095
123 222 0.9281453490257263
123 223 0.09782319515943527
123 224 0.9544899463653564
123 225 0.12565617263317108
123 226 0.9500264525413513
123 227 0.9501345157623291
123 228 0.11727909743785858
123 229 0.09782319515943527
123 230 0.9347746968269348
123 231 0.9634531736373901
123 232 0.1809748113155365
123 233 0.9477605223655701
123 234 0.15573255717754364
123 235 0.9603182673454285
123 236 0.9423224329948425
123 237 0.9631981253623962
123 238 0.07254762947559357
123 239 0.25958502292633057
123 240 0.9460972547531128
123 241 0.9593749046325684
123 242 0.956687331199646
123 243 0.08804087340831757
123 244 0.9473683834075928
123 245 0.940640926361084
123 246 0.06488857418298721
123 247 0.9499220848083496
123 248 0.9587761759757996
123 249 0.06622661650180817
123 250 0.9647319912910461
123 251 0.17718122899532318
123 252 0.9494209289550781
123 253 0.17779718339443207
123 254 0.9531826376914978
123 255 0.9668585658073425
124 125 0.9465359449386597
124 126 0.9593534469604492
124 127 0.9534081220626831
124 128 0.9594076871871948
124 129 0.9594630002975464
124 130 0.1494799256324768
124 131 0.8409150838851929
124 132 0.9382095336914062
124 133 0.9703759551048279
124 134 0.11256817728281021
124 135 0.9382095336914062
124 136 0.9540898203849792
124 137 0.9455326199531555
124 138 0.9516937732696533
124 139 0.944865345954895
124 140 0.9410675764083862
124 141 0.9588043689727783
124 142 0.9527442455291748
124 143 0.9556143283843994
124 144 0.34563538432121277
124 145 0.9634318947792053
124 146 0.9389432668685913
124 147 0.9594630002975464
124 149 0.8506709933280945
124 150 0.9594076871871948
124 151 0.9411829710006714
124 152 0.954293429851532
124 153 0.9624851942062378
124 154 0.9483127593994141
124 155 0.9599021077156067
124 156 0.9522468447685242
124 157 0.9538488984107971
124 159 0.9543465971946716
124 160 0.19555321335792542
124 161 0.9434173107147217
124 162 0.9415706992149353
124 163 0.9482576847076416
124 164 0.23745577037334442
124 165 0.9603449702262878
124 166 0.9533520340919495
124 167 0.9465359449386597
124 168 0.12254870682954788
124 169 0.8712911009788513
124 170 0.958309531211853
124 171 0.9493675827980042
124 172 0.9378214478492737
124 173 0.14891371130943298
124 174 0.8820517659187317
124 175 0.9549524188041687
124 176 0.9390028119087219
124 177 0.9555584788322449
124 178 0.7867305874824524
124 179 0.9592475891113281
124 180 0.9516382813453674
124 181 0.9630322456359863
124 182 0.9493675827980042
124 183 0.18382306396961212
124 184 0.9478135108947754
124 185 0.9124912023544312
124 186 0.18092802166938782
124 187 0.08597537130117416
124 188 0.9577599763870239
124 189 0.17395909130573273
124 190 0.9543465971946716
124 191 0.9560545086860657
124 192 0.9515300989151001
124 193 0.9594630002975464
124 195 0.9515836834907532
124 196 0.20558159053325653
124 197 0.06499126553535461
124 198 0.19010639190673828
124 200 0.6540847420692444
124 201 0.9501470327377319
124 202 0.9521368741989136
124 203 0.9544007778167725
124 204 0.1542544662952423
124 205 0.9523032307624817
124 206 0.9527995586395264
124 207 0.9521368741989136
124 208 0.10276021808385849
124 209 0.18390750885009766
124 210 0.13419018685817719
124 211 0.9615465402603149
124 212 0.11746471375226974
124 213 0.9510847926139832
124 214 0.13419018685817719
124 215 0.9521914124488831
124 216 0.9377049803733826
124 217 0.956605076789856
124 218 0.29613131284713745
124 219 0.09797801822423935
124 220 0.056284088641405106
124 221 0.9551200270652771
124 222 0.9110656976699829
124 223 0.09797801822423935
124 224 0.9549524188041687
124 225 0.12585505843162537
124 226 0.9473150968551636
124 227 0.9484837055206299
124 228 0.10907437652349472
124 229 0.09797801822423935
124 230 0.938401460647583
124 231 0.9545118808746338
124 232 0.1867540180683136
124 233 0.9450322389602661
124 234 0.15597903728485107
124 235 0.9534652829170227
124 236 0.9330887198448181
124 237 0.9616004824638367
124 238 0.07266244292259216
124 239 0.23999617993831635
124 240 0.9433596134185791
124 241 0.9608932733535767
124 242 0.95820152759552
124 243 0.09797801822423935
124 244 0.9530850052833557
124 245 0.9378811120986938
124 246 0.06499126553535461
124 247 0.947201669216156
124 248 0.9550632834434509
124 249 0.07959771901369095
124 250 0.9600115418434143
124 251 0.2138640433549881
124 252 0.9498682022094727
124 253 0.1665896475315094
124 254 0.9483688473701477
124 255 0.9600675702095032
125 126 0.9577094316482544
125 127 0.956985592842102
125 128 0.9598593711853027
125 129 0.9578278660774231
125 130 0.156392440199852
125 131 0.8359478116035461
125 132 0.9364202618598938
125 133 0.9688120484352112
125 134 0.10346099734306335
125 135 0.9342823028564453
125 136 0.9439200758934021
125 137 0.9480387568473816
125 138 0.9531629681587219
125 139 0.9388634562492371
125 140 0.9403668642044067
125 141 0.9561095833778381
125 142 0.9521097540855408
125 143 0.9550022482872009
125 144 0.32581761479377747
125 145 0.9554969072341919
125 146 0.9467567205429077
125 147 0.959916889667511
125 149 0.8445752859115601
125 150 0.9577682018280029
125 151 0.9415521025657654
125 152 0.9505001306533813
125 153 0.954569399356842
125 154 0.9465955495834351
125 155 0.9561694860458374
125 156 0.9495073556900024
125 157 0.9542728066444397
125 159 0.9495073556900024
125 160 0.1809890866279602
125 161 0.9427365064620972
125 162 0.9387385249137878
125 163 0.9444183707237244
125 164 0.22577038407325745
125 165 0.9534605145454407
125 166 0.9495694041252136
125 167 0.9394904971122742
125 168 0.1151939183473587
125 169 0.8712891936302185
125 170 0.9577094316482544
125 171 0.944480299949646
125 172 0.9360426068305969
125 173 0.1279786080121994
125 174 0.8752367496490479
125 175 0.9501261711120605
125 176 0.9393637776374817
125 177 0.9528441429138184
125 178 0.7720597982406616
125 179 0.9554969072341919
125 180 0.9520519375801086
125 181 0.9561694860458374
125 182 0.9455379247665405
125 183 0.14975209534168243
125 184 0.9482114315032959
125 185 0.9105163812637329
125 186 0.16385199129581451
125 187 0.07388848066329956
125 188 0.9561095833778381
125 189 0.18499106168746948
125 190 0.9495073556900024
125 191 0.9543886780738831
125 192 0.9487693309783936
125 193 0.9567833542823792
125 195 0.947773277759552
125 196 0.1809890866279602
125 198 0.19576190412044525
125 200 0.6447027921676636
125 201 0.9526653289794922
125 202 0.953605592250824
125 203 0.9506209492683411
125 204 0.16656048595905304
125 205 0.9506209492683411
125 206 0.9479600191116333
125 207 0.9472763538360596
125 208 0.061819542199373245
125 209 0.17880722880363464
125 210 0.1270710676908493
125 211 0.958872377872467
125 212 0.12618862092494965
125 213 0.9483312368392944
125 214 0.11959629505872726
125 215 0.9494462609291077
125 216 0.9348483085632324
125 217 0.9549428820610046
125 218 0.2864367663860321
125 219 0.06876639276742935
125 220 0.05643326789140701
125 221 0.9545083045959473
125 222 0.9189503192901611
125 223 0.08841393142938614
125 224 0.9532792568206787
125 225 0.10936346650123596
125 226 0.944543182849884
125 227 0.9467803239822388
125 228 0.09253832697868347
125 229 0.08841393142938614
125 230 0.9311999678611755
125 231 0.9528441429138184
125 232 0.1817416548728943
125 233 0.9443573355674744
125 234 0.13684339821338654
125 235 0.9528441429138184
125 236 0.9301850199699402
125 237 0.9610188007354736
125 238 0.05828402563929558
125 239 0.2646954655647278
125 240 0.9469214081764221
125 241 0.9540151357650757
125 242 0.9533991813659668
125 243 0.09823770821094513
125 244 0.9439830780029297
125 245 0.9393019080162048
125 247 0.9433596134185791
125 248 0.9565457105636597
125 249 0.05320579558610916
125 250 0.9594239592552185
125 251 0.20986852049827576
125 252 0.950269341468811
125 253 0.1785505712032318
125 254 0.947712779045105
125 255 0.9605263471603394
126 127 0.9673807621002197
126 128 0.9711344838142395
126 129 0.9721956849098206
126 130 0.14134836196899414
126 131 0.8502347469329834
126 132 0.963333010673523
126 133 0.9837636947631836
126 134 0.10200940072536469
126 135 0.9496313333511353
126 136 0.9619773626327515
126 137 0.9608765840530396
126 138 0.9657508730888367
126 139 0.9592379927635193
126 140 0.9555239677429199
126 141 0.9695407152175903
126 142 0.9667893052101135
126 143 0.9715774655342102
126 144 0.3387688100337982
126 145 0.9658758640289307
126 146 0.9597240686416626
126 147 0.9701359272003174
126 149 0.8597774505615234
126 150 0.969072699546814
126 151 0.9576798677444458
126 152 0.9652168154716492
126 153 0.9700722694396973
126 154 0.9666844606399536
126 155 0.9726664423942566
126 156 0.9662845730781555
126 157 0.963705837726593
126 159 0.9662845730781555
126 160 0.15862201154232025
126 161 0.9556487202644348
126 162 0.9528830051422119
126 163 0.9614412784576416
126 164 0.23474472761154175
126 165 0.9731410145759583
126 166 0.9683879017829895
126 167 0.958756148815155
126 168 0.12872140109539032
126 169 0.8841302990913391
126 170 0.9731681942939758
126 171 0.9604276418685913
126 172 0.9502395987510681
126 173 0.14020337164402008
126 174 0.8934142589569092
126 175 0.9689202904701233
126 176 0.9576514959335327
126 177 0.9694806933403015
126 178 0.7904566526412964
126 179 0.9679441452026367
126 180 0.9615639448165894
126 181 0.9716349840164185
126 182 0.9687700867652893
126 183 0.17604544758796692
126 184 0.9630486965179443
126 185 0.9193999171257019
126 186 0.16155309975147247
126 187 0.07285180687904358
126 188 0.9736707210540771
126 189 0.1980295181274414
126 190 0.964208722114563
126 191 0.965843141078949
126 192 0.9615005850791931
126 193 0.9721956849098206
126 195 0.9667348265647888
126 196 0.1982775181531906
126 198 0.18285658955574036
126 200 0.6497483253479004
126 201 0.9673224687576294
126 202 0.9610276818275452
126 203 0.9642406702041626
126 204 0.1642235666513443
126 205 0.9663142561912537
126 206 0.963705837726593
126 207 0.9641479253768921
126 208 0.08126959949731827
126 209 0.15426120162010193
126 210 0.11054842919111252
126 211 0.9721956849098206
126 212 0.11612360179424286
126 213 0.9651879668235779
126 214 0.11791832745075226
126 215 0.9683337807655334
126 216 0.9512275457382202
126 217 0.9705153703689575
126 218 0.27552974224090576
126 219 0.0678015798330307
126 221 0.9700418710708618
126 222 0.9319444894790649
126 223 0.0678015798330307
126 224 0.9658114314079285
126 225 0.09953451156616211
126 226 0.9625422954559326
126 227 0.9615639448165894
126 228 0.09123997390270233
126 229 0.0968594029545784
126 230 0.9446704983711243
126 231 0.9663767218589783
126 232 0.1900518536567688
126 233 0.9572330713272095
126 234 0.14134836196899414
126 235 0.9694806933403015
126 236 0.9447011947631836
126 237 0.9753133058547974
126 238 0.07183285802602768
126 239 0.2491188943386078
126 240 0.9577094316482544
126 241 0.974703311920166
126 242 0.970012366771698
126 243 0.0871734619140625
126 244 0.9693022966384888
126 245 0.9544739127159119
126 247 0.9562217593193054
126 248 0.9689782857894897
126 249 0.06557412445545197
126 250 0.9737551808357239
126 251 0.22941574454307556
126 252 0.9588472843170166
126 253 0.14765101671218872
126 254 0.9615005850791931
126 255 0.9737851619720459
127 128 0.9694879651069641
127 129 0.9777935743331909
127 130 0.14830996096134186
127 131 0.8473883271217346
127 132 0.9499067068099976
127 133 0.9781280755996704
127 134 0.11168711632490158
127 135 0.9446176886558533
127 136 0.9560465812683105
127 137 0.9580699801445007
127 138 0.9598782062530518
127 139 0.9500958323478699
127 140 0.9589940905570984
127 141 0.9709891676902771
127 142 0.9640470743179321
127 143 0.9647324085235596
127 144 0.33999907970428467
127 145 0.9652321338653564
127 146 0.9495095014572144
127 147 0.9684910774230957
127 149 0.8487346768379211
127 150 0.9674186110496521
127 151 0.950641930103302
127 152 0.9655939340591431
127 153 0.9653093218803406
127 154 0.9586825966835022
127 155 0.9668819308280945
127 156 0.9583353996276855
127 157 0.9599179029464722
127 159 0.959377110004425
127 160 0.18407274782657623
127 161 0.9507244229316711
127 162 0.9500170946121216
127 163 0.9628374576568604
127 164 0.2031010538339615
127 165 0.9642333984375
127 166 0.962539553642273
127 167 0.956985592842102
127 168 0.1291888803243637
127 169 0.8713324069976807
127 170 0.9653093218803406
127 171 0.9544962048530579
127 172 0.9463056921958923
127 173 0.1477481573820114
127 174 0.884205162525177
127 175 0.9599584937095642
127 176 0.9474440217018127
127 177 0.9698862433433533
127 178 0.7831237316131592
127 179 0.9714593887329102
127 180 0.9598394632339478
127 181 0.9668819308280945
127 182 0.9555427432060242
127 183 0.17668478190898895
127 184 0.9602699279785156
127 185 0.9194782376289368
127 186 0.17372122406959534
127 187 0.0853024423122406
127 188 0.9678803086280823
127 189 0.19874867796897888
127 190 0.9604187607765198
127 191 0.9651948809623718
127 192 0.9545374512672424
127 193 0.9715919494628906
127 195 0.9566685557365417
127 196 0.19402262568473816
127 198 0.18861845135688782
127 200 0.6363945603370667
127 201 0.959377110004425
127 202 0.9582546949386597
127 203 0.9614989161491394
127 204 0.17070640623569489
127 205 0.9635801315307617
127 206 0.9599179029464722
127 207 0.9592984914779663
127 208 0.09176032990217209
127 209 0.1769387573003769
127 210 0.13313987851142883
127 211 0.9664239287376404
127 212 0.1082206591963768
127 213 0.9655616283416748
127 214 0.09615657478570938
127 215 0.9572518467903137
127 216 0.9472813606262207
127 217 0.9667710661888123
127 218 0.2799869775772095
127 219 0.05832669138908386
127 220 0.05584355816245079
127 221 0.9642333984375
127 222 0.9288336634635925
127 223 0.07776892930269241
127 224 0.96099853515625
127 225 0.09989599138498306
127 226 0.9555829167366028
127 227 0.9567095637321472
127 228 0.1082206591963768
127 229 0.10693227499723434
127 230 0.9449053406715393
127 231 0.9698862433433533
127 232 0.17439274489879608
127 233 0.9523189067840576
127 234 0.1225169226527214
127 235 0.9626173377037048
127 236 0.9523885250091553
127 237 0.9695624113082886
127 238 0.07209372520446777
127 239 0.2619295120239258
127 240 0.9538341760635376
127 241 0.9678803086280823
127 242 0.9662699699401855
127 243 0.06804780662059784
127 244 0.956085741519928
127 245 0.9537248611450195
127 247 0.9544559121131897
127 248 0.9641941785812378
127 249 0.06581226736307144
127 250 0.9731591939926147
127 251 0.22573420405387878
127 252 0.9560465812683105
127 253 0.17098528146743774
127 254 0.9597648978233337
127 255 0.970097541809082
128 129 0.9753091335296631
128 130 0.15403930842876434
128 131 0.8599903583526611
128 132 0.956023097038269
128 133 0.9837684035301208
128 134 0.09264025837182999
128 135 0.952864408493042
128 136 0.9589015245437622
128 137 0.9619755148887634
128 138 0.9668304324150085
128 139 0.9540606141090393
128 140 0.9555883407592773
128 141 0.9706045985221863
128 142 0.9678677916526794
128 143 0.9695438146591187
128 144 0.3325849175453186
128 145 0.9679798483848572
128 146 0.9534904360771179
128 147 0.973251461982727
128 149 0.8553667068481445
128 150 0.9732234477996826
128 151 0.9545996785163879
128 152 0.9652601480484009
128 153 0.9721654057502747
128 154 0.960479736328125
128 155 0.9747554063796997
128 156 0.963215172290802
128 157 0.9668580293655396
128 159 0.9652888774871826
128 160 0.16836223006248474
128 161 0.9588419795036316
128 162 0.9581981897354126
128 163 0.9656647443771362
128 164 0.24663230776786804
128 165 0.9690423011779785
128 166 0.9673900604248047
128 167 0.9577682018280029
128 168 0.08320450037717819
128 169 0.8786665797233582
128 170 0.9752582311630249
128 171 0.9594379663467407
128 172 0.9524106383323669
128 173 0.13305595517158508
128 174 0.8891129493713379
128 175 0.9679219126701355
128 176 0.9556168913841248
128 177 0.9695153832435608
128 178 0.7871030569076538
128 179 0.9679798483848572
128 180 0.9636884927749634
128 181 0.9799073934555054
128 182 0.9615214467048645
128 183 0.17019101977348328
128 184 0.9620563983917236
128 185 0.923861563205719
128 186 0.17291425168514252
128 187 0.0849061980843544
128 188 0.9767933487892151
128 189 0.19261951744556427
128 190 0.9642520546913147
128 191 0.9669162631034851
128 192 0.9605098962783813
128 193 0.9763379096984863
128 195 0.9636595845222473
128 196 0.17331404983997345
128 198 0.202964648604393
128 200 0.6381304860115051
128 201 0.9652888774871826
128 202 0.9631544351577759
128 203 0.9653186202049255
128 204 0.16405436396598816
128 205 0.9663543701171875
128 206 0.9658217430114746
128 207 0.9673104286193848
128 208 0.060889389365911484
128 209 0.1651095449924469
128 210 0.13988372683525085
128 211 0.9722226858139038
128 212 0.10771795362234116
128 213 0.9631544351577759
128 214 0.11779681593179703
128 215 0.9642221927642822
128 216 0.9523519277572632
128 217 0.9715825915336609
128 218 0.26836466789245605
128 219 0.10643555223941803
128 220 0.055584151297807693
128 221 0.9700742959976196
128 222 0.9331392645835876
128 223 0.09675959497690201
128 224 0.9710274934768677
128 225 0.11600395292043686
128 226 0.9646724462509155
128 227 0.9626500606536865
128 228 0.07457397133111954
128 229 0.09675959497690201
128 230 0.9458178281784058
128 231 0.9726161956787109
128 232 0.17900711297988892
128 233 0.9572906494140625
128 234 0.15403930842876434
128 235 0.9684817790985107
128 236 0.9469053745269775
128 237 0.9753361344337463
128 238 0.07175883650779724
128 239 0.26071280241012573
128 240 0.9640417695045471
128 241 0.9716359972953796
128 242 0.9679798483848572
128 243 0.10643555223941803
128 244 0.9620563983917236
128 245 0.9534904360771179
128 247 0.9583648443222046
128 248 0.9721121191978455
128 249 0.06550655514001846
128 250 0.982006311416626
128 251 0.21569819748401642
128 252 0.9641129970550537
128 253 0.14749887585639954
128 254 0.9657130837440491
128 255 0.9789451956748962
129 130 0.1602926403284073
129 131 0.85202556848526
129 132 0.9518846273422241
129 133 0.9837741851806641
129 134 0.09254500269889832
129 135 0.9497810006141663
129 136 0.9641628861427307
129 137 0.962029755115509
129 138 0.9648000597953796
129 139 0.9551719427108765
129 140 0.9598450660705566
129 141 0.9726977348327637
129 142 0.9668726325035095
129 143 0.972672700881958
129 144 0.34681496024131775
129 145 0.9690485596656799
129 146 0.9535578489303589
129 147 0.9743062853813171
129 149 0.8497921824455261
129 150 0.9711939096450806
129 151 0.9557093977928162
129 152 0.9673781394958496
129 153 0.9721956849098206
129 154 0.9636547565460205
129 155 0.9727237224578857
129 156 0.9653320908546448
129 157 0.964828610420227
129 159 0.9663678407669067
129 160 0.19292277097702026
129 161 0.9609863758087158
129 162 0.9519708156585693
129 163 0.9605047702789307
129 164 0.23830071091651917
129 165 0.9690768122673035
129 166 0.966395378112793
129 167 0.959916889667511
129 168 0.12845654785633087
129 169 0.88344806432724
129 170 0.9701359272003174
129 171 0.9594920873641968
129 172 0.9514313340187073
129 173 0.1469106376171112
129 174 0.8893244862556458
129 175 0.966926634311676
129 176 0.9535874724388123
129 177 0.9705835580825806
129 178 0.7862936854362488
129 179 0.9742085337638855
129 180 0.9637349247932434
129 181 0.9737530946731567
129 182 0.9594920873641968
129 183 0.17001602053642273
129 184 0.9662677645683289
129 185 0.9250730276107788
129 186 0.17849433422088623
129 187 0.08481889218091965
129 188 0.9726977348327637
129 189 0.19762204587459564
129 190 0.9663678407669067
129 191 0.9700543284416199
129 192 0.9605617523193359
129 193 0.9753340482711792
129 195 0.9637071490287781
129 196 0.19292277097702026
129 198 0.1824803352355957
129 200 0.6359118819236755
129 201 0.9653320908546448
129 202 0.962164044380188
129 203 0.966395378112793
129 204 0.1580326110124588
129 205 0.968464732170105
129 206 0.966899037361145
129 207 0.9652778506278992
129 208 0.07096457481384277
129 209 0.18143373727798462
129 210 0.13238516449928284
129 211 0.972250759601593
129 212 0.11588466912508011
129 213 0.9673537015914917
129 214 0.10296623408794403
129 215 0.9632307291030884
129 216 0.954526424407959
129 217 0.9695510268211365
129 218 0.2852739095687866
129 219 0.07732807844877243
129 220 0.05552699789404869
129 221 0.9701077342033386
129 222 0.9343326091766357
129 223 0.08699408918619156
129 224 0.966926634311676
129 225 0.09932971745729446
129 226 0.9616013765335083
129 227 0.9626975655555725
129 228 0.11588466912508011
129 229 0.10632611066102982
129 230 0.950141429901123
129 231 0.9747136831283569
129 232 0.17340417206287384
129 233 0.9583920240402222
129 234 0.14105752110481262
129 235 0.9695510268211365
129 236 0.9554544687271118
129 237 0.9743331670761108
129 238 0.07168504595756531
129 239 0.2604447305202484
129 240 0.958872377872467
129 241 0.9737281203269958
129 242 0.9731765389442444
129 243 0.07732807844877243
129 244 0.9621073603630066
129 245 0.9556536078453064
129 247 0.9605047702789307
129 248 0.970080554485321
129 249 0.06543920189142227
129 250 0.9789420962333679
129 251 0.2020091414451599
129 252 0.9631216526031494
129 253 0.16434882581233978
129 254 0.9657595753669739
129 255 0.9779385328292847
130 131 0.1619662493467331
130 132 0.1312357485294342
130 133 0.1523233950138092
130 134 0.057735029608011246
130 135 0.15748289227485657
130 136 0.16239243745803833
130 137 0.16273613274097443
130 138 0.14223182201385498
130 139 0.1305350661277771
130 140 0.1307440996170044
130 141 0.13499310612678528
130 142 0.1486968994140625
130 143 0.15443746745586395
130 144 0.12727272510528564
130 145 0.16095568239688873
130 146 0.11766969412565231
130 147 0.1602926403284073
130 149 0.11716033518314362
130 150 0.15403930842876434
130 151 0.15003547072410583
130 152 0.14230617880821228
130 153 0.16062313318252563
130 154 0.16230687499046326
130 155 0.15411870181560516
130 156 0.14215755462646484
130 157 0.14854174852371216
130 159 0.16154266893863678
130 160 0.21602469682693481
130 161 0.14971725642681122
130 162 0.15697677433490753
130 163 0.15597903728485107
130 164 0.050395265221595764
130 165 0.1607891470193863
130 166 0.12264447659254074
130 167 0.14987610280513763
130 169 0.07802596688270569
130 170 0.15419819951057434
130 171 0.14932233095169067
130 172 0.1505165994167328
130 174 0.1545049101114273
130 175 0.1548387110233307
130 176 0.1371348649263382
130 177 0.13527289032936096
130 178 0.13450191915035248
130 179 0.14807924628257751
130 180 0.1617961972951889
130 181 0.15411870181560516
130 182 0.16230687499046326
130 184 0.16222141683101654
130 185 0.10787197202444077
130 188 0.1414213627576828
130 190 0.14215755462646484
130 191 0.15467782318592072
130 192 0.14916522800922394
130 193 0.15388092398643494
130 195 0.1490086168050766
130 197 0.10000000894069672
130 198 0.06324554979801178
130 199 0.1414213627576828
130 200 0.07797922939062119
130 201 0.15508095920085907
130 202 0.15540573000907898
130 203 0.14200939238071442
130 205 0.12909944355487823
130 206 0.16145841777324677
130 207 0.14893050491809845
130 208 0.06324554979801178
130 210 0.13764943182468414
130 211 0.15388092398643494
130 213 0.14245526492595673
130 214 0.09176629036664963
130 215 0.1487746387720108
130 216 0.1508399397134781
130 217 0.1481560319662094
130 221 0.1607891470193863
130 222 0.134306862950325
130 223 0.12060454487800598
130 224 0.1548387110233307
130 225 0.051639776676893234
130 226 0.15565066039562225
130 227 0.1617961972951889
130 228 0.10327955335378647
130 230 0.15198828279972076
130 231 0.1481560319662094
130 233 0.14963801205158234
130 235 0.1481560319662094
130 236 0.15182262659072876
130 237 0.14731791615486145
130 240 0.14987610280513763
130 241 0.13499310612678528
130 242 0.14807924628257751
130 244 0.15573255717754364
130 245 0.13728131353855133
130 246 0.10000000894069672
130 247 0.12348341196775436
130 248 0.1352027803659439
130 249 0.08164966106414795
130 250 0.16021032631397247
130 252 0.12991395592689514
130 253 0.1060660108923912
130 254 0.14916522800922394
130 255 0.15364424884319305
131 132 0.84419184923172
131 133 0.8585874438285828
131 134 0.05313139408826828
131 135 0.8272838592529297
131 136 0.8309071063995361
131 137 0.8362597823143005
131 138 0.8400798439979553
131 139 0.8252694010734558
131 140 0.8458418846130371
131 141 0.8447580933570862
131 142 0.8460294008255005
131 143 0.8527382612228394
131 144 0.33129456639289856
131 145 0.8448852300643921
131 146 0.832606852054596
131 147 0.85202556848526
131 149 0.7223824262619019
131 150 0.8469959497451782
131 151 0.8392378687858582
131 152 0.8488528728485107
131 153 0.8537822961807251
131 154 0.8531726598739624
131 155 0.8533421158790588
131 156 0.839641273021698
131 157 0.8499014377593994
131 159 0.8360733389854431
131 160 0.15903957188129425
131 161 0.8422501683235168
131 162 0.8402749300003052
131 163 0.838522732257843
131 164 0.21797135472297668
131 165 0.851113498210907
131 166 0.8328258991241455
131 167 0.8347484469413757
131 168 0.07808688282966614
131 169 0.7480710744857788
131 170 0.8478696346282959
131 171 0.8352488875389099
131 172 0.8371112942695618
131 173 0.08835983276367188
131 174 0.822088360786438
131 175 0.8442668914794922
131 176 0.8353244662284851
131 177 0.8393953442573547
131 178 0.7018889784812927
131 179 0.851995050907135
131 180 0.8564441204071045
131 181 0.8557059168815613
131 182 0.8471980690956116
131 183 0.1106230840086937
131 184 0.8407806158065796
131 185 0.8040914535522461
131 186 0.13883861899375916
131 188 0.8530399799346924
131 189 0.14331486821174622
131 190 0.8301268815994263
131 191 0.838644802570343
131 192 0.8319827914237976
131 193 0.8508453965187073
131 195 0.8370712995529175
131 196 0.15903957188129425
131 198 0.19206832349300385
131 199 0.05205792188644409
131 200 0.6099717020988464
131 201 0.8479663133621216
131 202 0.8318653702735901
131 203 0.8340139389038086
131 204 0.1478542685508728
131 205 0.8482705950737
131 206 0.847524106502533
131 207 0.8485503196716309
131 209 0.15782374143600464
131 210 0.10133890807628632
131 211 0.847305178642273
131 212 0.08553989231586456
131 213 0.8497421741485596
131 214 0.07600418478250504
131 215 0.8357568979263306
131 216 0.8340812921524048
131 217 0.8441376686096191
131 218 0.17364604771137238
131 219 0.07769150286912918
131 220 0.06375767290592194
131 221 0.8416435122489929
131 222 0.8182161450386047
131 223 0.08879029005765915
131 224 0.8418920040130615
131 225 0.057026591151952744
131 226 0.8331764340400696
131 227 0.8397678732872009
131 229 0.05549393221735954
131 230 0.8185385465621948
131 231 0.8512512445449829
131 232 0.13688646256923676
131 233 0.8286325931549072
131 234 0.09570732712745667
131 235 0.8429521322250366
131 236 0.8225061893463135
131 237 0.8523300886154175
131 238 0.08231080323457718
131 239 0.23561514914035797
131 240 0.856336772441864
131 241 0.8423917889595032
131 242 0.8508100509643555
131 243 0.09988907724618912
131 244 0.8455577492713928
131 245 0.820574939250946
131 247 0.8277571201324463
131 248 0.8531799912452698
131 249 0.060111310333013535
131 250 0.8622033596038818
131 251 0.14948056638240814
131 252 0.8512313961982727
131 253 0.14315928518772125
131 254 0.8403384685516357
131 255 0.8566064238548279
132 133 0.9630731344223022
132 134 0.10418237000703812
132 135 0.9278794527053833
132 136 0.9409112930297852
132 137 0.9450383186340332
132 138 0.9481427073478699
132 139 0.9325615763664246
132 140 0.9490683078765869
132 141 0.9553943276405334
132 142 0.9523850083351135
132 143 0.9553272724151611
132 144 0.31019356846809387
132 145 0.9452605247497559
132 146 0.9447787404060364
132 147 0.9508328437805176
132 149 0.8504640460014343
132 150 0.950758695602417
132 151 0.9374158978462219
132 152 0.9454551339149475
132 153 0.9506853222846985
132 154 0.9436104893684387
132 155 0.9533554315567017
132 156 0.941287636756897
132 157 0.9450345635414124
132 159 0.9444676041603088
132 160 0.1366882622241974
132 161 0.9364955425262451
132 162 0.9345542192459106
132 163 0.9456725120544434
132 164 0.2190774828195572
132 165 0.9506128430366516
132 166 0.9540723562240601
132 167 0.9396272301673889
132 168 0.11599710583686829
132 169 0.8680554032325745
132 170 0.9506853222846985
132 171 0.9382854104042053
132 172 0.9318337440490723
132 173 0.1360304355621338
132 174 0.8847955465316772
132 175 0.9493424296379089
132 176 0.945913553237915
132 177 0.9489208459854126
132 178 0.7735491991043091
132 179 0.9484289884567261
132 180 0.9438266158103943
132 181 0.9501951932907104
132 182 0.9478706121444702
132 183 0.17399565875530243
132 184 0.9441781640052795
132 185 0.9002749919891357
132 186 0.17677977681159973
132 187 0.07440367341041565
132 188 0.9543398022651672
132 189 0.19160324335098267
132 190 0.9444676041603088
132 191 0.9430698156356812
132 192 0.9372982382774353
132 193 0.9560918211936951
132 195 0.9405653476715088
132 196 0.18731354176998138
132 198 0.18675173819065094
132 200 0.6204157471656799
132 201 0.9444676041603088
132 202 0.9390100240707397
132 203 0.942424476146698
132 204 0.1737118810415268
132 205 0.9445422291755676
132 206 0.9450345635414124
132 207 0.9475078582763672
132 208 0.06225057691335678
132 209 0.1406671553850174
132 210 0.12043017894029617
132 211 0.953988254070282
132 212 0.11859723180532455
132 213 0.9475078582763672
132 214 0.11290328949689865
132 215 0.9475773572921753
132 216 0.9327596426010132
132 217 0.9489208459854126
132 218 0.24622410535812378
132 219 0.0791381299495697
132 220 0.056826744228601456
132 221 0.9506128430366516
132 222 0.9165446758270264
132 223 0.05935359373688698
132 224 0.9504008293151855
132 225 0.11859723180532455
132 226 0.9447455406188965
132 227 0.9417032599449158
132 228 0.07624107599258423
132 229 0.09892266243696213
132 230 0.920348048210144
132 231 0.9468073844909668
132 232 0.1774631291627884
132 233 0.9381345510482788
132 234 0.15092110633850098
132 235 0.9478640556335449
132 236 0.9236763715744019
132 237 0.9540600180625916
132 238 0.07336301356554031
132 239 0.2544255554676056
132 240 0.9439030885696411
132 241 0.953285276889801
132 242 0.949485182762146
132 243 0.08903039991855621
132 244 0.9484360218048096
132 245 0.938344419002533
132 247 0.9350110292434692
132 248 0.9537097811698914
132 249 0.053576767444610596
132 250 0.955600917339325
132 251 0.22052015364170074
132 252 0.9473048448562622
132 253 0.139196515083313
132 254 0.9383621215820312
132 255 0.955671489238739
133 134 0.10076912492513657
133 135 0.9620319604873657
133 136 0.9708946347236633
133 137 0.9698508977890015
133 138 0.9755508899688721
133 139 0.966215968132019
133 140 0.9677631855010986
133 141 0.9801918268203735
133 142 0.9765766859054565
133 143 0.9812059998512268
133 144 0.3375348150730133
133 145 0.9786496758460999
133 146 0.9677631855010986
133 147 0.9827567934989929
133 149 0.8632662892341614
133 150 0.9827500581741333
133 151 0.966736912727356
133 152 0.9760609865188599
133 153 0.9807054400444031
133 154 0.9724432826042175
133 155 0.983256459236145
133 156 0.9750415682792664
133 157 0.9765826463699341
133 159 0.9750415682792664
133 160 0.1860734224319458
133 161 0.9677851796150208
133 162 0.9662049412727356
133 163 0.9703759551048279
133 164 0.24788302183151245
133 165 0.9817190766334534
133 166 0.9770980477333069
133 167 0.9667441248893738
133 168 0.1271563470363617
133 169 0.891388475894928
133 170 0.9817248582839966
133 171 0.9703829884529114
133 172 0.9646453261375427
133 173 0.14542365074157715
133 174 0.9026097059249878
133 175 0.9796605706214905
133 176 0.9667309522628784
133 177 0.9812012314796448
133 178 0.7984212040901184
133 179 0.9796712398529053
133 180 0.9765718579292297
133 181 0.983256459236145
133 182 0.9734734296798706
133 183 0.17390500009059906
133 184 0.9719313383102417
133 185 0.9349652528762817
133 186 0.1709880530834198
133 187 0.08396037667989731
133 188 0.9812118411064148
133 189 0.19047382473945618
133 190 0.9770922064781189
133 191 0.9776200652122498
133 192 0.9734782576560974
133 193 0.9837741851806641
133 195 0.9745122194290161
133 196 0.20076341927051544
133 198 0.19568610191345215
133 200 0.6480348706245422
133 201 0.9791427254676819
133 202 0.9740013480186462
133 203 0.9760738611221313
133 204 0.17381449043750763
133 205 0.9781222343444824
133 206 0.9776073694229126
133 207 0.9740013480186462
133 208 0.08028147369623184
133 209 0.16327029466629028
133 210 0.1164846122264862
133 211 0.9847915172576904
133 212 0.12290541082620621
133 213 0.9760561585426331
133 214 0.12376490235328674
133 215 0.974008321762085
133 216 0.9635957479476929
133 217 0.9822233319282532
133 218 0.28578871488571167
133 219 0.09568173438310623
133 220 0.05496497079730034
133 221 0.9806985259056091
133 222 0.9408583641052246
133 223 0.09568173438310623
133 224 0.9786369204521179
133 225 0.10651802271604538
133 226 0.9724492430686951
133 227 0.9745180606842041
133 228 0.08193694800138474
133 229 0.09568173438310623
133 230 0.9552037119865417
133 231 0.9801791906356812
133 232 0.18774111568927765
133 233 0.9683052897453308
133 234 0.14597660303115845
133 235 0.9801791906356812
133 236 0.9552100300788879
133 237 0.9847973585128784
133 238 0.07095947861671448
133 239 0.2578085660934448
133 240 0.9719138741493225
133 241 0.9842717051506042
133 242 0.9806927442550659
133 243 0.09568173438310623
133 244 0.9739904999732971
133 245 0.9656887054443359
133 247 0.9703759551048279
133 248 0.9806927442550659
133 249 0.051821473985910416
133 250 0.985302746295929
133 251 0.22662638127803802
133 252 0.9719252586364746
133 253 0.15707547962665558
133 254 0.9734782576560974
133 255 0.9863241910934448
134 135 0.10418237000703812
134 136 0.09375732392072678
134 137 0.11274690181016922
134 138 0.09331542253494263
134 139 0.0942055732011795
134 140 0.08492077887058258
134 141 0.11134044080972672
134 142 0.09331542253494263
134 143 0.10216767340898514
134 144 0.05248638987541199
134 145 0.10222060233354568
134 146 0.10379206389188766
134 147 0.10179950296878815
134 149 0.11626063287258148
134 150 0.09264025837182999
134 151 0.11298653483390808
134 152 0.09336421638727188
134 153 0.08346223831176758
134 154 0.11244949698448181
134 155 0.101956807076931
134 156 0.11192003637552261
134 157 0.11186166852712631
134 159 0.05596001818776131
134 161 0.06576903164386749
134 162 0.10384755581617355
134 163 0.10318750143051147
134 165 0.10211484134197235
134 166 0.09316951036453247
134 167 0.08464990556240082
134 168 0.06804138422012329
134 169 0.1126207783818245
134 170 0.11128297448158264
134 171 0.11244949698448181
134 172 0.09445738792419434
134 174 0.060820527374744415
134 175 0.10243312269449234
134 176 0.09425577521324158
134 177 0.1022736057639122
134 178 0.0913584977388382
134 179 0.11151337623596191
134 180 0.08407177031040192
134 181 0.08341920375823975
134 182 0.11244949698448181
134 183 0.10206206887960434
134 184 0.08429272472858429
134 185 0.09731236845254898
134 188 0.09278370440006256
134 190 0.10259337723255157
134 191 0.10232669115066528
134 192 0.10297027230262756
134 193 0.10179950296878815
134 195 0.1028621643781662
134 200 0.0844149962067604
134 201 0.09326670318841934
134 202 0.11215443164110184
134 203 0.11180340498685837
134 204 0.05270463228225708
134 205 0.08385255932807922
134 206 0.08389625698328018
134 207 0.0934620276093483
134 208 0.09128709137439728
134 210 0.06622661650180817
134 211 0.11105399578809738
134 212 0.07453560084104538
134 213 0.10280823707580566
134 214 0.13245323300361633
134 215 0.1120370551943779
134 216 0.07572824507951736
134 217 0.09297600388526917
134 218 0.06189844757318497
134 221 0.10211484134197235
134 222 0.08723486959934235
134 224 0.09312102198600769
134 225 0.2981424033641815
134 226 0.08424840122461319
134 227 0.11209569126367569
134 228 0.07453560084104538
134 229 0.08703882992267609
134 230 0.07630475610494614
134 231 0.11157120019197464
134 232 0.14638501405715942
134 233 0.11268723011016846
134 235 0.08367840200662613
134 236 0.11433238536119461
134 237 0.10169504582881927
134 240 0.09405545145273209
134 241 0.10206207633018494
134 242 0.10222060233354568
134 244 0.1030244380235672
134 245 0.09435642510652542
134 246 0.2886751592159271
134 247 0.11256817728281021
134 248 0.10222060233354568
134 250 0.09249748289585114
134 251 0.12126780301332474
134 252 0.0843815952539444
134 253 0.25515517592430115
134 254 0.08424840122461319
134 255 0.08316238969564438
135 136 0.9451736211776733
135 137 0.935427725315094
135 138 0.941779375076294
135 139 0.9357735514640808
135 140 0.9308376312255859
135 141 0.9511762857437134
135 142 0.941779375076294
135 143 0.9458267688751221
135 144 0.33703726530075073
135 145 0.946316659450531
135 146 0.9329824447631836
135 147 0.9487292170524597
135 149 0.8456592559814453
135 150 0.9570760130882263
135 151 0.9320653676986694
135 152 0.9412106275558472
135 153 0.9517393112182617
135 154 0.9382854104042053
135 155 0.9544088840484619
135 156 0.9444676041603088
135 157 0.9471535086631775
135 159 0.9444676041603088
135 160 0.18731354176998138
135 161 0.9343599081039429
135 162 0.9302623271942139
135 163 0.9478048086166382
135 164 0.22321100533008575
135 165 0.953778088092804
135 166 0.9434833526611328
135 167 0.9439030885696411
135 168 0.13146339356899261
135 169 0.8587464690208435
135 170 0.9496313333511353
135 171 0.9393503665924072
135 172 0.9307602047920227
135 173 0.150349423289299
135 174 0.8778830766677856
135 175 0.9451090693473816
135 176 0.9384148120880127
135 177 0.9468073844909668
135 178 0.7787408232688904
135 179 0.9484289884567261
135 180 0.9438266158103943
135 181 0.9491417407989502
135 182 0.9404153823852539
135 183 0.17399565875530243
135 184 0.9377914071083069
135 185 0.9091229438781738
135 186 0.17677977681159973
135 187 0.08680428564548492
135 188 0.9459035992622375
135 189 0.16499169170856476
135 190 0.9476476907730103
135 191 0.9462416172027588
135 192 0.9394260048866272
135 193 0.9518846273422241
135 195 0.942690908908844
135 196 0.20250114798545837
135 197 0.0656178742647171
135 198 0.17637664079666138
135 200 0.6332078576087952
135 201 0.9465876817703247
135 202 0.9485701322555542
135 203 0.9445422291755676
135 204 0.17970195412635803
135 205 0.942424476146698
135 206 0.9471535086631775
135 207 0.9432590007781982
135 208 0.10375096648931503
135 209 0.16317389905452728
135 210 0.1279570609331131
135 211 0.9518846273422241
135 212 0.12706845998764038
135 213 0.9421967267990112
135 214 0.14301083981990814
135 215 0.9443939924240112
135 216 0.9306079745292664
135 217 0.9499775171279907
135 218 0.27084654569625854
135 219 0.09892266243696213
135 220 0.056826744228601456
135 221 0.9548330903053284
135 222 0.9132398962974548
135 223 0.0791381299495697
135 224 0.9461674094200134
135 225 0.12706845998764038
135 226 0.949001133441925
135 227 0.9448882937431335
135 228 0.11859723180532455
135 229 0.09892266243696213
135 230 0.9214320778846741
135 231 0.9457507133483887
135 232 0.1941002905368805
135 233 0.9359999895095825
135 234 0.15092110633850098
135 235 0.9468073844909668
135 236 0.9225935339927673
135 237 0.9498571157455444
135 239 0.21000203490257263
135 240 0.9332133531570435
135 241 0.9511762857437134
135 242 0.946316659450531
135 243 0.09892266243696213
135 244 0.9420492649078369
135 245 0.9286928772926331
135 246 0.0656178742647171
135 247 0.9350110292434692
135 248 0.9452605247497559
135 249 0.053576767444610596
135 250 0.949293315410614
135 251 0.20673765242099762
135 252 0.936648964881897
135 253 0.17399565875530243
135 254 0.9383621215820312
135 255 0.9514707326889038
136 137 0.9482050538063049
136 138 0.9511916637420654
136 139 0.9443668723106384
136 140 0.9405710697174072
136 141 0.9614302515983582
136 142 0.9532914757728577
136 143 0.9613800048828125
136 144 0.35135820508003235
136 145 0.9556049108505249
136 146 0.9395095109939575
136 147 0.9610392451286316
136 149 0.8418983817100525
136 150 0.9630706906318665
136 151 0.9428050518035889
136 152 0.9537899494171143
136 153 0.956760585308075
136 154 0.9509753584861755
136 155 0.9614814519882202
136 156 0.9527937769889832
136 157 0.9512481689453125
136 159 0.9517444968223572
136 160 0.1954500377178192
136 161 0.9460908770561218
136 162 0.940011739730835
136 163 0.9530344009399414
136 164 0.2250547856092453
136 165 0.9629716277122498
136 166 0.9580901861190796
136 167 0.9481528997421265
136 168 0.1301393061876297
136 169 0.8696794509887695
136 170 0.956760585308075
136 171 0.9478124976158142
136 172 0.940514862537384
136 173 0.14883513748645782
136 174 0.8793054819107056
136 175 0.9523531198501587
136 176 0.9438096880912781
136 177 0.9571464657783508
136 178 0.7773216366767883
136 179 0.9618780016899109
136 180 0.9500852227210999
136 181 0.9625242352485657
136 182 0.9499210119247437
136 183 0.17224319279193878
136 184 0.9525821805000305
136 185 0.9131046533584595
136 186 0.18083257973194122
136 187 0.07365428656339645
136 188 0.9572546482086182
136 189 0.20021085441112518
136 190 0.9548923969268799
136 191 0.9576432704925537
136 192 0.9489216804504395
136 193 0.9652040600776672
136 195 0.9500295519828796
136 196 0.1954500377178192
136 198 0.15919430553913116
136 200 0.6410764455795288
136 201 0.9548923969268799
136 202 0.9505830407142639
136 203 0.9570419788360596
136 204 0.16603253781795502
136 205 0.95389723777771
136 206 0.9543944597244263
136 207 0.9505830407142639
136 208 0.09243540465831757
136 209 0.16153043508529663
136 210 0.13411937654018402
136 211 0.9599980115890503
136 212 0.11740273237228394
136 213 0.952686071395874
136 214 0.11176615208387375
136 215 0.9495882391929626
136 216 0.9404052495956421
136 217 0.9613307118415833
136 218 0.2890109419822693
136 219 0.06854843348264694
136 220 0.05625439062714577
136 221 0.959838330745697
136 222 0.9214901924133301
136 223 0.06854843348264694
136 224 0.9617823958396912
136 225 0.11740273237228394
136 226 0.9541876316070557
136 227 0.9500852227210999
136 228 0.11740273237228394
136 229 0.10771896690130234
136 230 0.9389795660972595
136 231 0.9550543427467346
136 232 0.17567573487758636
136 233 0.94453364610672
136 234 0.14940105378627777
136 235 0.9581925272941589
136 236 0.9443878531455994
136 237 0.9610931277275085
136 238 0.07262410968542099
136 239 0.23187391459941864
136 240 0.9439200758934021
136 241 0.9593424201011658
136 242 0.9618780016899109
136 243 0.06854843348264694
136 244 0.950474739074707
136 245 0.9416326284408569
136 247 0.9456465244293213
136 248 0.9545593857765198
136 249 0.06629643589258194
136 250 0.962627112865448
136 251 0.22284701466560364
136 252 0.9493670463562012
136 253 0.14353600144386292
136 254 0.9510281085968018
136 255 0.9637194871902466
137 138 0.9521527290344238
137 139 0.9378683567047119
137 140 0.9446894526481628
137 141 0.956142246723175
137 142 0.9532048106193542
137 143 0.957131564617157
137 144 0.34026646614074707
137 145 0.954484224319458
137 146 0.9372425079345703
137 147 0.9599428772926331
137 149 0.8484467267990112
137 150 0.9567530751228333
137 151 0.9426773190498352
137 152 0.9505453109741211
137 153 0.9587854743003845
137 154 0.9519314169883728
137 155 0.9614261984825134
137 156 0.9516556262969971
137 157 0.9532613754272461
137 159 0.9495525360107422
137 160 0.1807972639799118
137 161 0.945974588394165
137 162 0.9388079643249512
137 163 0.9518784880638123
137 164 0.21322938799858093
137 165 0.9597764611244202
137 166 0.9569665789604187
137 167 0.9427365064620972
137 168 0.12274327874183655
137 169 0.8761374354362488
137 170 0.9598309993743896
137 171 0.9455922842025757
137 172 0.9403753876686096
137 173 0.14204774796962738
137 174 0.8731662631034851
137 175 0.9533188343048096
137 176 0.9394309520721436
137 177 0.9549790620803833
137 178 0.7725290656089783
137 179 0.954484224319458
137 180 0.9478831887245178
137 181 0.9582911729812622
137 182 0.9477052688598633
137 183 0.1668541580438614
137 184 0.9503743052482605
137 185 0.9095513224601746
137 186 0.17536963522434235
137 187 0.08611186593770981
137 188 0.9571883082389832
137 189 0.20063458383083344
137 190 0.9516556262969971
137 191 0.9544259905815125
137 192 0.9477636814117432
137 193 0.9588994979858398
137 195 0.9541487693786621
137 196 0.19586369395256042
137 198 0.169823557138443
137 200 0.6313294172286987
137 201 0.956913411617279
137 202 0.947326123714447
137 203 0.9496133327484131
137 204 0.16044165194034576
137 205 0.9506637454032898
137 206 0.9490573406219482
137 207 0.9483798146247864
137 208 0.092631034553051
137 209 0.16745410859584808
137 210 0.12693637609481812
137 211 0.9599428772926331
137 212 0.12605486810207367
137 213 0.9494335651397705
137 214 0.12693637609481812
137 215 0.9526505470275879
137 216 0.9381265044212341
137 217 0.9560273289680481
137 218 0.28613317012786865
137 219 0.06869351118803024
137 220 0.05637345090508461
137 221 0.9545432329177856
137 222 0.9201619625091553
137 223 0.09813358634710312
137 224 0.9533188343048096
137 225 0.11765120923519135
137 226 0.9477636814117432
137 227 0.9468300342559814
137 228 0.08403658121824265
137 229 0.10794694721698761
137 230 0.9312883019447327
137 231 0.9560273289680481
137 232 0.19255200028419495
137 233 0.9454739689826965
137 234 0.12367946654558182
137 235 0.9560273289680481
137 236 0.9367185831069946
137 237 0.9620848894119263
137 238 0.07277781516313553
137 239 0.2644149363040924
137 240 0.9522805213928223
137 241 0.9582344889640808
137 242 0.9555319547653198
137 243 0.09813358634710312
137 244 0.9472063779830933
137 245 0.9404340982437134
137 246 0.06509445607662201
137 247 0.944474995136261
137 248 0.9565796256065369
137 249 0.0664367526769638
137 250 0.9615357518196106
137 251 0.2005310356616974
137 252 0.950319230556488
137 253 0.1668541580438614
137 254 0.9498745203018188
137 255 0.961591899394989
138 139 0.9515196681022644
138 140 0.9456472396850586
138 141 0.9641715884208679
138 142 0.9571578502655029
138 143 0.9662092328071594
138 144 0.3232541084289551
138 145 0.961506724357605
138 146 0.9509301781654358
138 147 0.9679089188575745
138 149 0.849765419960022
138 150 0.9626809358596802
138 151 0.9467960596084595
138 152 0.9576583504676819
138 153 0.9636739492416382
138 154 0.9559371471405029
138 155 0.9631770849227905
138 156 0.9577024579048157
138 157 0.962422251701355
138 159 0.9597912430763245
138 160 0.19452883303165436
138 161 0.950048565864563
138 162 0.9461527466773987
138 163 0.9495929479598999
138 164 0.2525023818016052
138 165 0.9625909328460693
138 166 0.9619209170341492
138 167 0.9510565400123596
138 168 0.12190674990415573
138 169 0.8758986592292786
138 170 0.964712381362915
138 171 0.9538384675979614
138 172 0.9477168321609497
138 173 0.09875575453042984
138 174 0.8853769302368164
138 175 0.9582920074462891
138 176 0.9541377425193787
138 177 0.9630465507507324
138 178 0.7762154936790466
138 179 0.9604661464691162
138 180 0.9602515697479248
138 181 0.9652529358863831
138 182 0.9559371471405029
138 183 0.17143136262893677
138 184 0.952287495136261
138 185 0.9142493605613708
138 186 0.1683686375617981
138 187 0.07330713421106339
138 188 0.9652105569839478
138 189 0.18353557586669922
138 190 0.9577024579048157
138 191 0.9614630341529846
138 192 0.954931378364563
138 193 0.9658363461494446
138 195 0.9560230374336243
138 196 0.18954092264175415
138 198 0.19933272898197174
138 200 0.6459320783615112
138 201 0.9577024579048157
138 202 0.9544752836227417
138 203 0.9619209170341492
138 204 0.1770535707473755
138 205 0.9598342776298523
138 206 0.9572030305862427
138 207 0.9586616158485413
138 208 0.06133314594626427
138 209 0.1829441487789154
138 210 0.13348723948001862
138 211 0.9648000597953796
138 212 0.10850300639867783
138 213 0.9576149582862854
138 214 0.11865531653165817
138 215 0.9587038159370422
138 216 0.9412729144096375
138 217 0.9630465507507324
138 218 0.27032050490379333
138 219 0.09746478497982025
138 221 0.9605118632316589
138 222 0.9236592650413513
138 223 0.09746478497982025
138 224 0.9593347311019897
138 225 0.10850300639867783
138 226 0.9538831114768982
138 227 0.9560675024986267
138 228 0.10850300639867783
138 229 0.10721126198768616
138 230 0.9420303106307983
138 231 0.9609642624855042
138 232 0.18031172454357147
138 233 0.9495457410812378
138 234 0.1486968994140625
138 235 0.9651287794113159
138 236 0.9356691241264343
138 237 0.9669157266616821
138 238 0.07228181511163712
138 239 0.25067591667175293
138 240 0.9521097540855408
138 241 0.9672885537147522
138 242 0.961506724357605
138 243 0.09746478497982025
138 244 0.9533362984657288
138 245 0.9488170146942139
138 247 0.9516937732696533
138 248 0.9677503108978271
138 249 0.0791807547211647
138 250 0.9663761258125305
138 251 0.2082172930240631
138 252 0.9616905450820923
138 253 0.1657169908285141
138 254 0.958076000213623
138 255 0.9674549102783203
139 140 0.9397345185279846
139 141 0.9544889330863953
139 142 0.9494098424911499
139 143 0.9544265866279602
139 144 0.32930439710617065
139 145 0.950718879699707
139 146 0.9397345185279846
139 147 0.9541257619857788
139 149 0.8447285890579224
139 150 0.9561551213264465
139 151 0.937732994556427
139 152 0.9520172476768494
139 153 0.9529479146003723
139 154 0.9470471739768982
139 155 0.9545522928237915
139 156 0.9478598833084106
139 157 0.9505269527435303
139 159 0.9478598833084106
139 160 0.20141997933387756
139 161 0.9410548210144043
139 162 0.9359679222106934
139 163 0.9416840076446533
139 164 0.25491103529930115
139 165 0.9528835415840149
139 166 0.9500318169593811
139 167 0.9420532584190369
139 168 0.13076148927211761
139 169 0.8738373517990112
139 170 0.9529479146003723
139 171 0.9449284672737122
139 172 0.9375366568565369
139 173 0.14242543280124664
139 174 0.8858012557029724
139 175 0.9548008441925049
139 176 0.9408631920814514
139 177 0.9522628784179688
139 178 0.7874928116798401
139 179 0.9549209475517273
139 180 0.948291540145874
139 181 0.9535044431686401
139 182 0.9491658210754395
139 183 0.16729779541492462
139 184 0.9454898238182068
139 185 0.9119697213172913
139 186 0.14066873490810394
139 187 0.07400642335414886
139 188 0.9544889330863953
139 189 0.20116806030273438
139 190 0.9520772695541382
139 191 0.9506540298461914
139 192 0.9481672644615173
139 193 0.9572643041610718
139 195 0.9514002203941345
139 196 0.19134898483753204
139 198 0.17543494701385498
139 200 0.6330080032348633
139 201 0.9489142298698425
139 202 0.946675181388855
139 203 0.9500318169593811
139 204 0.16682633757591248
139 205 0.9521383047103882
139 206 0.9473655223846436
139 207 0.9456186294555664
139 208 0.0928773283958435
139 209 0.19028593599796295
139 210 0.12727390229701996
139 211 0.9541257619857788
139 212 0.11796402931213379
139 213 0.9477317333221436
139 214 0.11230049282312393
139 215 0.9477954506874084
139 216 0.9331300854682922
139 217 0.9522628784179688
139 218 0.2903926968574524
139 219 0.08855506032705307
139 221 0.9539329409599304
139 222 0.9083639979362488
139 223 0.08855506032705307
139 224 0.9505900144577026
139 225 0.10953802615404129
139 226 0.9428761601448059
139 227 0.9472354650497437
139 228 0.11796402931213379
139 229 0.09839451313018799
139 230 0.9348427057266235
139 231 0.9491097331047058
139 232 0.19306395947933197
139 233 0.9437415599822998
139 234 0.15664207935333252
139 235 0.9512118101119995
139 236 0.9273614287376404
139 237 0.9562820196151733
139 238 0.07297132164239883
139 239 0.22494858503341675
139 240 0.9388634562492371
139 241 0.9576356410980225
139 242 0.9559714794158936
139 243 0.08855506032705307
139 244 0.9433722496032715
139 245 0.9418678283691406
139 247 0.9427444338798523
139 248 0.9538704752922058
139 249 0.0532907173037529
139 250 0.9546814560890198
139 251 0.22391243278980255
139 252 0.9433069825172424
139 253 0.17306667566299438
139 254 0.947109043598175
139 255 0.9578811526298523
140 141 0.9539162516593933
140 142 0.9498736262321472
140 143 0.9506966471672058
140 144 0.31200292706489563
140 145 0.9501368999481201
140 146 0.9487179517745972
140 147 0.9535578489303589
140 149 0.8496714234352112
140 150 0.9566372632980347
140 151 0.9403005838394165
140 152 0.9514274001121521
140 153 0.9555239677429199
140 154 0.9464415907859802
140 155 0.9550312757492065
140 156 0.9472655057907104
140 157 0.9488825798034668
140 159 0.9493776559829712
140 160 0.14626331627368927
140 161 0.9383063316345215
140 162 0.9385356307029724
140 163 0.9453161954879761
140 164 0.21825674176216125
140 165 0.9512559771537781
140 166 0.9557727575302124
140 167 0.9414318799972534
140 168 0.12326670438051224
140 169 0.8752366304397583
140 170 0.9555239677429199
140 171 0.9390143752098083
140 172 0.9347598552703857
140 173 0.1355208158493042
140 174 0.8941062092781067
140 175 0.950003445148468
140 176 0.9434370994567871
140 177 0.9579987525939941
140 178 0.7887538075447083
140 179 0.9522412419319153
140 180 0.9476945400238037
140 181 0.9539818167686462
140 182 0.9464415907859802
140 183 0.16178755462169647
140 184 0.9448828101158142
140 185 0.9046152234077454
140 186 0.1702468991279602
140 187 0.06177078187465668
140 188 0.9570679664611816
140 189 0.16967593133449554
140 190 0.9462094902992249
140 191 0.9500697255134583
140 192 0.9422661662101746
140 193 0.954605758190155
140 195 0.944453239440918
140 196 0.20678606629371643
140 198 0.16021153330802917
140 200 0.6244635581970215
140 201 0.9504336714744568
140 202 0.9418416619300842
140 203 0.9452233910560608
140 204 0.17902871966362
140 205 0.9557727575302124
140 206 0.9520490765571594
140 207 0.9481911063194275
140 208 0.07235359400510788
140 209 0.1569569706916809
140 210 0.11997900158166885
140 211 0.9587971568107605
140 212 0.12659242749214172
140 213 0.9524241089820862
140 214 0.09748293459415436
140 215 0.9429702162742615
140 216 0.9421270489692688
140 217 0.9548405408859253
140 218 0.262823224067688
140 219 0.07884165644645691
140 220 0.056613851338624954
140 221 0.9523071050643921
140 222 0.9164034724235535
140 223 0.0689864456653595
140 224 0.950003445148468
140 225 0.06751596182584763
140 226 0.9475657343864441
140 227 0.9434637427330017
140 228 0.05063696578145027
140 229 0.07884165644645691
140 230 0.9266198873519897
140 231 0.9558932781219482
140 232 0.1767982840538025
140 233 0.9378097653388977
140 234 0.13728131353855133
140 235 0.9537877440452576
140 236 0.935319185256958
140 237 0.9578132629394531
140 238 0.07308816909790039
140 239 0.25347238779067993
140 240 0.9488866329193115
140 241 0.9549667835235596
140 242 0.954345703125
140 243 0.08869685977697372
140 244 0.9470038414001465
140 245 0.9433760643005371
140 247 0.9410675764083862
140 248 0.9501368999481201
140 249 0.05337604880332947
140 250 0.9614468216896057
140 251 0.21969400346279144
140 252 0.9426943063735962
140 253 0.14445316791534424
140 254 0.9454458355903625
140 255 0.9583687782287598
141 142 0.9652105569839478
141 143 0.9679425954818726
141 144 0.34478759765625
141 145 0.9684440493583679
141 146 0.9549667835235596
141 147 0.9706369042396545
141 149 0.8543375730514526
141 150 0.9716359972953796
141 151 0.9550294876098633
141 152 0.9625967144966125
141 153 0.9685081243515015
141 154 0.9598802328109741
141 155 0.9711048007011414
141 156 0.9626297950744629
141 157 0.9631656408309937
141 159 0.9626297950744629
141 160 0.19342041015625
141 161 0.9550961256027222
141 162 0.9533751010894775
141 163 0.9619377851486206
141 164 0.22676712274551392
141 165 0.9705427289009094
141 166 0.9647386074066162
141 167 0.9582039713859558
141 168 0.13636362552642822
141 169 0.8788871765136719
141 170 0.9685081243515015
141 171 0.9619669318199158
141 172 0.9496785998344421
141 173 0.14728955924510956
141 174 0.884846568107605
141 175 0.9642365574836731
141 176 0.9549975991249084
141 177 0.9668757319450378
141 178 0.7857788801193237
141 179 0.9715480208396912
141 180 0.9610204100608826
141 181 0.9690408110618591
141 182 0.9577935338020325
141 183 0.1818181723356247
141 184 0.961460530757904
141 185 0.922041654586792
141 186 0.17895472049713135
141 187 0.08503766357898712
141 188 0.9679751992225647
141 189 0.1981317698955536
141 190 0.9647066593170166
141 191 0.9653061628341675
141 192 0.9588702917098999
141 193 0.9737281203269958
141 195 0.9599459767341614
141 196 0.19837990403175354
141 198 0.18803298473358154
141 200 0.6312862634658813
141 201 0.9636682271957397
141 202 0.9625645875930786
141 203 0.9668132662773132
141 204 0.17017653584480286
141 205 0.9668132662773132
141 206 0.9621278047561646
141 207 0.9615238904953003
141 208 0.10163945704698563
141 209 0.1819017082452774
141 210 0.13272660970687866
141 211 0.9706369042396545
141 212 0.1161835715174675
141 213 0.9625645875930786
141 214 0.11060550808906555
141 215 0.9615572094917297
141 216 0.9464489221572876
141 217 0.9668757319450378
141 218 0.2894556224346161
141 219 0.07752753794193268
141 220 0.05567022040486336
141 221 0.9684755206108093
141 222 0.9335049986839294
141 223 0.08721847832202911
141 224 0.9652733206748962
141 225 0.12448239326477051
141 226 0.9599125981330872
141 227 0.9610204100608826
141 228 0.1161835715174675
141 229 0.10660036653280258
141 230 0.9472823143005371
141 231 0.9658405184745789
141 232 0.18471716344356537
141 233 0.9566817879676819
141 234 0.1607060730457306
141 235 0.9648053646087646
141 236 0.9483715295791626
141 237 0.9727289080619812
141 238 0.07186995446681976
141 239 0.24924755096435547
141 240 0.9540151357650757
141 241 0.9710744023323059
141 242 0.9663746953010559
141 243 0.09690941870212555
141 244 0.9604177474975586
141 245 0.9507644772529602
141 246 0.06428243219852448
141 247 0.9598488211631775
141 248 0.9674093723297119
141 249 0.07872957736253738
141 250 0.9711683392524719
141 251 0.21603219211101532
141 252 0.9593424201011658
141 253 0.17045453190803528
141 254 0.9609548449516296
141 255 0.9712016582489014
142 143 0.963089108467102
142 144 0.33500880002975464
142 145 0.961506724357605
142 146 0.9509301781654358
142 147 0.9658363461494446
142 149 0.8604170680046082
142 150 0.9637182950973511
142 151 0.9489047527313232
142 152 0.9597492814064026
142 153 0.9626355171203613
142 154 0.9538384675979614
142 155 0.9631770849227905
142 156 0.956658124923706
142 157 0.9592906832695007
142 159 0.9629244208335876
142 160 0.17457714676856995
142 161 0.9553090929985046
142 162 0.9546099901199341
142 163 0.9527442455291748
142 164 0.2443571388721466
142 165 0.9625909328460693
142 166 0.9608775973320007
142 167 0.9573758840560913
142 168 0.13714510202407837
142 169 0.8713127970695496
142 170 0.964712381362915
142 171 0.9527891278266907
142 172 0.9498323202133179
142 173 0.12697169184684753
142 174 0.8899173736572266
142 175 0.9593347311019897
142 176 0.949915885925293
142 177 0.9651287794113159
142 178 0.7877244353294373
142 179 0.9625473618507385
142 180 0.9602515697479248
142 181 0.9662908315658569
142 182 0.9601343870162964
142 183 0.13714508712291718
142 184 0.9533362984657288
142 185 0.9120699763298035
142 186 0.15675701200962067
142 187 0.08552499115467072
142 188 0.9631326198577881
142 189 0.18353557586669922
142 190 0.9587468504905701
142 191 0.9593797326087952
142 192 0.955979585647583
142 193 0.9679089188575745
142 195 0.9549759030342102
142 196 0.17457714676856995
142 198 0.1942216455936432
142 200 0.6301775574684143
142 201 0.9587468504905701
142 202 0.955521821975708
142 203 0.9567043781280518
142 204 0.15344642102718353
142 205 0.9587909579277039
142 206 0.9603345394134521
142 207 0.9586616158485413
142 208 0.08177753537893295
142 209 0.16076910495758057
142 210 0.13348723948001862
142 211 0.9668726325035095
142 212 0.1168493926525116
142 213 0.9586616158485413
142 214 0.11865531653165817
142 215 0.9555673599243164
142 216 0.9455128312110901
142 217 0.9672110080718994
142 218 0.27378615736961365
142 219 0.08771830052137375
142 220 0.05598925054073334
142 221 0.9615514278411865
142 222 0.9214885234832764
142 223 0.07797182351350784
142 224 0.9635058045387268
142 225 0.10015662014484406
142 226 0.954931378364563
142 227 0.9550215005874634
142 228 0.10015662014484406
142 229 0.09746478497982025
142 230 0.9409622550010681
142 231 0.9630465507507324
142 232 0.16938374936580658
142 233 0.9505972862243652
142 234 0.12283656746149063
142 235 0.9682521820068359
142 236 0.9356691241264343
142 237 0.9679509997367859
142 238 0.07228181511163712
142 239 0.2546549141407013
142 240 0.9510565400123596
142 241 0.9631326198577881
142 242 0.961506724357605
142 243 0.08771830052137375
142 244 0.9543850421905518
142 245 0.9456472396850586
142 246 0.06465081870555878
142 247 0.9495929479598999
142 248 0.9625473618507385
142 249 0.0527871735394001
142 250 0.9684476852416992
142 251 0.21274375915527344
142 252 0.9585408568382263
142 253 0.15428823232650757
142 254 0.954931378364563
142 255 0.9726284742355347
143 144 0.34221941232681274
143 145 0.9673745632171631
143 146 0.952799916267395
143 147 0.9695783257484436
143 149 0.8540435433387756
143 150 0.9674786925315857
143 151 0.9518199563026428
143 152 0.9646332263946533
143 153 0.96744304895401
143 154 0.9660955667495728
143 155 0.9679772853851318
143 156 0.9625862836837769
143 157 0.9662402272224426
143 159 0.9605072736740112
143 160 0.16879738867282867
143 161 0.9560843706130981
143 162 0.9501526951789856
143 163 0.9556143283843994
143 164 0.2432161569595337
143 165 0.965338945388794
143 166 0.963659942150116
143 167 0.9529055953025818
143 168 0.12133754044771194
143 169 0.8820787668228149
143 170 0.9684766530990601
143 171 0.9577401280403137
143 172 0.9559251070022583
143 173 0.14042091369628906
143 174 0.8891514539718628
143 175 0.9673099517822266
143 176 0.9507330656051636
143 177 0.9647673964500427
143 178 0.7853191494941711
143 179 0.969446063041687
143 180 0.9640970826148987
143 181 0.9669442176818848
143 182 0.9640066623687744
143 183 0.17063090205192566
143 184 0.9593236446380615
143 185 0.9251648783683777
143 186 0.1733611673116684
143 187 0.08512565493583679
143 188 0.9669085144996643
143 189 0.19311736524105072
143 190 0.9646652936935425
143 191 0.9642313718795776
143 192 0.9609057903289795
143 193 0.9757670760154724
143 195 0.959896981716156
143 196 0.19362053275108337
143 198 0.18822753429412842
143 200 0.6429160237312317
143 201 0.9646652936935425
143 202 0.9593937397003174
143 203 0.963659942150116
143 204 0.1644783765077591
143 205 0.9626215100288391
143 206 0.9620842933654785
143 207 0.9614771008491516
143 208 0.0712212324142456
143 209 0.1765720546245575
143 210 0.13286393880844116
143 211 0.9695783257484436
143 212 0.11630378663539886
143 213 0.9656438231468201
143 214 0.11810127645730972
143 215 0.9615114331245422
143 216 0.9484832286834717
143 217 0.9658036828041077
143 218 0.2380131185054779
143 219 0.07760774344205856
143 220 0.05572781711816788
143 221 0.96637362241745
143 222 0.9279889464378357
143 223 0.08730871230363846
143 224 0.9652342200279236
143 225 0.11630378663539886
143 226 0.9577757716178894
143 227 0.9588913321495056
143 228 0.09138154983520508
143 229 0.10671065002679825
143 230 0.9408209323883057
143 231 0.9678761959075928
143 232 0.18490827083587646
143 233 0.9545317888259888
143 234 0.12869790196418762
143 235 0.9647673964500427
143 236 0.9493527412414551
143 237 0.9716745018959045
143 238 0.07194431126117706
143 239 0.24554502964019775
143 240 0.9550022482872009
143 241 0.9700108170509338
143 242 0.9756604433059692
143 243 0.08730871230363846
143 244 0.9614114165306091
143 245 0.952799916267395
143 246 0.06434894353151321
143 247 0.9566598534584045
143 248 0.969446063041687
143 249 0.06567586958408356
143 250 0.9721731543540955
143 251 0.21625570952892303
143 252 0.9624250531196594
143 253 0.17063090205192566
143 254 0.9598624110221863
143 255 0.9722065329551697
144 145 0.35117605328559875
144 146 0.3179458677768707
144 147 0.34972938895225525
144 149 0.29290083050727844
144 150 0.3355023264884949
144 151 0.3380245566368103
144 152 0.33224374055862427
144 153 0.34168922901153564
144 154 0.348222017288208
144 155 0.3415130376815796
144 156 0.3377709984779358
144 157 0.3258524537086487
144 159 0.32308530807495117
144 160 0.12624819576740265
144 161 0.34914299845695496
144 162 0.33298102021217346
144 163 0.33086463809013367
144 164 0.0801742821931839
144 165 0.350812703371048
144 166 0.32861676812171936
144 167 0.32581761479377747
144 168 0.06428243219852448
144 169 0.27728235721588135
144 170 0.33000755310058594
144 171 0.3334668278694153
144 172 0.33315926790237427
144 173 0.13886593282222748
144 174 0.30007150769233704
144 175 0.3343108594417572
144 176 0.30276528000831604
144 177 0.31622231006622314
144 178 0.27331939339637756
144 179 0.3482495844364166
144 180 0.31476715207099915
144 181 0.33859413862228394
144 182 0.32166269421577454
144 183 0.06428243219852448
144 184 0.32444286346435547
144 185 0.3279063105583191
144 186 0.1306220293045044
144 187 0.10308121144771576
144 188 0.3301779627799988
144 189 0.19171620905399323
144 190 0.3172110319137573
144 191 0.3456815481185913
144 192 0.3390118479728699
144 193 0.33807173371315
144 194 0.09090908616781235
144 195 0.3298214375972748
144 196 0.056110307574272156
144 197 0.09090908616781235
144 198 0.07186995446681976
144 200 0.14621104300022125
144 201 0.34658244252204895
144 202 0.3443650007247925
144 203 0.3432871699333191
144 205 0.3403530716896057
144 206 0.34053048491477966
144 207 0.29727235436439514
144 208 0.14373990893363953
144 209 0.15590780973434448
144 211 0.3264140784740448
144 213 0.35025155544281006
144 214 0.06256792694330215
144 215 0.3234231173992157
144 216 0.30406469106674194
144 217 0.2986544370651245
144 218 0.10721126198768616
144 221 0.3361954987049103
144 222 0.3296622633934021
144 224 0.3313782811164856
144 226 0.33311599493026733
144 227 0.34124287962913513
144 228 0.16430838406085968
144 230 0.3424241840839386
144 231 0.33671820163726807
144 232 0.09219864010810852
144 233 0.34895819425582886
144 234 0.1090909019112587
144 235 0.32207831740379333
144 236 0.35105234384536743
144 237 0.3348134160041809
144 240 0.31989365816116333
144 241 0.30388057231903076
144 242 0.35117605328559875
144 244 0.3362407684326172
144 245 0.34171751141548157
144 246 0.13636362552642822
144 247 0.32791051268577576
144 248 0.3365437090396881
144 249 0.11134044080972672
144 250 0.34372398257255554
144 252 0.3336426615715027
144 253 0.12856486439704895
144 254 0.33311599493026733
144 255 0.331731915473938
145 146 0.9480324387550354
145 147 0.9690485596656799
145 149 0.8556645512580872
145 150 0.9669467806816101
145 151 0.9523130059242249
145 152 0.9640917778015137
145 153 0.9689782857894897
145 154 0.9592812061309814
145 155 0.9664115309715271
145 156 0.9599647521972656
145 157 0.9677801728248596
145 159 0.9662050008773804
145 160 0.19868803024291992
145 161 0.9565796256065369
145 162 0.949592113494873
145 163 0.9592475891113281
145 164 0.25145354866981506
145 165 0.9668741822242737
145 166 0.9610422849655151
145 167 0.9544479846954346
145 168 0.11381286382675171
145 169 0.8848191499710083
145 170 0.9669100642204285
145 171 0.9592812061309814
145 172 0.9469403624534607
145 173 0.14049366116523743
145 174 0.8896120190620422
145 175 0.9615805149078369
145 176 0.9501744508743286
145 177 0.9652671217918396
145 178 0.7819055318832397
145 179 0.9668393731117249
145 180 0.9604296684265137
145 181 0.9664115309715271
145 182 0.9582362174987793
145 183 0.1821005791425705
145 184 0.9608649611473083
145 185 0.9223886132240295
145 186 0.16766928136348724
145 187 0.08516974747180939
145 188 0.9653400182723999
145 189 0.19843950867652893
145 190 0.9630849361419678
145 191 0.9647308588027954
145 192 0.9582719802856445
145 193 0.9711125493049622
145 195 0.9583086371421814
145 196 0.1887536197900772
145 197 0.06438227742910385
145 198 0.2035946398973465
145 200 0.6401112675666809
145 201 0.962044894695282
145 202 0.9598907232284546
145 203 0.9662370681762695
145 204 0.17044085264205933
145 205 0.9610422849655151
145 206 0.9615431427955627
145 207 0.9588484764099121
145 208 0.10179731994867325
145 209 0.18770499527454376
145 210 0.1403179168701172
145 211 0.9711125493049622
145 212 0.09974059462547302
145 213 0.9598907232284546
145 214 0.13293276727199554
145 215 0.9588861465454102
145 216 0.9458077549934387
145 217 0.9642303586006165
145 218 0.2864539623260498
145 219 0.07764794677495956
145 220 0.05575668811798096
145 221 0.9648038148880005
145 222 0.9241461157798767
145 223 0.10676592588424683
145 224 0.962618887424469
145 225 0.12467575073242188
145 226 0.9572281241416931
145 227 0.959388017654419
145 228 0.11636403203010559
145 229 0.10676592588424683
145 230 0.9466263651847839
145 231 0.9642303586006165
145 232 0.18500405550003052
145 233 0.9560733437538147
145 234 0.1416410207748413
145 235 0.9652671217918396
145 236 0.9413447380065918
145 237 0.9690850377082825
145 238 0.07198157161474228
145 239 0.24170978367328644
145 240 0.9533991813659668
145 241 0.9663746953010559
145 242 0.9647668600082397
145 243 0.10676592588424683
145 244 0.956687331199646
145 245 0.9490846991539001
145 246 0.06438227742910385
145 247 0.956109344959259
145 248 0.9658031463623047
145 249 0.0788518637418747
145 250 0.9695824384689331
145 251 0.17579877376556396
145 252 0.95665043592453
145 253 0.17640994489192963
145 254 0.959315836429596
145 255 0.9716796278953552
146 147 0.9535578489303589
146 149 0.8544583320617676
146 150 0.9545393586158752
146 151 0.9445649981498718
146 152 0.9493131041526794
146 153 0.9523739218711853
146 154 0.9411364197731018
146 155 0.9539818167686462
146 156 0.9462094902992249
146 157 0.9488825798034668
146 159 0.9504336714744568
146 160 0.16139400005340576
146 161 0.9414979219436646
146 162 0.939604640007019
146 163 0.9400054216384888
146 164 0.23884700238704681
146 165 0.9502049088478088
146 166 0.9557727575302124
146 167 0.9393019080162048
146 168 0.11556253582239151
146 169 0.8787143230438232
146 170 0.9586740732192993
146 171 0.9421975016593933
146 172 0.936898946762085
146 173 0.11412279307842255
146 174 0.8826286196708679
146 175 0.9478946924209595
146 176 0.9455715417861938
146 177 0.9537877440452576
146 178 0.7784095406532288
146 179 0.9511890411376953
146 180 0.9455791711807251
146 181 0.9518828988075256
146 182 0.9485636949539185
146 183 0.16178755462169647
146 184 0.9417014718055725
146 185 0.9046152234077454
146 186 0.14089398086071014
146 188 0.9581184983253479
146 189 0.17497830092906952
146 190 0.9493776559829712
146 191 0.9479631185531616
146 192 0.9433260560035706
146 193 0.9535578489303589
146 195 0.944453239440918
146 196 0.20678606629371643
146 198 0.1912202090024948
146 200 0.6260565519332886
146 201 0.9504336714744568
146 202 0.9471328854560852
146 203 0.9473333358764648
146 204 0.17902871966362
146 205 0.9515530467033386
146 206 0.9488825798034668
146 207 0.9481911063194275
146 208 0.06201736256480217
146 209 0.14574575424194336
146 210 0.0674881860613823
146 211 0.9567014575004578
146 212 0.12659242749214172
146 213 0.9481911063194275
146 214 0.12747769057750702
146 215 0.9461416602134705
146 216 0.9335525035858154
146 217 0.9537877440452576
146 218 0.27333614230155945
146 219 0.09855207055807114
146 220 0.056613851338624954
146 221 0.9533582329750061
146 222 0.9098185896873474
146 223 0.0689864456653595
146 224 0.9521122574806213
146 225 0.10971342772245407
146 226 0.9465057849884033
146 227 0.952983021736145
146 228 0.06751596182584763
146 229 0.07884165644645691
146 230 0.9255399107933044
146 231 0.9506295919418335
146 232 0.18784818053245544
146 233 0.9399363398551941
146 234 0.150355726480484
146 235 0.9506295919418335
146 236 0.9277675151824951
146 237 0.9557197093963623
146 238 0.058470532298088074
146 239 0.2494490146636963
146 240 0.9499515891075134
146 241 0.9539162516593933
146 242 0.9511890411376953
146 243 0.09855207055807114
146 244 0.945943295955658
146 245 0.9391025900840759
146 247 0.9421297311782837
146 248 0.9511890411376953
146 249 0.05337604880332947
146 250 0.9551628828048706
146 251 0.23342488706111908
146 252 0.9448174238204956
146 253 0.16178755462169647
146 254 0.9422661662101746
146 255 0.9573224782943726
147 149 0.8450971841812134
147 150 0.9711939096450806
147 151 0.9557093977928162
147 152 0.9653044939041138
147 153 0.9701359272003174
147 154 0.9594920873641968
147 155 0.9716944098472595
147 156 0.9663678407669067
147 157 0.964828610420227
147 159 0.9674035906791687
147 160 0.20281624794006348
147 161 0.9588994979858398
147 162 0.9572129249572754
147 163 0.9615465402603149
147 164 0.25041767954826355
147 165 0.9690768122673035
147 166 0.966395378112793
147 167 0.9557387828826904
147 168 0.13601282238960266
147 169 0.8789001107215881
147 170 0.9711657762527466
147 171 0.9615734219551086
147 172 0.9545782804489136
147 173 0.1399148851633072
147 174 0.8825701475143433
147 175 0.9658924341201782
147 176 0.9556809663772583
147 177 0.9685184359550476
147 178 0.7850255370140076
147 179 0.9690485596656799
147 180 0.9658097624778748
147 181 0.9727237224578857
147 182 0.9605327844619751
147 183 0.18135042488574982
147 184 0.9610671997070312
147 185 0.9293957352638245
147 186 0.17849433422088623
147 187 0.08481889218091965
147 188 0.9706369042396545
147 189 0.19242145121097565
147 190 0.9642963409423828
147 191 0.967988133430481
147 192 0.9626409411430359
147 193 0.972250759601593
147 195 0.9637071490287781
147 196 0.16818909347057343
147 197 0.06411705911159515
147 198 0.19261813163757324
147 200 0.6484113931655884
147 201 0.9642963409423828
147 202 0.962164044380188
147 203 0.968464732170105
147 204 0.1638856679201126
147 205 0.9674301147460938
147 206 0.964828610420227
147 207 0.9632019400596619
147 208 0.09124016761779785
147 209 0.18693174421787262
147 210 0.13973988592624664
147 211 0.972250759601593
147 212 0.11588466912508011
147 213 0.9632019400596619
147 214 0.12503042817115784
147 215 0.9642676711082458
147 216 0.9503214359283447
147 217 0.9695510268211365
147 218 0.2955850064754486
147 219 0.10632611066102982
147 221 0.9690768122673035
147 222 0.933256208896637
147 223 0.10632611066102982
147 224 0.967960774898529
147 225 0.11588466912508011
147 226 0.9636805057525635
147 227 0.9658097624778748
147 228 0.12416214495897293
147 229 0.10632611066102982
147 230 0.9469637274742126
147 231 0.9674859046936035
147 232 0.1625664085149765
147 233 0.9594348669052124
147 234 0.1602926403284073
147 235 0.9685184359550476
147 236 0.9469897150993347
147 237 0.9733064770698547
147 238 0.07168504595756531
147 239 0.25255247950553894
147 240 0.958872377872467
147 241 0.9696065187454224
147 242 0.9690485596656799
147 243 0.10632611066102982
147 244 0.9610671997070312
147 245 0.9525099992752075
147 247 0.9605047702789307
147 248 0.968016505241394
147 249 0.07852703332901001
147 250 0.9727786779403687
147 251 0.2244545817375183
147 252 0.9620804190635681
147 253 0.16434882581233978
147 254 0.9647200703620911
147 255 0.9748600125312805
149 150 0.8494919538497925
149 151 0.8335315585136414
149 152 0.846657395362854
149 153 0.8562489748001099
149 154 0.861659049987793
149 155 0.852280855178833
149 156 0.8398585915565491
149 157 0.8583371043205261
149 159 0.8576021194458008
149 160 0.07344280183315277
149 161 0.8436801433563232
149 162 0.8405467867851257
149 163 0.8542402982711792
149 164 0.19373568892478943
149 165 0.8465375304222107
149 166 0.8602533340454102
149 167 0.855311393737793
149 168 0.11218574643135071
149 169 0.8076764345169067
149 170 0.8538966178894043
149 171 0.8438316583633423
149 172 0.8326106667518616
149 173 0.11984287202358246
149 174 0.8240967392921448
149 175 0.8527193069458008
149 176 0.8415924310684204
149 177 0.8466745615005493
149 178 0.7039088606834412
149 179 0.8438785672187805
149 180 0.8447310328483582
149 181 0.852280855178833
149 182 0.8604705929756165
149 183 0.11650058627128601
149 184 0.8362602591514587
149 185 0.7985341548919678
149 186 0.14466798305511475
149 187 0.08302956819534302
149 188 0.8531607985496521
149 189 0.16630174219608307
149 190 0.8540534377098083
149 191 0.8518334031105042
149 192 0.8417566418647766
149 193 0.8497921824455261
149 195 0.8420588970184326
149 196 0.19208118319511414
149 198 0.15051297843456268
149 200 0.5799263715744019
149 201 0.8481388688087463
149 202 0.8534712195396423
149 203 0.8413466215133667
149 204 0.15374386310577393
149 205 0.8413466215133667
149 206 0.8465142846107483
149 207 0.8368759155273438
149 208 0.08104544878005981
149 209 0.11930118501186371
149 210 0.08399506658315659
149 211 0.8650509119033813
149 212 0.09453333169221878
149 213 0.8499150276184082
149 214 0.13439211249351501
149 215 0.8478415012359619
149 216 0.8343992829322815
149 217 0.8478537797927856
149 218 0.22374112904071808
149 219 0.05519557371735573
149 220 0.06341488659381866
149 221 0.8488922715187073
149 222 0.8015236854553223
149 224 0.8420898914337158
149 225 0.10398666560649872
149 226 0.8405693769454956
149 227 0.8376224637031555
149 229 0.09935203194618225
149 230 0.833493173122406
149 231 0.8478537797927856
149 232 0.19803708791732788
149 233 0.8313235640525818
149 234 0.07322520762681961
149 235 0.8549290299415588
149 236 0.8325846791267395
149 237 0.8618180751800537
149 238 0.0654946118593216
149 239 0.21181488037109375
149 240 0.8398037552833557
149 241 0.8531607985496521
149 242 0.8556645512580872
149 243 0.08831291645765305
149 244 0.8493267893791199
149 245 0.826933741569519
149 246 0.07322520017623901
149 247 0.8435325026512146
149 248 0.852128803730011
149 250 0.8540484309196472
149 251 0.16918404400348663
149 252 0.8466548323631287
149 253 0.1488618701696396
149 254 0.8370077013969421
149 255 0.8531728982925415
150 151 0.9535529613494873
150 152 0.9631842970848083
150 153 0.9711344838142395
150 154 0.9583961963653564
150 155 0.9726946353912354
150 156 0.9642520546913147
150 157 0.9637491703033447
150 159 0.9663257002830505
150 160 0.20302504301071167
150 161 0.9567530751228333
150 162 0.9508516192436218
150 163 0.9625362157821655
150 164 0.2385459989309311
150 165 0.9721382260322571
150 166 0.9684258699417114
150 167 0.9567225575447083
150 168 0.12858876585960388
150 169 0.8786665797233582
150 170 0.969072699546814
150 171 0.9583961963653564
150 172 0.9513605237007141
150 173 0.14706185460090637
150 174 0.8891129493713379
150 175 0.9658514261245728
150 176 0.9556168913841248
150 177 0.9664146304130554
150 178 0.7896421551704407
150 179 0.9700459837913513
150 180 0.9626500606536865
150 181 0.9716641902923584
150 182 0.9583961963653564
150 183 0.17019101977348328
150 184 0.9630976319313049
150 185 0.9260252118110657
150 186 0.17867805063724518
150 187 0.0849061980843544
150 188 0.96854168176651
150 189 0.19261951744556427
150 190 0.963215172290802
150 191 0.9669162631034851
150 192 0.9615505337715149
150 193 0.973251461982727
150 195 0.9615805149078369
150 196 0.20302504301071167
150 197 0.0641830563545227
150 198 0.18266817927360535
150 200 0.6350023746490479
150 201 0.963215172290802
150 202 0.9631544351577759
150 203 0.9653186202049255
150 204 0.1757725328207016
150 205 0.9642828702926636
150 206 0.9668580293655396
150 207 0.9641934037208557
150 208 0.1014823243021965
150 209 0.17611683905124664
150 210 0.1251591145992279
150 211 0.9722226858139038
150 212 0.12428995221853256
150 213 0.9621154069900513
150 214 0.13988372683525085
150 215 0.9642221927642822
150 216 0.9502472877502441
150 217 0.9684817790985107
150 218 0.29244866967201233
150 219 0.10643555223941803
150 220 0.055584151297807693
150 221 0.9711062908172607
150 222 0.9331392645835876
150 223 0.09675959497690201
150 224 0.9689571261405945
150 225 0.12428995221853256
150 226 0.9657130837440491
150 227 0.9626500606536865
150 228 0.11600395292043686
150 229 0.09675959497690201
150 230 0.9447574615478516
150 231 0.9664146304130554
150 232 0.18443156778812408
150 233 0.9562467336654663
150 234 0.15403930842876434
150 235 0.9674481749534607
150 236 0.9469053745269775
150 237 0.9753361344337463
150 238 0.07175883650779724
150 239 0.2528124153614044
150 240 0.9588137865066528
150 241 0.9716359972953796
150 242 0.9679798483848572
150 243 0.10643555223941803
150 244 0.9610152244567871
150 245 0.9555883407592773
150 246 0.0641830563545227
150 247 0.9583648443222046
150 248 0.9679798483848572
150 249 0.06550655514001846
150 250 0.972751796245575
150 251 0.21120449900627136
150 252 0.9589015245437622
150 253 0.16451798379421234
150 254 0.9615505337715149
150 255 0.9748362898826599
151 152 0.9504557847976685
151 153 0.9534887075424194
151 154 0.946543276309967
151 155 0.9540444016456604
151 156 0.9536782503128052
151 157 0.9468615055084229
151 159 0.950516939163208
151 160 0.2013128101825714
151 161 0.9394925236701965
151 162 0.9354699850082397
151 163 0.9422428607940674
151 164 0.2177918702363968
151 165 0.9565719962120056
151 166 0.9484735727310181
151 167 0.9415521025657654
151 168 0.13837967813014984
151 169 0.8791563510894775
151 170 0.9587276577949524
151 171 0.9433669447898865
151 172 0.9391723871231079
151 173 0.14234966039657593
151 174 0.8784579634666443
151 175 0.9521884918212891
151 176 0.9392976760864258
151 177 0.9538572430610657
151 178 0.767719566822052
151 179 0.9523130059242249
151 180 0.946731448173523
151 181 0.9540444016456604
151 182 0.9433669447898865
151 183 0.14414548873901367
151 184 0.9481614232063293
151 185 0.9026884436607361
151 186 0.16402621567249298
151 188 0.9550294876098633
151 189 0.18518775701522827
151 190 0.9473555684089661
151 191 0.9522503018379211
151 192 0.9466051459312439
151 193 0.9557093977928162
151 195 0.9456112384796143
151 196 0.21137845516204834
151 198 0.18049871921539307
151 200 0.6231334805488586
151 201 0.9568396806716919
151 202 0.9482836127281189
151 203 0.9484735727310181
151 204 0.17864739894866943
151 205 0.9484735727310181
151 206 0.951074481010437
151 207 0.9482836127281189
151 208 0.10314212739467621
151 209 0.17340368032455444
151 210 0.11972346156835556
151 211 0.9567549824714661
151 212 0.10947974771261215
151 213 0.9472275376319885
151 214 0.13468889892101288
151 215 0.9462361931800842
151 216 0.9379813075065613
151 217 0.9538572430610657
151 218 0.29723188281059265
151 219 0.07867372035980225
151 220 0.05649326741695404
151 221 0.9628652334213257
151 222 0.9111661911010742
151 223 0.08850793540477753
151 224 0.9490321278572083
151 225 0.10947974771261215
151 226 0.9455474615097046
151 227 0.9583413600921631
151 228 0.09263671189546585
151 229 0.08850793540477753
151 230 0.9311122894287109
151 231 0.9507057666778564
151 232 0.19296123087406158
151 233 0.9453613758087158
151 234 0.13046562671661377
151 235 0.9507057666778564
151 236 0.9311740398406982
151 237 0.9578623175621033
151 239 0.23285850882530212
151 240 0.9447401762008667
151 241 0.9560778141021729
151 242 0.9523130059242249
151 243 0.0983421579003334
151 244 0.9428703188896179
151 245 0.9381684064865112
151 246 0.06523280590772629
151 247 0.9433027505874634
151 248 0.9502130150794983
151 249 0.0665779560804367
151 250 0.9604440927505493
151 251 0.22836048901081085
151 252 0.9417456984519958
151 253 0.1729745864868164
151 254 0.949778139591217
151 255 0.956327497959137
152 153 0.9620998501777649
152 154 0.959586501121521
152 155 0.9636806845664978
152 156 0.9582032561302185
152 157 0.9597923159599304
152 159 0.956113338470459
152 160 0.18964003026485443
152 161 0.9526505470275879
152 162 0.9487628936767578
152 163 0.9511404633522034
152 164 0.23226065933704376
152 165 0.9620542526245117
152 166 0.9603360891342163
152 167 0.9505001306533813
152 168 0.11434733867645264
152 169 0.8752095103263855
152 170 0.9641777873039246
152 171 0.9511874914169312
152 172 0.9492706656455994
152 173 0.12703807651996613
152 174 0.8881112933158875
152 175 0.9598363637924194
152 176 0.9461885094642639
152 177 0.9687584638595581
152 178 0.7842979431152344
152 179 0.9630506634712219
152 180 0.9618002772331238
152 181 0.9657576084136963
152 182 0.958536684513092
152 183 0.17152102291584015
152 184 0.9590813517570496
152 185 0.9190884232521057
152 186 0.18007436394691467
152 187 0.061121225357055664
152 188 0.9636362195014954
152 189 0.1836315393447876
152 190 0.956113338470459
152 191 0.9598813652992249
152 192 0.9522843956947327
152 193 0.9704887270927429
152 195 0.9544275999069214
152 196 0.19463054835796356
152 198 0.1738681197166443
152 200 0.636812150478363
152 201 0.9602930545806885
152 202 0.9528800845146179
152 203 0.9572045803070068
152 204 0.17124126851558685
152 205 0.9592922329902649
152 206 0.956659197807312
152 207 0.9560214877128601
152 208 0.07159275561571121
152 209 0.1719464659690857
152 210 0.11871735751628876
152 211 0.9663413166999817
152 212 0.10020898282527924
152 213 0.9570686221122742
152 214 0.11129752546548843
152 215 0.9539749026298523
152 216 0.9470677375793457
152 217 0.9656333923339844
152 218 0.2808642089366913
152 220 0.05601852759718895
152 221 0.9610141515731812
152 222 0.9187124371528625
152 223 0.07801258563995361
152 224 0.9577497839927673
152 225 0.10855972766876221
152 226 0.9533331394195557
152 227 0.9544742703437805
152 228 0.0835074856877327
152 229 0.10726731270551682
152 230 0.9435915350914001
152 231 0.9635500907897949
152 232 0.17493915557861328
152 233 0.9489901065826416
152 234 0.13583771884441376
152 235 0.9593833684921265
152 236 0.9414955973625183
152 237 0.9663854837417603
152 238 0.07231960445642471
152 239 0.2468259334564209
152 240 0.9515538811683655
152 241 0.9636362195014954
152 242 0.9609683752059937
152 243 0.09751573950052261
152 244 0.9517361521720886
152 245 0.9482559561729431
152 247 0.9500894546508789
152 248 0.9599272608757019
152 249 0.0660184696316719
152 250 0.9658451080322266
152 251 0.22644147276878357
152 252 0.9537899494171143
152 253 0.1600862741470337
152 254 0.9543818831443787
152 255 0.967960774898529
153 154 0.9625132083892822
153 155 0.9706035852432251
153 156 0.9621329307556152
153 157 0.9688926339149475
153 159 0.9693982005119324
153 160 0.1982775181531906
153 161 0.9566943049430847
153 162 0.9507818222045898
153 163 0.9645729660987854
153 164 0.2387920618057251
153 165 0.9679757356643677
153 166 0.9632037878036499
153 167 0.9566627740859985
153 168 0.12872140109539032
153 169 0.8807123303413391
153 170 0.9680082201957703
153 171 0.9583419561386108
153 172 0.9502395987510681
153 173 0.14020337164402008
153 174 0.8945422768592834
153 175 0.9689202904701233
153 176 0.9534558653831482
153 177 0.9653420448303223
153 178 0.7891858220100403
153 179 0.9658758640289307
153 180 0.9646825194358826
153 181 0.969572126865387
153 182 0.9614704251289368
153 183 0.170366570353508
153 184 0.9588796496391296
153 185 0.925897479057312
153 186 0.17886234819889069
153 187 0.08499377965927124
153 188 0.9695407152175903
153 189 0.1771842986345291
153 190 0.9652466773986816
153 191 0.9648079872131348
153 192 0.9594172239303589
153 193 0.9711657762527466
153 195 0.9625723958015442
153 196 0.1982775181531906
153 197 0.06424925476312637
153 198 0.187935933470726
153 200 0.6497483253479004
153 201 0.9621329307556152
153 202 0.9610276818275452
153 203 0.9642406702041626
153 204 0.17595383524894714
153 205 0.9652774333953857
153 206 0.9657806158065796
153 207 0.9631078243255615
153 208 0.10158699750900269
153 209 0.1707891821861267
153 210 0.14002801477909088
153 211 0.9721956849098206
153 212 0.12441814690828323
153 213 0.9620677828788757
153 214 0.14002801477909088
153 215 0.9652168154716492
153 216 0.9512275457382202
153 217 0.9663767218589783
153 218 0.27552974224090576
153 219 0.1065453439950943
153 220 0.05564148724079132
153 221 0.96900874376297
153 222 0.9254726767539978
153 223 0.1065453439950943
153 224 0.9647751450538635
153 225 0.12441814690828323
153 226 0.9604588747024536
153 227 0.9605243802070618
153 228 0.12441814690828323
153 229 0.0968594029545784
153 230 0.9414862394332886
153 231 0.9674113988876343
153 232 0.17919175326824188
153 233 0.9561880230903625
153 234 0.15419819951057434
153 235 0.9663767218589783
153 236 0.943640947341919
153 237 0.9732556343078613
153 238 0.07183285802602768
153 239 0.25702744722366333
153 240 0.9556161165237427
153 241 0.9685081243515015
153 242 0.9658758640289307
153 243 0.1065453439950943
153 244 0.9640910029411316
153 245 0.9523739218711853
153 246 0.06424925476312637
153 247 0.958309531211853
153 248 0.9689782857894897
153 249 0.07868894934654236
153 250 0.9737551808357239
153 251 0.18893061578273773
153 252 0.959890604019165
153 253 0.16468767821788788
153 254 0.9583754539489746
153 255 0.9727569222450256
154 155 0.9620169401168823
154 156 0.9522916078567505
154 157 0.9538915157318115
154 159 0.9543891549110413
154 160 0.18532924354076385
154 161 0.9466487765312195
154 162 0.9405779838562012
154 163 0.9493675827980042
154 164 0.2290259301662445
154 165 0.9593324661254883
154 166 0.9544423222541809
154 167 0.9465955495834351
154 168 0.1377219557762146
154 169 0.8749775886535645
154 170 0.9614704251289368
154 171 0.9483667016029358
154 172 0.9442679286003113
154 173 0.1487567126750946
154 174 0.8993597626686096
154 175 0.9612755179405212
154 176 0.9411925077438354
154 177 0.9576875567436218
154 178 0.7717753648757935
154 179 0.9582362174987793
154 180 0.9548366665840149
154 181 0.9620169401168823
154 182 0.9578503370285034
154 183 0.1491987705230713
154 184 0.9541864991188049
154 185 0.9137176871299744
154 186 0.18073728680610657
154 187 0.08588472008705139
154 188 0.9588368535041809
154 189 0.1895734816789627
154 190 0.9533404111862183
154 191 0.9592307209968567
154 192 0.9515795111656189
154 193 0.962614119052887
154 195 0.9526834487915039
154 196 0.20035594701766968
154 198 0.17450818419456482
154 200 0.6502309441566467
154 201 0.9543891549110413
154 202 0.9511330723762512
154 203 0.9544423222541809
154 204 0.17779827117919922
154 205 0.9533945918083191
154 206 0.9528432488441467
154 207 0.9500820636749268
154 208 0.10265187174081802
154 209 0.16701237857341766
154 210 0.11915440112352371
154 211 0.9657360911369324
154 212 0.11734087020158768
154 213 0.9574389457702637
154 214 0.11915440112352371
154 215 0.9532873034477234
154 216 0.9409741163253784
154 217 0.9566420316696167
154 218 0.2575365900993347
154 220 0.056224748492240906
154 221 0.9582886099815369
154 222 0.9166447520256042
154 223 0.08808724582195282
154 224 0.952898383140564
154 225 0.11734087020158768
154 226 0.9484215378761292
154 227 0.9506349563598633
154 228 0.09219640493392944
154 229 0.10766219347715378
154 230 0.9352670907974243
154 231 0.9566420316696167
154 232 0.19204407930374146
154 233 0.9440358877182007
154 234 0.11686094850301743
154 235 0.9555965065956116
154 236 0.9353190660476685
154 237 0.9668242335319519
154 238 0.07258584350347519
154 239 0.24373885989189148
154 240 0.9455379247665405
154 241 0.963010311126709
154 242 0.9624161124229431
154 243 0.06851229816675186
154 244 0.9573460817337036
154 245 0.9421975016593933
154 246 0.0649227499961853
154 247 0.947257936000824
154 248 0.9592812061309814
154 249 0.06626150012016296
154 250 0.9662802815437317
154 251 0.213638573884964
154 252 0.9457038640975952
154 253 0.15493717789649963
154 254 0.9494742751121521
154 255 0.9621725678443909
155 156 0.9626742005348206
155 157 0.9652827382087708
155 159 0.9626742005348206
155 160 0.18331213295459747
155 161 0.9562010765075684
155 162 0.9523917436599731
155 163 0.9630322456359863
155 164 0.24271415174007416
155 165 0.9716067314147949
155 166 0.9668523073196411
155 167 0.9551233649253845
155 168 0.1059512048959732
155 169 0.8757032155990601
155 170 0.969572126865387
155 171 0.9599323868751526
155 172 0.9529014825820923
155 173 0.14013108611106873
155 174 0.8895711898803711
155 175 0.9684207439422607
155 176 0.956109344959259
155 177 0.9700150489807129
155 178 0.7938595414161682
155 179 0.9695122838020325
155 180 0.9631461501121521
155 181 0.9721649289131165
155 182 0.9599323868751526
155 183 0.17027872800827026
155 184 0.9604688286781311
155 185 0.922173023223877
155 186 0.17300336062908173
155 187 0.08494995534420013
155 188 0.9731687307357788
155 189 0.19792740046977997
155 190 0.9637115597724915
155 191 0.9653451442718506
155 192 0.963087260723114
155 193 0.9737530946731567
155 195 0.9641562104225159
155 196 0.19322088360786438
155 198 0.20306923985481262
155 200 0.6415890455245972
155 201 0.9647489786148071
155 202 0.9646902680397034
155 203 0.9637435078620911
155 204 0.17000101506710052
155 205 0.965816080570221
155 206 0.9642459154129028
155 207 0.9646902680397034
155 208 0.0710742324590683
155 209 0.17070111632347107
155 210 0.11785752326250076
155 211 0.9737530946731567
155 212 0.12435399740934372
155 213 0.9667693972587585
155 214 0.11785752326250076
155 215 0.962642252445221
155 216 0.9507369995117188
155 217 0.9689809083938599
155 218 0.285714715719223
155 219 0.10649040341377258
155 220 0.055612798780202866
155 221 0.9695417284965515
155 222 0.932542085647583
155 223 0.10649040341377258
155 224 0.967384934425354
155 225 0.11606372892856598
155 226 0.963087260723114
155 227 0.9610681533813477
155 228 0.10777346044778824
155 229 0.09680946171283722
155 230 0.9441834688186646
155 231 0.9689809083938599
155 232 0.18452663719654083
155 233 0.9556950330734253
155 234 0.15411870181560516
155 235 0.9679467678070068
155 236 0.9452738761901855
155 237 0.9727538824081421
155 238 0.07179581373929977
155 239 0.26084715127944946
155 240 0.9614001512527466
155 241 0.9721367359161377
155 242 0.9674450755119324
155 243 0.10649040341377258
155 244 0.9625522494316101
155 245 0.9518828988075256
155 247 0.9567720293998718
155 248 0.9715794920921326
155 249 0.07864838093519211
155 250 0.973253071308136
155 251 0.21580936014652252
155 252 0.96043860912323
155 253 0.1759546846151352
155 254 0.9641284346580505
155 255 0.976366400718689
156 157 0.9567033052444458
156 159 0.9603340029716492
156 160 0.19941259920597076
156 161 0.9548103213310242
156 162 0.9488286375999451
156 163 0.9522468447685242
156 164 0.2401590645313263
156 165 0.9662443399429321
156 166 0.9593331217765808
156 167 0.9484546780586243
156 168 0.13707350194454193
156 169 0.8846081495285034
156 170 0.9662845730781555
156 171 0.9585843086242676
156 172 0.9461649060249329
156 173 0.1269053965806961
156 174 0.8792421817779541
156 175 0.96196049451828
156 176 0.9504747986793518
156 177 0.9604625105857849
156 178 0.7911474704742432
156 179 0.9651650190353394
156 180 0.9566138386726379
156 181 0.9626742005348206
156 182 0.9533404111862183
156 183 0.16563047468662262
156 184 0.9538868069648743
156 185 0.919217586517334
156 186 0.15667515993118286
156 187 0.06105739250779152
156 188 0.961591362953186
156 189 0.17819862067699432
156 190 0.9613778591156006
156 191 0.9588788151741028
156 192 0.9565281867980957
156 193 0.9663678407669067
156 195 0.9555239081382751
156 196 0.20938321948051453
156 197 0.06461706012487411
156 198 0.1787949651479721
156 200 0.6377217769622803
156 201 0.9603340029716492
156 202 0.9550230503082275
156 203 0.9582903981208801
156 204 0.15926501154899597
156 205 0.9624614119529724
156 206 0.9598332047462463
156 207 0.9560690522193909
156 208 0.10216855257749557
156 209 0.18284861743450165
156 210 0.14082962274551392
156 211 0.9663678407669067
156 212 0.11678838729858398
156 213 0.9550230503082275
156 214 0.133417546749115
156 215 0.9592481255531311
156 216 0.9481974840164185
156 217 0.9604625105857849
156 218 0.2978900969028473
156 219 0.10715528577566147
156 221 0.9631273746490479
156 222 0.9177529215812683
156 223 0.10715528577566147
156 224 0.9598761200904846
156 225 0.10844635218381882
156 226 0.9554805159568787
156 227 0.9607957601547241
156 228 0.11678838729858398
156 229 0.09741389006376266
156 230 0.9372684359550476
156 231 0.9604625105857849
156 232 0.17475645244121552
156 233 0.9553560018539429
156 234 0.14861926436424255
156 235 0.9604625105857849
156 236 0.9437113404273987
156 237 0.9674456119537354
156 238 0.0722440779209137
156 239 0.21872980892658234
156 240 0.9526653289794922
156 241 0.9626297950744629
156 242 0.9630849361419678
156 243 0.10715528577566147
156 244 0.9528385400772095
156 245 0.9462094902992249
156 246 0.06461706012487411
156 247 0.9532967209815979
156 248 0.962044894695282
156 249 0.07913941890001297
156 250 0.9648363590240479
156 251 0.22620496153831482
156 252 0.9517444968223572
156 253 0.1827646642923355
156 254 0.9565281867980957
156 255 0.9659156203269958
157 159 0.9577466249465942
157 160 0.1893431693315506
157 161 0.9511592984199524
157 162 0.9504458904266357
157 163 0.9538488984107971
157 164 0.24817056953907013
157 165 0.9626251459121704
157 166 0.9577906131744385
157 167 0.9490122199058533
157 168 0.11416833847761154
157 169 0.8795658349990845
157 170 0.9668179750442505
157 171 0.9549397826194763
157 172 0.9520111680030823
157 173 0.09865272045135498
157 174 0.8844531774520874
157 175 0.9614588618278503
157 176 0.9478704333305359
157 177 0.9610016942024231
157 178 0.7843477129936218
157 179 0.9615431427955627
157 180 0.9634295105934143
157 181 0.9642459154129028
157 182 0.961229145526886
157 183 0.1484188437461853
157 184 0.9565324187278748
157 185 0.9187383055686951
157 186 0.16819296777248383
157 187 0.08543576300144196
157 188 0.9631656408309937
157 189 0.17810571193695068
157 190 0.9650497436523438
157 191 0.9635816812515259
157 192 0.9549822211265564
157 193 0.9689695239067078
157 195 0.9560716152191162
157 196 0.169412299990654
157 198 0.1991247832775116
157 200 0.6389629244804382
157 201 0.9608765244483948
157 202 0.9566159248352051
157 203 0.9598750472068787
157 204 0.15328632295131683
157 205 0.9577906131744385
157 206 0.9593325853347778
157 207 0.9607978463172913
157 208 0.07148069143295288
157 209 0.1772153079509735
157 210 0.14075618982315063
157 211 0.9689695239067078
157 212 0.08337676525115967
157 213 0.9576614499092102
157 214 0.14075618982315063
157 215 0.9597923159599304
157 216 0.9434674382209778
157 217 0.9630818367004395
157 218 0.25965240597724915
157 219 0.10709939897060394
157 220 0.055930834263563156
157 221 0.9615867137908936
157 222 0.9194428324699402
157 223 0.09736309200525284
157 224 0.9614588618278503
157 225 0.1250651478767395
157 226 0.9539351463317871
157 227 0.9550700187683105
157 228 0.1000521183013916
157 229 0.10709939897060394
157 230 0.9367796182632446
157 231 0.9630818367004395
157 232 0.19104017317295074
157 233 0.9580090641975403
157 234 0.14208340644836426
157 235 0.9672420024871826
157 236 0.9432191848754883
157 237 0.9679751992225647
157 238 0.07220640033483505
157 239 0.2504144012928009
157 240 0.9532206058502197
157 241 0.9631656408309937
157 242 0.9646616578102112
157 243 0.09736309200525284
157 244 0.9533893465995789
157 245 0.9467715620994568
157 246 0.06458336859941483
157 247 0.9559475779533386
157 248 0.965701162815094
157 249 0.06591512262821198
157 250 0.9684720039367676
157 251 0.19895656406879425
157 252 0.9575408697128296
157 253 0.17696093022823334
157 254 0.9591707587242126
157 255 0.9705801010131836
159 160 0.20439790189266205
159 161 0.9579650163650513
159 162 0.9488286375999451
159 163 0.9543465971946716
159 164 0.24830004572868347
159 165 0.9662443399429321
159 166 0.960375964641571
159 167 0.9526653289794922
159 168 0.13707350194454193
159 169 0.8811706304550171
159 170 0.9652466773986816
159 171 0.9564867615699768
159 172 0.9472220540046692
159 173 0.10575448721647263
159 174 0.8962597250938416
159 175 0.9598761200904846
159 176 0.9536395072937012
159 177 0.9615030884742737
159 178 0.7796444892883301
159 179 0.9599647521972656
159 180 0.9628867506980896
159 181 0.9637115597724915
159 182 0.9596330523490906
159 183 0.14278489351272583
159 184 0.9559832811355591
159 185 0.9159502387046814
159 186 0.15667515993118286
159 187 0.06105739250779152
159 188 0.961591362953186
159 189 0.15199294686317444
159 190 0.9603340029716492
159 191 0.9599199295043945
159 192 0.9544328451156616
159 193 0.9653320908546448
159 195 0.9555239081382751
159 196 0.18445664644241333
159 197 0.06461706012487411
159 198 0.19412025809288025
159 200 0.636147141456604
159 201 0.9572024941444397
159 202 0.9581611156463623
159 203 0.9593331217765808
159 204 0.17696112394332886
159 205 0.9572476744651794
159 206 0.9640063643455505
159 207 0.9602531790733337
159 208 0.09195169806480408
159 209 0.16068516671657562
159 210 0.133417546749115
159 211 0.9663678407669067
159 212 0.09176230430603027
159 213 0.9550230503082275
159 214 0.14082962274551392
159 215 0.9592481255531311
159 216 0.9460786581039429
159 217 0.9687872529029846
159 218 0.29096242785453796
159 219 0.10715528577566147
159 221 0.9662443399429321
159 222 0.9188377857208252
159 223 0.09741389006376266
159 224 0.9650871753692627
159 225 0.10844635218381882
159 226 0.9596711993217468
159 227 0.9597502946853638
159 228 0.12513041496276855
159 229 0.09741389006376266
159 230 0.9426059722900391
159 231 0.9594219326972961
159 232 0.1474507451057434
159 233 0.9501010179519653
159 234 0.15508095920085907
159 235 0.9656654596328735
159 236 0.9373133182525635
159 237 0.9715844392776489
159 238 0.0722440779209137
159 239 0.22270672023296356
159 240 0.9484546780586243
159 241 0.9626297950744629
159 242 0.9610047936439514
159 243 0.09741389006376266
159 244 0.9570314884185791
159 245 0.9451534748077393
159 246 0.06461706012487411
159 247 0.9543465971946716
159 248 0.9630849361419678
159 249 0.06594952195882797
159 250 0.9669067859649658
159 251 0.208108589053154
159 252 0.9538431167602539
159 253 0.15991908311843872
159 254 0.9544328451156616
159 255 0.9721207022666931
160 161 0.21093015372753143
160 162 0.18671157956123352
160 163 0.16546809673309326
160 165 0.1984824538230896
160 166 0.16932405531406403
160 167 0.19607150554656982
160 168 0.07273929566144943
160 169 0.19154015183448792
160 170 0.18340669572353363
160 171 0.20536483824253082
160 172 0.19690942764282227
160 174 0.1679680198431015
160 175 0.19412356615066528
160 176 0.19145096838474274
160 177 0.1838817149400711
160 178 0.13429121673107147
160 179 0.1887536197900772
160 180 0.1947324126958847
160 181 0.18826651573181152
160 182 0.18532924354076385
160 184 0.20025047659873962
160 185 0.1976594626903534
160 188 0.16366341710090637
160 190 0.20439790189266205
160 191 0.20883893966674805
160 192 0.18013064563274384
160 193 0.17808257043361664
160 194 0.15430334210395813
160 195 0.17494314908981323
160 197 0.231454998254776
160 200 0.08272314071655273
160 201 0.1944272667169571
160 202 0.2048259675502777
160 203 0.2041848748922348
160 204 0.08451542258262634
160 205 0.18924452364444733
160 206 0.1993086040019989
160 207 0.19983021914958954
160 208 0.14638501405715942
160 209 0.1323140263557434
160 210 0.07079923152923584
160 211 0.19786952435970306
160 213 0.189838707447052
160 214 0.10619883984327316
160 215 0.1996210813522339
160 216 0.20239225029945374
160 217 0.1888515055179596
160 218 0.28123193979263306
160 221 0.20344451069831848
160 222 0.1398869752883911
160 223 0.09304841607809067
160 224 0.19910110533237457
160 225 0.07968190312385559
160 226 0.18013064563274384
160 227 0.20971184968948364
160 228 0.35856857895851135
160 229 0.09304841607809067
160 230 0.19883470237255096
160 231 0.17394216358661652
160 233 0.21081851422786713
160 234 0.06172134354710579
160 235 0.178911954164505
160 236 0.16296862065792084
160 237 0.182841494679451
160 240 0.18601655960083008
160 241 0.17854191362857819
160 242 0.18378642201423645
160 244 0.1802254170179367
160 245 0.19165538251399994
160 246 0.07715167105197906
160 247 0.20558159053325653
160 248 0.1788192242383957
160 249 0.1259881556034088
160 250 0.1779911369085312
160 251 0.06482037156820297
160 252 0.18041543662548065
160 253 0.10910893976688385
160 254 0.19013790786266327
160 255 0.18768692016601562
161 162 0.942001223564148
161 163 0.9423596858978271
161 164 0.25013449788093567
161 165 0.9566364884376526
161 166 0.9527647495269775
161 167 0.9416760802268982
161 168 0.13041473925113678
161 169 0.8807547092437744
161 170 0.9577398896217346
161 171 0.9487618803977966
161 172 0.9510252475738525
161 173 0.127842977643013
161 174 0.881166398525238
161 175 0.9543687701225281
161 176 0.9447444677352905
161 177 0.9528825283050537
161 178 0.7763917446136475
161 179 0.9534364342689514
161 180 0.95420241355896
161 181 0.9562010765075684
161 182 0.9519314169883728
161 183 0.13233260810375214
161 184 0.9493183493614197
161 185 0.9095513224601746
161 186 0.15783266723155975
161 187 0.0738101676106453
161 188 0.9540500640869141
161 189 0.17951515316963196
161 190 0.9527071714401245
161 191 0.9512795805931091
161 192 0.9456528425216675
161 193 0.9578561186790466
161 195 0.9467686414718628
161 196 0.1807972639799118
161 197 0.06509445607662201
161 198 0.185262069106102
161 200 0.6202256083488464
161 201 0.9537587761878967
161 202 0.9462723731994629
161 203 0.9517142176628113
161 204 0.17826850712299347
161 205 0.9506637454032898
161 206 0.9532613754272461
161 207 0.9494335651397705
161 208 0.08233869820833206
161 209 0.1897813230752945
161 210 0.13440322875976562
161 211 0.962029755115509
161 212 0.11765120923519135
161 213 0.9504873752593994
161 214 0.14187008142471313
161 215 0.9494926333427429
161 216 0.9402610063552856
161 217 0.9539307951927185
161 218 0.28962260484695435
161 219 0.09813358634710312
161 220 0.05637345090508461
161 221 0.9545432329177856
161 222 0.9092336297035217
161 223 0.06869351118803024
161 224 0.9606682062149048
161 225 0.10924755036830902
161 226 0.9467082619667053
161 227 0.948936402797699
161 228 0.10924755036830902
161 229 0.10794694721698761
161 230 0.9291375279426575
161 231 0.9528825283050537
161 232 0.12653417885303497
161 233 0.9444151520729065
161 234 0.16273613274097443
161 235 0.9560273289680481
161 236 0.9324217438697815
161 237 0.960000216960907
161 238 0.07277781516313553
161 239 0.23236463963985443
161 240 0.9448574185371399
161 241 0.9540500640869141
161 242 0.954484224319458
161 243 0.10794694721698761
161 244 0.9493183493614197
161 245 0.9383063316345215
161 246 0.06509445607662201
161 247 0.944474995136261
161 248 0.9534364342689514
161 249 0.053149402141571045
161 250 0.9584071040153503
161 251 0.2187611162662506
161 252 0.9534904956817627
161 253 0.1668541580438614
161 254 0.9467082619667053
161 255 0.9636755585670471
162 163 0.9426333904266357
162 164 0.24309496581554413
162 165 0.9496612548828125
162 166 0.9488952159881592
162 167 0.9398040175437927
162 168 0.10791601985692978
162 169 0.8617860078811646
162 170 0.954984188079834
162 171 0.9448243975639343
162 172 0.9352595806121826
162 173 0.09277433902025223
162 174 0.8704683184623718
162 175 0.9494563341140747
162 176 0.9364667534828186
162 177 0.9500844478607178
162 178 0.7865880727767944
162 179 0.949592113494873
162 180 0.9503178000450134
162 181 0.9555418491363525
162 182 0.948009192943573
162 183 0.16765525937080383
162 184 0.940082848072052
162 185 0.9073036909103394
162 186 0.13509559631347656
162 187 0.061803802847862244
162 188 0.9523239135742188
162 189 0.15915623307228088
162 190 0.9467153549194336
162 191 0.9505776762962341
162 192 0.9417094588279724
162 193 0.9551160931587219
162 195 0.9481363296508789
162 196 0.1816653311252594
162 198 0.2068350911140442
162 200 0.6184218525886536
162 201 0.9467153549194336
162 202 0.942345142364502
162 203 0.9488952159881592
162 204 0.1612119823694229
162 205 0.9488952159881592
162 206 0.9472777247428894
162 207 0.9465804100036621
162 208 0.07239227741956711
162 209 0.15704089403152466
162 210 0.12754584848880768
162 211 0.9540676474571228
162 212 0.09288407117128372
162 213 0.9476392269134521
162 214 0.10503774881362915
162 215 0.9445320963859558
162 216 0.9319067597389221
162 217 0.9564043283462524
162 218 0.2804946303367615
162 219 0.10846523195505142
162 220 0.05664411932229996
162 221 0.9507129192352295
162 222 0.9081087708473206
162 223 0.09860475361347198
162 224 0.9526212215423584
162 225 0.09288407117128372
162 226 0.9438303709030151
162 227 0.9492594599723816
162 228 0.09288407117128372
162 229 0.09860475361347198
162 230 0.9260347485542297
162 231 0.9500844478607178
162 232 0.132669597864151
162 233 0.9415026903152466
162 234 0.15697677433490753
162 235 0.9511377811431885
162 236 0.9239460825920105
162 237 0.956230640411377
162 238 0.07312723994255066
162 239 0.2536078989505768
162 240 0.9430006742477417
162 241 0.9502216577529907
162 242 0.950644850730896
162 243 0.08874428272247314
162 244 0.9453880190849304
162 245 0.9353288412094116
162 247 0.9405079483985901
162 248 0.950644850730896
162 249 0.08010687679052353
162 250 0.9556735754013062
162 251 0.21981145441532135
162 252 0.9421360492706299
162 253 0.15031160414218903
162 254 0.9406489133834839
162 255 0.9599279165267944
163 164 0.20879732072353363
163 165 0.96138995885849
163 166 0.956498384475708
163 167 0.9507709741592407
163 168 0.11488941311836243
163 169 0.8678335547447205
163 170 0.9572656154632568
163 171 0.947257936000824
163 172 0.9367581605911255
163 173 0.14182257652282715
163 174 0.8740642070770264
163 175 0.9549524188041687
163 176 0.9421858787536621
163 177 0.9555584788322449
163 178 0.7803030610084534
163 179 0.9592475891113281
163 180 0.9495352506637573
163 181 0.9619889259338379
163 182 0.947257936000824
163 183 0.17233411967754364
163 184 0.9530850052833557
163 185 0.9146820306777954
163 186 0.18092802166938782
163 187 0.08597537130117416
163 188 0.9619377851486206
163 189 0.20031654834747314
163 190 0.9522468447685242
163 191 0.9550073146820068
163 192 0.9483688473701477
163 193 0.9625882506370544
163 195 0.95368891954422
163 196 0.18051066994667053
163 198 0.19010639190673828
163 200 0.6366636157035828
163 201 0.9532967209815979
163 202 0.953188955783844
163 203 0.9533520340919495
163 204 0.16612018644809723
163 205 0.9523032307624817
163 206 0.9527995586395264
163 207 0.953188955783844
163 208 0.09248419106006622
163 209 0.15046977996826172
163 210 0.14164519309997559
163 211 0.9584212303161621
163 212 0.12585505843162537
163 213 0.9500327110290527
163 214 0.11928015947341919
163 215 0.9511404633522034
163 216 0.9387705326080322
163 217 0.9597449898719788
163 218 0.2682601511478424
163 219 0.0685846135020256
163 220 0.056284088641405106
163 221 0.9561650156974792
163 222 0.9241588711738586
163 223 0.08818021416664124
163 224 0.9570488929748535
163 225 0.12585505843162537
163 226 0.9546912908554077
163 227 0.9484837055206299
163 228 0.10907437652349472
163 229 0.09797801822423935
163 230 0.9341067671775818
163 231 0.956605076789856
163 232 0.18126124143600464
163 233 0.942918062210083
163 234 0.13648167252540588
163 235 0.9555584788322449
163 236 0.9373787045478821
163 237 0.9647225737571716
163 238 0.07266244292259216
163 239 0.2639957666397095
163 240 0.9465359449386597
163 241 0.9577599763870239
163 242 0.9540172219276428
163 243 0.09797801822423935
163 244 0.9499220848083496
163 245 0.9431918859481812
163 247 0.9450897574424744
163 248 0.956109344959259
163 249 0.06633143872022629
163 250 0.965217649936676
163 251 0.18201196193695068
163 252 0.9456465244293213
163 253 0.16084517538547516
163 254 0.9483688473701477
163 255 0.9631880521774292
164 165 0.2511933743953705
164 166 0.2358425110578537
164 167 0.2339802235364914
164 169 0.20107528567314148
164 170 0.24283936619758606
164 171 0.24538491666316986
164 172 0.2555924355983734
164 174 0.24332234263420105
164 175 0.2438480406999588
164 176 0.24681955575942993
164 177 0.23941053450107574
164 178 0.1844085305929184
164 179 0.2271193265914917
164 180 0.24868975579738617
164 181 0.2508046329021454
164 182 0.24538491666316986
164 183 0.06681530922651291
164 184 0.2289053499698639
164 185 0.25057652592658997
164 188 0.24701419472694397
164 189 0.08175191283226013
164 190 0.2360885590314865
164 191 0.23953479528427124
164 192 0.2573830783367157
164 193 0.24637870490550995
164 195 0.2448693960905075
164 197 0.18898223340511322
164 198 0.19920477271080017
164 200 0.12280574440956116
164 201 0.22794757783412933
164 202 0.23658299446105957
164 203 0.24397501349449158
164 205 0.2480412721633911
164 206 0.25630730390548706
164 207 0.24882005155086517
164 209 0.12964074313640594
164 210 0.08671098947525024
164 211 0.24233970046043396
164 213 0.2080298811197281
164 214 0.08671098947525024
164 215 0.23226065933704376
164 216 0.2106970250606537
164 217 0.2312949150800705
164 219 0.22792114317417145
164 221 0.23498734831809998
164 222 0.22420422732830048
164 223 0.18993429839611053
164 224 0.25604042410850525
164 226 0.24104131758213043
164 227 0.2568435072898865
164 228 0.09759000688791275
164 230 0.2206265926361084
164 231 0.25158393383026123
164 233 0.254100501537323
164 234 0.10079053044319153
164 235 0.25564172863960266
164 236 0.20375321805477142
164 237 0.24209101498126984
164 239 0.06203228607773781
164 240 0.2339802235364914
164 241 0.24296477437019348
164 242 0.23928643763065338
164 243 0.07597371935844421
164 244 0.2329929620027542
164 245 0.24296505749225616
164 247 0.23336172103881836
164 248 0.25145354866981506
164 249 0.10286890715360641
164 250 0.24625219404697418
164 251 0.07056748867034912
164 252 0.2577899992465973
164 253 0.11135885119438171
164 254 0.24104131758213043
164 255 0.25406530499458313
165 166 0.9631614685058594
165 167 0.9555560350418091
165 168 0.13643412292003632
165 169 0.8782010078430176
165 170 0.9700418710708618
165 171 0.9603763222694397
165 172 0.9501694440841675
165 173 0.14034828543663025
165 174 0.89207923412323
165 175 0.9647349715232849
165 176 0.9544413089752197
165 177 0.9653041362762451
165 178 0.7810964584350586
165 179 0.9668741822242737
165 180 0.9615171551704407
165 181 0.9705742001533508
165 182 0.9603763222694397
165 183 0.1591731458902359
165 184 0.9598708152770996
165 185 0.920350193977356
165 186 0.1732715219259262
165 187 0.07292710244655609
165 188 0.966408371925354
165 189 0.19301749765872955
165 190 0.961049497127533
165 191 0.9637326002120972
165 192 0.9604088068008423
165 193 0.9711386561393738
165 195 0.9604421854019165
165 196 0.20840658247470856
165 197 0.06431566923856735
165 198 0.1932147890329361
165 200 0.6472852826118469
165 201 0.9631273746490479
165 202 0.9609798192977905
165 203 0.9631614685058594
165 204 0.16439330577850342
165 205 0.9621236324310303
165 206 0.9688557386398315
165 207 0.9630621671676636
165 208 0.10169199109077454
165 209 0.17096570134162903
165 210 0.14017273485660553
165 211 0.9711386561393738
165 212 0.12454674392938614
165 213 0.9609798192977905
165 214 0.13279521465301514
165 215 0.9651743769645691
165 216 0.9501016139984131
165 217 0.9642683863639832
165 218 0.29305288195610046
165 219 0.09695951640605927
165 221 0.9679420590400696
165 222 0.9285887479782104
165 223 0.10665546357631683
165 224 0.9678469896316528
165 225 0.10794050991535187
165 226 0.9614515900611877
165 227 0.9635984301567078
165 228 0.1162436306476593
165 229 0.0872635617852211
165 230 0.9424593448638916
165 231 0.9642683863639832
165 232 0.18481262028217316
165 233 0.9561302065849304
165 234 0.1607891470193863
165 235 0.9653041362762451
165 236 0.9403707981109619
165 237 0.9722018837928772
165 238 0.07190710306167603
165 239 0.24541804194450378
165 240 0.9545083045959473
165 241 0.9684755206108093
165 242 0.9658389687538147
165 243 0.09695951640605927
165 244 0.9588274359703064
165 245 0.9491537809371948
165 246 0.06431566923856735
165 247 0.9551200270652771
165 248 0.9679093956947327
165 249 0.06564190238714218
165 250 0.9696096181869507
165 251 0.22514984011650085
165 252 0.9567050337791443
165 253 0.1534883975982666
165 254 0.9583232402801514
165 255 0.9717037081718445
166 167 0.9537757039070129
166 168 0.12171611934900284
166 169 0.8836862444877625
166 170 0.9663142561912537
166 171 0.9533945918083191
166 172 0.9451788067817688
166 173 0.14085903763771057
166 174 0.8794591426849365
166 175 0.9609580039978027
166 176 0.9536994695663452
166 177 0.9646590352058411
166 178 0.786492645740509
166 179 0.962081253528595
166 180 0.9566612839698792
166 181 0.9668523073196411
166 182 0.9533945918083191
166 183 0.176868736743927
166 184 0.9549869298934937
166 185 0.9160836935043335
166 186 0.17969882488250732
166 187 0.08539125323295593
166 188 0.968887984752655
166 189 0.18848426640033722
166 190 0.9582903981208801
166 191 0.960999608039856
166 192 0.9555312395095825
166 193 0.966395378112793
166 195 0.9566190242767334
166 196 0.2041848748922348
166 198 0.18881481885910034
166 200 0.6354840993881226
166 201 0.9582903981208801
166 202 0.9550725817680359
166 203 0.9604166746139526
166 204 0.1767767071723938
166 205 0.9604166746139526
166 206 0.9609172344207764
166 207 0.9592523574829102
166 208 0.07144344598054886
166 209 0.18265806138515472
166 210 0.11106541752815247
166 211 0.9674301147460938
166 212 0.125
166 213 0.9602972865104675
166 214 0.12587414681911469
166 215 0.9592922329902649
166 216 0.9461508989334106
166 217 0.9656984806060791
166 218 0.2871989607810974
166 219 0.10704360902309418
166 220 0.055901702493429184
166 221 0.9641993641853333
166 222 0.9243823289871216
166 223 0.08758113533258438
166 224 0.9651225209236145
166 225 0.11666666716337204
166 226 0.9639039635658264
166 227 0.95561683177948
166 228 0.09166666865348816
166 229 0.10704360902309418
166 230 0.9426900744438171
166 231 0.9615405201911926
166 232 0.17457431554794312
166 233 0.9533103704452515
166 234 0.1549193263053894
166 235 0.9667380452156067
166 236 0.941662609577179
166 237 0.9705718755722046
166 238 0.07216878235340118
166 239 0.2502839267253876
166 240 0.9548272490501404
166 241 0.9657759666442871
166 242 0.9641591310501099
166 243 0.10704360902309418
166 244 0.9570811986923218
166 245 0.9526079893112183
166 247 0.9523032307624817
166 248 0.962081253528595
166 249 0.07905694842338562
166 250 0.9679675102233887
166 251 0.22596922516822815
166 252 0.9591383934020996
166 253 0.14263607561588287
166 254 0.9565778374671936
166 255 0.971107542514801
167 168 0.13823270797729492
167 169 0.863200306892395
167 170 0.9556161165237427
167 171 0.944480299949646
167 172 0.9360426068305969
167 173 0.14219845831394196
167 174 0.8855336904525757
167 175 0.9501261711120605
167 176 0.9414914846420288
167 177 0.9538935422897339
167 178 0.7823711633682251
167 179 0.9533991813659668
167 180 0.9488889575004578
167 181 0.9572156071662903
167 182 0.9455379247665405
167 183 0.17279088497161865
167 184 0.9471543431282043
167 185 0.9083196520805359
167 186 0.18140757083892822
167 187 0.08620323240756989
167 188 0.9561095833778381
167 189 0.1955619752407074
167 190 0.9505600333213806
167 191 0.9522888660430908
167 192 0.9455997347831726
167 193 0.959916889667511
167 195 0.9519949555397034
167 196 0.20612645149230957
167 198 0.19061025977134705
167 200 0.6240595579147339
167 201 0.9484546780586243
167 202 0.9546604752540588
167 203 0.9495694041252136
167 204 0.17845766246318817
167 205 0.9485178589820862
167 206 0.9511163830757141
167 207 0.9483312368392944
167 208 0.10303258150815964
167 209 0.1732195019721985
167 210 0.1420205980539322
167 211 0.9567833542823792
167 212 0.10095089673995972
167 213 0.9483312368392944
167 214 0.1420205980539322
167 215 0.9473387598991394
167 216 0.9369850754737854
167 217 0.9559923410415649
167 218 0.2864367663860321
167 219 0.08841393142938614
167 220 0.05643326789140701
167 221 0.9534605145454407
167 222 0.9167623519897461
167 223 0.07859016209840775
167 224 0.9490751624107361
167 225 0.1177760437130928
167 226 0.944543182849884
167 227 0.9488889575004578
167 228 0.1177760437130928
167 229 0.10806147754192352
167 230 0.9387356638908386
167 231 0.9517947435379028
167 232 0.17072701454162598
167 233 0.9432974457740784
167 234 0.13684339821338654
167 235 0.9549428820610046
167 236 0.9269589185714722
167 237 0.9589318633079529
167 238 0.07285503298044205
167 239 0.25266385078430176
167 240 0.9394904971122742
167 241 0.9634400606155396
167 242 0.9544479846954346
167 243 0.09823770821094513
167 244 0.9492685794830322
167 245 0.9382369518280029
167 246 0.0651635229587555
167 247 0.9444183707237244
167 248 0.9523503184318542
167 249 0.07980868965387344
167 250 0.9583799839019775
167 251 0.1824943721294403
167 252 0.9449783563613892
167 253 0.1670311838388443
167 254 0.9466562271118164
167 255 0.9605263471603394
168 169 0.12539246678352356
168 170 0.12114956229925156
168 171 0.12241950631141663
168 172 0.1311110407114029
168 173 0.15430334210395813
168 174 0.14070263504981995
168 175 0.12925608456134796
168 176 0.12313522398471832
168 177 0.1214633360505104
168 178 0.1212150827050209
168 179 0.13657543063163757
168 180 0.1372886300086975
168 181 0.1059512048959732
168 182 0.12241950631141663
168 183 0.0833333283662796
168 184 0.11470786482095718
168 185 0.1430193930864334
168 188 0.0833333283662796
168 190 0.13707350194454193
168 191 0.13671718537807465
168 192 0.13757704198360443
168 193 0.12090028077363968
168 195 0.12979745864868164
168 196 0.10910893231630325
168 200 0.08041197806596756
168 201 0.12184310704469681
168 202 0.12972941994667053
168 203 0.12932337820529938
168 205 0.12932337820529938
168 206 0.13700200617313385
168 207 0.1068359911441803
168 208 0.2981424033641815
168 210 0.05407380685210228
168 211 0.13601282238960266
168 213 0.12972941994667053
168 214 0.10814761370420456
168 215 0.12197049707174301
168 216 0.12366370111703873
168 217 0.11387187987565994
168 218 0.05053986981511116
168 221 0.13643412292003632
168 222 0.11871160566806793
168 224 0.11404947936534882
168 225 0.06085805967450142
168 226 0.1222907081246376
168 227 0.1296614706516266
168 228 0.18257416784763336
168 230 0.11681732535362244
168 231 0.11387187987565994
168 232 0.11952286213636398
168 233 0.1380131095647812
168 235 0.12905479967594147
168 236 0.10891067236661911
168 237 0.1283247321844101
168 240 0.0844755470752716
168 241 0.12878787517547607
168 242 0.13657543063163757
168 244 0.13764944672584534
168 245 0.13097088038921356
168 246 0.2357022613286972
168 247 0.1378673017024994
168 248 0.10622533410787582
168 250 0.12083819508552551
168 251 0.1980295032262802
168 252 0.0995182916522026
168 254 0.1222907081246376
168 255 0.09053574502468109
169 170 0.8898270130157471
169 171 0.8807339668273926
169 172 0.8726916909217834
169 173 0.12383025139570236
169 174 0.8369033336639404
169 175 0.8797942399978638
169 176 0.877777099609375
169 177 0.8795664310455322
169 178 0.7393951416015625
169 179 0.8791106343269348
169 180 0.8722246289253235
169 181 0.8745644092559814
169 182 0.8784313797950745
169 183 0.11912284046411514
169 184 0.8699142336845398
169 185 0.8428770899772644
169 186 0.09554915875196457
169 188 0.876607358455658
169 189 0.1380816251039505
169 190 0.8868999481201172
169 191 0.8708798885345459
169 192 0.8694567680358887
169 193 0.877763032913208
169 195 0.8708416223526001
169 196 0.20248529314994812
169 198 0.10093899071216583
169 200 0.6084403991699219
169 201 0.8846081495285034
169 202 0.8657920360565186
169 203 0.8745289444923401
169 204 0.15540573000907898
169 205 0.8768182396888733
169 206 0.881856381893158
169 207 0.8703851103782654
169 209 0.15206068754196167
169 210 0.08136537671089172
169 211 0.889133095741272
169 212 0.12820318341255188
169 213 0.8841643333435059
169 214 0.11391152441501617
169 215 0.8671801090240479
169 216 0.8675885200500488
169 217 0.8841356039047241
169 218 0.2775745689868927
169 219 0.0641610324382782
169 221 0.880482017993927
169 222 0.8228727579116821
169 224 0.8809382915496826
169 225 0.09157370775938034
169 226 0.8717568516731262
169 227 0.8676339983940125
169 228 0.054944224655628204
169 229 0.0748545378446579
169 230 0.8507565855979919
169 231 0.8738549947738647
169 232 0.16186247766017914
169 233 0.8652902245521545
169 234 0.09930577129125595
169 235 0.8738549947738647
169 236 0.87324059009552
169 237 0.8848131895065308
169 238 0.07930516451597214
169 239 0.1527961790561676
169 240 0.874755859375
169 241 0.8777472972869873
169 242 0.8882442712783813
169 243 0.0855480432510376
169 244 0.8722155690193176
169 245 0.8601663112640381
169 246 0.053199514746665955
169 247 0.8724435567855835
169 248 0.877968966960907
169 250 0.8818580508232117
169 251 0.18871870636940002
169 252 0.8811984062194824
169 253 0.15674057602882385
169 254 0.8671565651893616
169 255 0.8798187971115112
170 171 0.9625132083892822
170 172 0.9523418545722961
170 173 0.10515252500772476
170 174 0.8945422768592834
170 175 0.9647751450538635
170 176 0.9545047283172607
170 177 0.9715501070022583
170 178 0.7739357948303223
170 179 0.9658758640289307
170 180 0.9626034498214722
170 181 0.9706035852432251
170 182 0.9614704251289368
170 183 0.170366570353508
170 184 0.9640910029411316
170 185 0.9248145222663879
170 186 0.16732284426689148
170 188 0.9716057181358337
170 189 0.1823955923318863
170 190 0.964208722114563
170 191 0.9648079872131348
170 192 0.9604588747024536
170 193 0.9721956849098206
170 195 0.9646536111831665
170 196 0.1982775181531906
170 198 0.20317399501800537
170 200 0.6528796553611755
170 201 0.9714740514755249
170 202 0.9599875807762146
170 203 0.9632037878036499
170 204 0.17595383524894714
170 205 0.9632037878036499
170 206 0.9647432565689087
170 207 0.9620677828788757
170 208 0.07111089676618576
170 209 0.16527985036373138
170 210 0.14002801477909088
170 211 0.9711657762527466
170 212 0.12441814690828323
170 213 0.9620677828788757
170 214 0.14002801477909088
170 215 0.9662558436393738
170 216 0.948067307472229
170 217 0.9694806933403015
170 218 0.2824179530143738
170 219 0.1065453439950943
170 221 0.9669426679611206
170 222 0.9243940711021423
170 223 0.0968594029545784
170 224 0.9668476581573486
170 225 0.12441814690828323
170 226 0.9667091369628906
170 227 0.9646825194358826
170 228 0.08294543623924255
170 229 0.1065453439950943
170 230 0.9414862394332886
170 231 0.9705153703689575
170 232 0.17919175326824188
170 233 0.9551430344581604
170 234 0.14777329564094543
170 235 0.9684460759162903
170 236 0.9447011947631836
170 237 0.9763421416282654
170 238 0.057466283440589905
170 239 0.25702744722366333
170 240 0.9618961215019226
170 241 0.9674755930900574
170 242 0.9669100642204285
170 243 0.1065453439950943
170 244 0.9620064496994019
170 245 0.9502738118171692
170 246 0.06424925476312637
170 247 0.9593534469604492
170 248 0.970012366771698
170 249 0.07868894934654236
170 250 0.9768431782722473
170 251 0.22491738200187683
170 252 0.9609339833259583
170 253 0.17604544758796692
170 254 0.9594172239303589
170 255 0.9737851619720459
171 172 0.9400192499160767
171 173 0.12750574946403503
171 174 0.873142659664154
171 175 0.9549926519393921
171 176 0.9496716856956482
171 177 0.9545510411262512
171 178 0.7769119739532471
171 179 0.9551013112068176
171 180 0.9506349563598633
171 181 0.9599323868751526
171 182 0.9494203925132751
171 183 0.16641400754451752
171 184 0.9510270357131958
171 185 0.9191890358924866
171 186 0.15158610045909882
171 187 0.061346229165792465
171 188 0.9588368535041809
171 189 0.1895734816789627
171 190 0.9543891549110413
171 191 0.9540004730224609
171 192 0.9484215378761292
171 193 0.9605327844619751
171 195 0.9516319632530212
171 196 0.19534704089164734
171 197 0.0649227499961853
171 198 0.20017114281654358
171 200 0.6407385468482971
171 201 0.9522916078567505
171 202 0.9532350301742554
171 203 0.957585334777832
171 204 0.16594505310058594
171 205 0.9544423222541809
171 206 0.9538915157318115
171 207 0.9532350301742554
171 208 0.10265187174081802
171 209 0.189280703663826
171 210 0.1340487003326416
171 211 0.9594920873641968
171 212 0.10057789087295532
171 213 0.9500820636749268
171 214 0.14149585366249084
171 215 0.9553869962692261
171 216 0.9399096369743347
171 217 0.958733081817627
171 218 0.29581907391548157
171 219 0.10766219347715378
171 221 0.9582886099815369
171 222 0.9133749604225159
171 223 0.10766219347715378
171 224 0.9591812491416931
171 225 0.11734087020158768
171 226 0.9494742751121521
171 227 0.9537862539291382
171 228 0.12572236359119415
171 229 0.10766219347715378
171 230 0.9352670907974243
171 231 0.9555965065956116
171 232 0.18107013404369354
171 233 0.9535396099090576
171 234 0.16230687499046326
171 235 0.9555965065956116
171 236 0.9331763386726379
171 237 0.9616262912750244
171 238 0.07258584350347519
171 239 0.21976454555988312
171 240 0.9465955495834351
171 241 0.9588368535041809
171 242 0.956146240234375
171 243 0.10766219347715378
171 244 0.9478674530982971
171 245 0.9400753974914551
171 246 0.0649227499961853
171 247 0.9493675827980042
171 248 0.9571912884712219
171 249 0.0795137956738472
171 250 0.960039496421814
171 251 0.22272957861423492
171 252 0.9478124976158142
171 253 0.17215242981910706
171 254 0.9473689198493958
171 255 0.9642506837844849
172 173 0.12138523161411285
172 174 0.8789771199226379
172 175 0.9520756006240845
172 176 0.9369680285453796
172 177 0.9495390057563782
172 178 0.7779480218887329
172 179 0.9469403624534607
172 180 0.9571793079376221
172 181 0.9497496485710144
172 182 0.9495787620544434
172 183 0.1619606763124466
172 184 0.9416475296020508
172 185 0.9055833220481873
172 186 0.17630594968795776
172 187 0.08657162636518478
172 188 0.9486269354820251
172 189 0.18578162789344788
172 190 0.9482792615890503
172 191 0.9468687176704407
172 192 0.9443355202674866
172 193 0.9545782804489136
172 195 0.942284107208252
172 196 0.20195840299129486
172 198 0.1862511932849884
172 200 0.6315106749534607
172 201 0.951450765132904
172 202 0.9449682235717773
172 203 0.9451788067817688
172 204 0.1792202889919281
172 205 0.9441227912902832
172 206 0.9467280507087708
172 207 0.9439088702201843
172 208 0.07243102043867111
172 209 0.17395976185798645
172 210 0.13512082397937775
172 211 0.9598231911659241
172 212 0.1182793602347374
172 213 0.948146402835846
172 214 0.1426275372505188
172 215 0.9429210424423218
172 216 0.9399163126945496
172 217 0.9505929350852966
172 218 0.2736286222934723
172 219 0.09865752607584
172 220 0.05667443200945854
172 221 0.9512217044830322
172 222 0.9031015634536743
172 223 0.10852327942848206
172 224 0.9489089846611023
172 225 0.126727893948555
172 226 0.9411523342132568
172 227 0.942355751991272
172 228 0.1098308339715004
172 229 0.10852327942848206
172 230 0.9200435280799866
172 231 0.9484851956367493
172 232 0.17698748409748077
172 233 0.9366844892501831
172 234 0.14397241175174713
172 235 0.9548083543777466
172 236 0.926600456237793
172 237 0.9525508284568787
172 238 0.0731663778424263
172 239 0.20943918824195862
172 240 0.9435054063796997
172 241 0.9486269354820251
172 242 0.9564203023910522
172 243 0.09865752607584
172 244 0.9448323845863342
172 245 0.9347598552703857
172 246 0.06544199585914612
172 247 0.9399480819702148
172 248 0.9479936361312866
172 249 0.08014974743127823
172 250 0.9551365971565247
172 251 0.23367469012737274
172 252 0.9437031149864197
172 253 0.18509793281555176
172 254 0.9400913119316101
172 255 0.9552047848701477
173 174 0.1226026639342308
173 175 0.14078573882579803
173 176 0.1140010729432106
173 177 0.14056651294231415
173 178 0.14675362408161163
173 179 0.1475183367729187
173 180 0.1059204712510109
173 181 0.14013108611106873
173 182 0.10625478625297546
173 183 0.15430334210395813
173 184 0.14159847795963287
173 185 0.15447859466075897
173 186 0.07838618010282516
173 187 0.2474358230829239
173 188 0.140275776386261
173 189 0.1769980788230896
173 190 0.1410059928894043
173 191 0.14063946902751923
173 192 0.14152400195598602
173 193 0.13291914761066437
173 195 0.14137542247772217
173 196 0.16835875809192657
173 200 0.05317644402384758
173 201 0.1339556872844696
173 202 0.14836636185646057
173 203 0.1479019969701767
173 205 0.1479019969701767
173 206 0.13388584554195404
173 207 0.09891090542078018
173 208 0.1380131095647812
173 209 0.11227216571569443
173 211 0.1469106376171112
173 212 0.11268723011016846
173 213 0.14836636185646057
173 215 0.14115342497825623
173 216 0.1431129425764084
173 217 0.1265098601579666
173 218 0.11697707325220108
173 220 0.2519763112068176
173 221 0.14736570417881012
173 222 0.15386782586574554
173 224 0.11966788023710251
173 226 0.14152400195598602
173 227 0.1341659277677536
173 228 0.05634361505508423
173 229 0.0657951682806015
173 230 0.14420244097709656
173 231 0.1265098601579666
173 232 0.14754222333431244
173 233 0.14197255671024323
173 235 0.10542488098144531
173 236 0.1368430107831955
173 237 0.10482848435640335
173 239 0.053721535950899124
173 240 0.11375876516103745
173 241 0.14728955924510956
173 242 0.1475183367729187
173 244 0.14159847795963287
173 245 0.1355208158493042
173 247 0.12764032185077667
173 248 0.12644429504871368
173 250 0.13285090029239655
173 251 0.061113230884075165
173 252 0.12757296860218048
173 254 0.12737159430980682
173 255 0.11874473839998245
174 175 0.888063371181488
174 176 0.8897128701210022
174 177 0.8855494260787964
174 178 0.7209522724151611
174 179 0.888481616973877
174 180 0.8885761499404907
174 181 0.8884437084197998
174 182 0.9039192795753479
174 183 0.11173445731401443
174 184 0.8817972540855408
174 185 0.8428071737289429
174 186 0.1261359006166458
174 188 0.885975182056427
174 189 0.14240910112857819
174 190 0.8792421817779541
174 191 0.8803513050079346
174 192 0.8836108446121216
174 193 0.8904501795768738
174 195 0.8815456628799438
174 196 0.2004779577255249
174 198 0.14990749955177307
174 200 0.6383478045463562
174 201 0.8883182406425476
174 202 0.8799466490745544
174 203 0.8783258199691772
174 204 0.17950929701328278
174 205 0.8839924335479736
174 206 0.89692622423172
174 207 0.8788097500801086
174 208 0.07772981375455856
174 209 0.15055324137210846
174 210 0.11278226226568222
174 211 0.9028332233428955
174 212 0.10879907011985779
174 213 0.8856310248374939
174 214 0.12889401614665985
174 215 0.8756186366081238
174 216 0.8751080632209778
174 217 0.8866804242134094
174 218 0.21835239231586456
174 219 0.06352496892213821
174 221 0.8875623345375061
174 222 0.8371169567108154
174 223 0.06352496892213821
174 224 0.8835324048995972
174 225 0.09973248839378357
174 226 0.8745014071464539
174 227 0.8851672410964966
174 228 0.054399535059928894
174 229 0.06352496892213821
174 230 0.8620464205741882
174 231 0.8844184875488281
174 232 0.16619332134723663
174 233 0.866992712020874
174 234 0.09832129627466202
174 235 0.8900733590126038
174 236 0.8541530966758728
174 237 0.8906610608100891
174 238 0.07851897180080414
174 239 0.15560376644134521
174 240 0.878669023513794
174 241 0.885975182056427
174 242 0.888481616973877
174 243 0.08469995856285095
174 244 0.8897721171379089
174 245 0.8677077293395996
174 246 0.07022950053215027
174 247 0.8752052783966064
174 248 0.8963943123817444
174 250 0.8978689908981323
174 251 0.19176489114761353
174 252 0.8838673830032349
174 253 0.14277181029319763
174 254 0.8733627200126648
174 255 0.892452597618103
175 176 0.9489901065826416
175 177 0.9620791673660278
175 178 0.7860833406448364
175 179 0.962618887424469
175 180 0.9634702801704407
175 181 0.967384934425354
175 182 0.9602283835411072
175 183 0.15966926515102386
175 184 0.9534433484077454
175 185 0.923218846321106
175 186 0.17381158471107483
175 187 0.08534681797027588
175 188 0.9652733206748962
175 189 0.1831532120704651
175 190 0.96196049451828
175 191 0.9625784754753113
175 192 0.9592181444168091
175 193 0.966926634311676
175 195 0.9592560529708862
175 196 0.19412356615066528
175 198 0.17851567268371582
175 200 0.6320090293884277
175 201 0.9609183073043823
175 202 0.9566643834114075
175 203 0.959916889667511
175 204 0.17079521715641022
175 205 0.9588757753372192
175 206 0.9604172110557556
175 207 0.9608418941497803
175 208 0.09180806577205658
175 209 0.17149858176708221
175 210 0.11840812116861343
175 211 0.9720973372459412
175 212 0.12493494898080826
175 213 0.9577087163925171
175 214 0.14060963690280914
175 215 0.9598363637924194
175 216 0.9488318562507629
175 217 0.9631180763244629
175 218 0.28704947233200073
175 219 0.10698790103197098
175 220 0.055872607976198196
175 221 0.9657723307609558
175 222 0.9195687770843506
175 223 0.10698790103197098
175 224 0.966701328754425
175 225 0.12493494898080826
175 226 0.9560800194740295
175 227 0.9582510590553284
175 228 0.0999479591846466
175 229 0.09726172685623169
175 230 0.9347385764122009
175 231 0.9641570448875427
175 232 0.19084128737449646
175 233 0.9549129605293274
175 234 0.14193549752235413
175 235 0.9631180763244629
175 236 0.9369138479232788
175 237 0.9680005311965942
175 238 0.05770498141646385
175 239 0.24618297815322876
175 240 0.9543302655220032
175 241 0.9673469662666321
175 242 0.9657341837882996
175 243 0.10698790103197098
175 244 0.9628626108169556
175 245 0.9457858800888062
175 246 0.06451612710952759
175 247 0.9580971002578735
175 248 0.9667726159095764
175 249 0.0658465027809143
175 250 0.9684972763061523
175 251 0.2258516252040863
175 252 0.9534008502960205
175 253 0.1539667844772339
175 254 0.9539879560470581
175 255 0.9695696234703064
176 177 0.9527704119682312
176 178 0.7917874455451965
176 179 0.9491233825683594
176 180 0.9498534202575684
176 181 0.9550609588623047
176 182 0.9486117959022522
176 183 0.1673869490623474
176 184 0.9459937810897827
176 185 0.9058516025543213
176 186 0.1524723470211029
176 187 0.06170488893985748
176 188 0.9581459760665894
176 189 0.18008838593959808
176 190 0.9483649730682373
176 191 0.9480040669441223
176 192 0.9444373846054077
176 193 0.9546342492103577
176 195 0.9476765394210815
176 196 0.20152732729911804
176 197 0.06530231237411499
176 198 0.19101624190807343
176 200 0.6285713911056519
176 201 0.9525846242904663
176 202 0.9471797347068787
176 203 0.9494842290878296
176 204 0.17883774638175964
176 205 0.9494842290878296
176 206 0.9573596715927124
176 207 0.9492939710617065
176 208 0.0826016217470169
176 209 0.15118993818759918
176 210 0.11985103040933609
176 211 0.9598679542541504
176 212 0.12645739316940308
176 213 0.9450654983520508
176 214 0.13483241200447083
176 215 0.9472444653511047
176 216 0.9368394613265991
176 217 0.9527704119682312
176 218 0.25204116106033325
176 219 0.10829164832830429
176 221 0.9523413777351379
176 222 0.9176186323165894
176 223 0.08860225230455399
176 224 0.9542564153671265
176 225 0.10959640145301819
176 226 0.9507901668548584
176 227 0.9456271529197693
176 228 0.10959640145301819
176 229 0.06891286373138428
176 230 0.9288679957389832
176 231 0.9506672024726868
176 232 0.18212874233722687
176 233 0.9410580396652222
176 234 0.15672555565834045
176 235 0.9559252858161926
176 236 0.9224674105644226
176 237 0.9588829874992371
176 238 0.07301021367311478
176 239 0.24918295443058014
176 240 0.94255530834198
176 241 0.9581459760665894
176 242 0.9501744508743286
176 243 0.10829164832830429
176 244 0.9428157210350037
176 245 0.9391680955886841
176 247 0.9411247968673706
176 248 0.9554298520088196
176 250 0.9551902413368225
176 251 0.219459667801857
176 252 0.9501724243164062
176 253 0.14429908990859985
176 254 0.9423198103904724
176 255 0.9615269899368286
177 178 0.7912298440933228
177 179 0.9694143533706665
177 180 0.9619699716567993
177 181 0.9679467678070068
177 182 0.958733081817627
177 183 0.1708078235387802
177 184 0.958228349685669
177 185 0.9217811822891235
177 186 0.1735409051179886
177 187 0.07304049283266068
177 188 0.9699813723564148
177 189 0.18286798894405365
177 190 0.9615030884742737
177 191 0.9631552696228027
177 192 0.9556355476379395
177 193 0.9716160893440247
177 195 0.9608922004699707
177 196 0.20376081764698029
177 198 0.19351521134376526
177 200 0.6373037099838257
177 201 0.9656654596328735
177 202 0.958302915096283
177 203 0.9615405201911926
177 204 0.16464892029762268
177 205 0.9625800251960754
177 206 0.9620417952537537
177 207 0.96247398853302
177 208 0.07129507511854172
177 209 0.17123152315616608
177 210 0.12561272084712982
177 211 0.9685184359550476
177 212 0.12474039196968079
177 213 0.9614312052726746
177 214 0.09605678170919418
177 215 0.958341658115387
177 216 0.9515788555145264
177 217 0.9709543585777283
177 218 0.290055513381958
177 219 0.0679771825671196
177 220 0.05578560009598732
177 221 0.9663398265838623
177 222 0.9257068037986755
177 223 0.08739923685789108
177 224 0.9631180763244629
177 225 0.09979230910539627
177 226 0.9587688446044922
177 227 0.9578010439872742
177 228 0.09147629141807556
177 229 0.10682129114866257
177 230 0.947117269039154
177 231 0.9678422808647156
177 232 0.17965586483478546
177 233 0.9544737339019775
177 234 0.1417144536972046
177 235 0.9657676219940186
177 236 0.9439589977264404
177 237 0.9706190228462219
177 238 0.07201889902353287
177 239 0.25769317150115967
177 240 0.9601898193359375
177 241 0.9720517992973328
177 242 0.9642303586006165
177 243 0.08739923685789108
177 244 0.9561384320259094
177 245 0.9537877440452576
177 247 0.9555584788322449
177 248 0.9631934762001038
177 249 0.06574396789073944
177 250 0.9700852036476135
177 251 0.22549991309642792
177 252 0.959238588809967
177 253 0.16511422395706177
177 254 0.9598132371902466
177 255 0.9721835255622864
178 179 0.7933666706085205
178 180 0.7795880436897278
178 181 0.7824280858039856
178 182 0.7794803380966187
178 183 0.15384991466999054
178 184 0.7700856328010559
178 185 0.7454525232315063
178 186 0.14210151135921478
178 187 0.08971225470304489
178 188 0.7806929349899292
178 189 0.1475997418165207
178 190 0.7937037348747253
178 191 0.7801674604415894
178 192 0.7671149969100952
178 193 0.7862936854362488
178 195 0.7791242003440857
178 196 0.1709160953760147
178 198 0.16888198256492615
178 200 0.4569375813007355
178 201 0.7847569584846497
178 202 0.7851196527481079
178 203 0.7826623320579529
178 204 0.10111532360315323
178 205 0.7967067956924438
178 206 0.793289840221405
178 207 0.7838388681411743
178 208 0.06254888325929642
178 209 0.14247196912765503
178 210 0.0998310074210167
178 211 0.7888301610946655
178 212 0.09192770719528198
178 213 0.7940850853919983
178 214 0.07260436564683914
178 215 0.7651063203811646
178 216 0.7912940382957458
178 217 0.786133348941803
178 218 0.22478421032428741
178 219 0.09542082995176315
178 220 0.06851886957883835
178 221 0.7861850261688232
178 222 0.7571163773536682
178 224 0.7797027230262756
178 226 0.778660237789154
178 227 0.7680670022964478
178 228 0.07149932533502579
178 229 0.07156562060117722
178 230 0.7672553062438965
178 231 0.782310962677002
178 232 0.17385567724704742
178 233 0.7798413634300232
178 234 0.11076627671718597
178 235 0.7810368537902832
178 236 0.7794756293296814
178 237 0.7867538928985596
178 238 0.07076597958803177
178 239 0.1947769671678543
178 240 0.7733487486839294
178 241 0.7883217930793762
178 242 0.795913577079773
178 244 0.7675186991691589
178 245 0.7822886109352112
178 247 0.7803030610084534
178 248 0.7780851125717163
178 250 0.7833548784255981
178 251 0.14956440031528473
178 252 0.7863154411315918
178 253 0.16084308922290802
178 254 0.79277104139328
178 255 0.786350667476654
179 180 0.9614713191986084
179 181 0.9664115309715271
179 182 0.9582362174987793
179 183 0.17640994489192963
179 184 0.9608649611473083
179 185 0.9245589375495911
179 186 0.16766928136348724
179 187 0.08516974747180939
179 188 0.9653400182723999
179 189 0.19843950867652893
179 190 0.9630849361419678
179 191 0.9636934399604797
179 192 0.959315836429596
179 193 0.9721445441246033
179 195 0.9583086371421814
179 196 0.19868803024291992
179 198 0.18323516845703125
179 200 0.6495246887207031
179 201 0.962044894695282
179 202 0.9578062295913696
179 203 0.9641591310501099
179 204 0.1528090387582779
179 205 0.9662370681762695
179 206 0.9605036377906799
179 207 0.9598907232284546
179 208 0.10179731994867325
179 209 0.18218424916267395
179 210 0.13293276727199554
179 211 0.968016505241394
179 212 0.11636403203010559
179 213 0.9630173444747925
179 214 0.08123669028282166
179 215 0.9588861465454102
179 216 0.9489745497703552
179 217 0.9642303586006165
179 218 0.2864539623260498
179 219 0.06794194877147675
179 220 0.05575668811798096
179 221 0.9658389687538147
179 222 0.9273887276649475
179 223 0.08735393732786179
179 224 0.9615805149078369
179 225 0.1080523133277893
179 226 0.9561842679977417
179 227 0.959388017654419
179 228 0.11636403203010559
179 229 0.10676592588424683
179 230 0.9423719048500061
179 231 0.9642303586006165
179 232 0.17412146925926208
179 233 0.9550261497497559
179 234 0.14807924628257751
179 235 0.9652671217918396
179 236 0.9551568031311035
179 237 0.9701159596443176
179 238 0.07198157161474228
179 239 0.2535971403121948
179 240 0.9554969072341919
179 241 0.9684440493583679
179 242 0.9699482321739197
179 243 0.06794194877147675
179 244 0.956687331199646
179 245 0.9532934427261353
179 246 0.06438227742910385
179 247 0.9540172219276428
179 248 0.9637306332588196
179 249 0.06570988893508911
179 250 0.9695824384689331
179 251 0.2118600606918335
179 252 0.9587414860725403
179 253 0.17640994489192963
179 254 0.9614036083221436
179 255 0.9696188569068909
180 181 0.9621071219444275
180 182 0.9590383768081665
180 183 0.1601700633764267
180 184 0.9522342681884766
180 185 0.9173877835273743
180 186 0.16854484379291534
180 187 0.08561450242996216
180 188 0.9599803686141968
180 189 0.15223149955272675
180 190 0.9607957601547241
180 191 0.9593409299850464
180 192 0.9548814296722412
180 193 0.9658097624778748
180 195 0.9528307318687439
180 196 0.18973928689956665
180 198 0.18930844962596893
180 200 0.6513393521308899
180 201 0.9566138386726379
180 202 0.9565218687057495
180 203 0.95561683177948
180 204 0.17723886668682098
180 205 0.9566612839698792
180 206 0.9592497944831848
180 207 0.9575695395469666
180 208 0.08186312019824982
180 209 0.17203648388385773
180 210 0.14105066657066345
180 211 0.9668471217155457
180 212 0.10861656069755554
180 213 0.9554742574691772
180 214 0.13362693786621094
180 215 0.9544742703437805
180 216 0.9486245512962341
180 217 0.965096652507782
180 218 0.27754199504852295
180 219 0.07805342227220535
180 220 0.056047845631837845
180 221 0.9635984301567078
180 222 0.9159337878227234
180 223 0.10732346028089523
180 224 0.9603387117385864
180 225 0.12532679736614227
180 226 0.9517335295677185
180 227 0.9539267420768738
180 228 0.10026143491268158
180 229 0.09756678342819214
180 230 0.9333935379981995
180 231 0.9598855376243591
180 232 0.1640913039445877
180 233 0.9526447653770447
180 234 0.12943696975708008
180 235 0.9619699716567993
180 236 0.9345123171806335
180 237 0.9668912887573242
180 238 0.07235746085643768
180 239 0.24695512652397156
180 240 0.9562692046165466
180 241 0.9641405940055847
180 242 0.9604296684265137
180 243 0.10732346028089523
180 244 0.9564337730407715
180 245 0.9424060583114624
180 246 0.06471847742795944
180 247 0.9495352506637573
180 248 0.9614713191986084
180 249 0.06605302542448044
180 250 0.9642770290374756
180 251 0.22202880680561066
180 252 0.952187180519104
180 253 0.1716107875108719
180 254 0.9517335295677185
180 255 0.9674316048622131
181 182 0.9620169401168823
181 183 0.17027872800827026
181 184 0.9615105390548706
181 185 0.922173023223877
181 186 0.17877013981342316
181 187 0.08494995534420013
181 188 0.9752327799797058
181 189 0.19792740046977997
181 190 0.9626742005348206
181 191 0.9663798213005066
181 192 0.9589225649833679
181 193 0.9727237224578857
181 195 0.9672765135765076
181 196 0.19817528128623962
181 197 0.06421612948179245
181 198 0.19291576743125916
181 200 0.6478484869003296
181 201 0.9637115597724915
181 202 0.9615716934204102
181 203 0.9637435078620911
181 204 0.1524146944284439
181 205 0.965816080570221
181 206 0.9652827382087708
181 207 0.9667693972587585
181 208 0.08122768998146057
181 209 0.18171408772468567
181 210 0.12522362172603607
181 211 0.9716944098472595
181 212 0.12435399740934372
181 213 0.9615716934204102
181 214 0.11785752326250076
181 215 0.9647191166877747
181 216 0.9507369995117188
181 217 0.9689809083938599
181 218 0.28915709257125854
181 219 0.10649040341377258
181 220 0.055612798780202866
181 221 0.9674766063690186
181 222 0.9314639568328857
181 223 0.10649040341377258
181 224 0.9684207439422607
181 225 0.10777346044778824
181 226 0.9620460271835327
181 227 0.9621071219444275
181 228 0.0994831994175911
181 229 0.09680946171283722
181 230 0.9473661184310913
181 231 0.9669126868247986
181 232 0.17909936606884003
181 233 0.9598729014396667
181 234 0.16054031252861023
181 235 0.9689809083938599
181 236 0.9431544542312622
181 237 0.9737821221351624
181 238 0.07179581373929977
181 239 0.25689494609832764
181 240 0.9582617878913879
181 241 0.9731687307357788
181 242 0.9664115309715271
181 243 0.10649040341377258
181 244 0.9625522494316101
181 245 0.9518828988075256
181 247 0.957815408706665
181 248 0.9684786796569824
181 249 0.06554032117128372
181 250 0.974281907081604
181 251 0.21580936014652252
181 252 0.9625242352485657
181 253 0.1362229734659195
181 254 0.9641284346580505
181 255 0.9773941040039062
182 183 0.15493717789649963
182 184 0.9531333446502686
182 185 0.912623405456543
182 186 0.15741634368896484
182 187 0.061346229165792465
182 188 0.9588368535041809
182 189 0.16850975155830383
182 190 0.9543891549110413
182 191 0.9550464749336243
182 192 0.9547374248504639
182 193 0.964695394039154
182 195 0.9526834487915039
182 196 0.19534704089164734
182 198 0.18477337062358856
182 200 0.6549772024154663
182 201 0.9585843086242676
182 202 0.9511330723762512
182 203 0.952346920967102
182 204 0.16594505310058594
182 205 0.952346920967102
182 206 0.9549397826194763
182 207 0.9563879370689392
182 208 0.061591122299432755
182 209 0.13360990583896637
182 210 0.1340487003326416
182 211 0.9667767286300659
182 212 0.12572236359119415
182 213 0.9542859792709351
182 214 0.1340487003326416
182 215 0.958536684513092
182 216 0.94416743516922
182 217 0.9597785472869873
182 218 0.2679772973060608
182 219 0.06851229816675186
182 221 0.9593324661254883
182 222 0.9133749604225159
182 223 0.07829977571964264
182 224 0.9602283835411072
182 225 0.12572236359119415
182 226 0.9484215378761292
182 227 0.9548366665840149
182 228 0.09219640493392944
182 229 0.10766219347715378
182 230 0.9331219792366028
182 231 0.958733081817627
182 232 0.17009618878364563
182 233 0.9472037553787231
182 234 0.11686094850301743
182 235 0.963960587978363
182 236 0.9321049451828003
182 237 0.962665855884552
182 238 0.07258584350347519
182 239 0.22376026213169098
182 240 0.9497685432434082
182 241 0.9588368535041809
182 242 0.9582362174987793
182 243 0.10766219347715378
182 244 0.9541864991188049
182 245 0.9400753974914551
182 246 0.0649227499961853
182 247 0.9483127593994141
182 248 0.9582362174987793
182 249 0.06626150012016296
182 250 0.9631599187850952
182 251 0.22272957861423492
182 252 0.9530839323997498
182 253 0.16067560017108917
182 254 0.9473689198493958
182 255 0.9673678874969482
183 184 0.17206180095672607
183 185 0.16685594618320465
183 186 0.09525009244680405
183 187 0.06681530922651291
183 188 0.17613635957241058
183 189 0.17206178605556488
183 190 0.16563047468662262
183 191 0.17659303545951843
183 192 0.17770369350910187
183 193 0.18135042488574982
183 195 0.18324348330497742
183 196 0.10910893976688385
183 197 0.0883883461356163
183 198 0.08385253697633743
183 200 0.12923353910446167
183 201 0.14849628508090973
183 202 0.18314741551876068
183 203 0.18257418274879456
183 204 0.09682457894086838
183 205 0.176868736743927
183 206 0.1484188437461853
183 207 0.14308391511440277
183 208 0.05590169504284859
183 209 0.0909508615732193
183 210 0.08111070841550827
183 211 0.16434882581233978
183 213 0.165977343916893
183 215 0.17723838984966278
183 216 0.15651187300682068
183 217 0.15942062437534332
183 218 0.07580980658531189
183 219 0.053300175815820694
183 221 0.1648579090833664
183 222 0.18400299549102783
183 223 0.15990053117275238
183 224 0.1482643187046051
183 225 0.2282177358865738
183 226 0.16050656139850616
183 227 0.1544497013092041
183 228 0.13693062961101532
183 229 0.10660035163164139
183 230 0.1518625169992447
183 231 0.1708078235387802
183 232 0.05976143106818199
183 233 0.14951419830322266
183 234 0.1060660108923912
183 235 0.15372703969478607
183 236 0.16336600482463837
183 237 0.16418017446994781
183 239 0.108798548579216
183 240 0.14399239420890808
183 241 0.17613635957241058
183 242 0.17071929574012756
183 243 0.10660035163164139
183 244 0.17206180095672607
183 245 0.1791219413280487
183 247 0.16084517538547516
183 248 0.17071929574012756
183 249 0.21650636196136475
183 250 0.16426442563533783
183 251 0.07426106184720993
183 252 0.1607603132724762
183 253 0.0625
183 254 0.1662389487028122
183 255 0.15277905762195587
184 185 0.9099555015563965
184 186 0.17481496930122375
184 187 0.07357671856880188
184 188 0.9604177474975586
184 189 0.19473683834075928
184 190 0.9528385400772095
184 191 0.9566347002983093
184 192 0.9510785341262817
184 193 0.9693881273269653
184 195 0.9521819353103638
184 196 0.1952441930770874
184 198 0.17954619228839874
184 200 0.6277512907981873
184 201 0.9538868069648743
184 202 0.9516826868057251
184 203 0.9581283330917358
184 204 0.17770466208457947
184 205 0.9539398550987244
184 206 0.9544370770454407
184 207 0.9558843970298767
184 208 0.09233804792165756
184 209 0.16136032342910767
184 210 0.12653489410877228
184 211 0.9610671997070312
184 212 0.09214786440134048
184 213 0.9558843970298767
184 214 0.10420520603656769
184 215 0.9559334516525269
184 216 0.9415426850318909
184 217 0.9592732787132263
184 218 0.27479299902915955
184 219 0.058693911880254745
184 220 0.05619514361023903
184 221 0.9588274359703064
184 222 0.9194303154945374
184 223 0.08804087340831757
184 224 0.9555364847183228
184 225 0.10890201479196548
184 226 0.9510785341262817
184 227 0.9522342681884766
184 228 0.11727909743785858
184 229 0.10760551691055298
184 230 0.9358466267585754
184 231 0.9571834206581116
184 232 0.17549073696136475
184 233 0.9467051029205322
184 234 0.14924371242523193
184 235 0.9603182673454285
184 236 0.9380391836166382
184 237 0.9652761816978455
184 238 0.07254762947559357
184 239 0.2635786235332489
184 240 0.9471543431282043
184 241 0.9593749046325684
184 242 0.9587761759757996
184 243 0.08804087340831757
184 244 0.9494737386703491
184 245 0.9438223838806152
184 247 0.9478135108947754
184 248 0.956687331199646
184 249 0.06622661650180817
184 250 0.9657715559005737
184 251 0.1953536570072174
184 252 0.950474739074707
184 253 0.17206180095672607
184 254 0.9531826376914978
184 255 0.9678971171379089
185 186 0.16347132623195648
185 187 0.07644706964492798
185 188 0.923125147819519
185 189 0.1695229709148407
185 190 0.9203067421913147
185 191 0.9233458638191223
185 192 0.9127563834190369
185 193 0.9261537194252014
185 195 0.9172579646110535
185 196 0.16645006835460663
185 197 0.06741998344659805
185 198 0.18655061721801758
185 200 0.6144537925720215
185 201 0.919217586517334
185 202 0.9200513362884521
185 203 0.9269635081291199
185 204 0.12309148907661438
185 205 0.9193475842475891
185 206 0.9209153652191162
185 207 0.9178684949874878
185 208 0.10660035908222198
185 209 0.18499889969825745
185 210 0.10827042907476425
185 211 0.9229115843772888
185 212 0.1131504699587822
185 213 0.9145943522453308
185 214 0.13147124648094177
185 215 0.9190884232521057
185 216 0.9053179025650024
185 217 0.9217811822891235
185 218 0.2818990647792816
185 219 0.10163945704698563
185 220 0.05838741734623909
185 221 0.9268544316291809
185 222 0.8817273378372192
185 223 0.09147550910711288
185 224 0.9253936409950256
185 225 0.1131504699587822
185 226 0.9127563834190369
185 227 0.9152061939239502
185 228 0.12185435742139816
185 229 0.09147550910711288
185 230 0.8966166973114014
185 231 0.9228668808937073
185 232 0.16524283587932587
185 233 0.9178425669670105
185 234 0.1348399668931961
185 235 0.9185239672660828
185 236 0.8956394791603088
185 237 0.9273624420166016
185 239 0.2365165799856186
185 240 0.9061230421066284
185 241 0.923125147819519
185 242 0.9234737157821655
185 243 0.10163945704698563
185 244 0.9165177345275879
185 245 0.9057170748710632
185 246 0.06741998344659805
185 247 0.9146820306777954
185 248 0.9223886132240295
185 249 0.08257228136062622
185 250 0.9299986958503723
185 251 0.22657646238803864
185 252 0.9131046533584595
185 253 0.17281508445739746
185 254 0.9105702042579651
185 255 0.9236501455307007
186 187 0.0678844228386879
186 188 0.17318198084831238
186 189 0.058271657675504684
186 190 0.15667515993118286
186 191 0.1736309975385666
186 192 0.1630748212337494
186 193 0.17273645102977753
186 194 0.17960529029369354
186 195 0.1570856273174286
186 196 0.08314109593629837
186 197 0.08980264514684677
186 200 0.08753427118062973
186 201 0.16247795522212982
186 202 0.18026302754878998
186 203 0.17390207946300507
186 204 0.09837387502193451
186 205 0.14491839706897736
186 206 0.16819296777248383
186 207 0.1570032835006714
186 208 0.05679618567228317
186 209 0.06160410866141319
186 211 0.17273645102977753
186 213 0.16281822323799133
186 214 0.12361283600330353
186 215 0.174265518784523
186 216 0.17079520225524902
186 217 0.16197150945663452
186 220 0.10369517654180527
186 221 0.1732715219259262
186 222 0.18694722652435303
186 224 0.16222414374351501
186 226 0.17472302913665771
186 227 0.15692105889320374
186 229 0.1624591052532196
186 230 0.17802977561950684
186 231 0.1735409051179886
186 232 0.09107651561498642
186 233 0.1519065797328949
186 235 0.1735409051179886
186 236 0.17190788686275482
186 237 0.17831116914749146
186 239 0.17686308920383453
186 240 0.16385199129581451
186 241 0.17318198084831238
186 242 0.16188758611679077
186 243 0.05415303632616997
186 244 0.16898779571056366
186 245 0.17611747980117798
186 247 0.13423693180084229
186 248 0.16766928136348724
186 249 0.0733235627412796
186 250 0.17264775931835175
186 252 0.17499926686286926
186 253 0.09525009244680405
186 254 0.17472302913665771
186 255 0.17247077822685242
187 188 0.08503766357898712
187 189 0.1839417964220047
187 190 0.08548034727573395
187 191 0.08525814861059189
187 192 0.0857943668961525
187 193 0.08481889218091965
187 195 0.08570428937673569
187 201 0.07326886802911758
187 202 0.08565936237573624
187 203 0.08539125323295593
187 205 0.08539125323295593
187 206 0.08543576300144196
187 207 0.08565936237573624
187 209 0.06482037156820297
187 210 0.08671099692583084
187 211 0.08481889218091965
187 213 0.08565936237573624
187 215 0.07334546744823456
187 216 0.0867576077580452
187 217 0.08521391451358795
187 220 0.2182178795337677
187 221 0.07292710244655609
187 222 0.08883563429117203
187 223 0.11396057158708572
187 224 0.07315441220998764
187 226 0.0857943668961525
187 227 0.08561450242996216
187 228 0.09759000688791275
187 229 0.11396057158708572
187 230 0.07492978125810623
187 231 0.08521391451358795
187 232 0.12777531147003174
187 233 0.08606629818677902
187 235 0.08521391451358795
187 236 0.08732280135154724
187 237 0.08473184704780579
187 239 0.09304842352867126
187 241 0.08503766357898712
187 242 0.08516974747180939
187 244 0.08583950251340866
187 245 0.08647909015417099
187 247 0.08597537130117416
187 248 0.0730026438832283
187 250 0.08477533608675003
187 252 0.0859300047159195
187 254 0.0857943668961525
187 255 0.08468843251466751
188 189 0.19291776418685913
188 190 0.961591362953186
188 191 0.9663418531417847
188 192 0.9609548449516296
188 193 0.9716672897338867
188 195 0.9641105532646179
188 196 0.19837990403175354
188 198 0.20327891409397125
188 200 0.646950900554657
188 201 0.9626297950744629
188 202 0.9604833126068115
188 203 0.9626638889312744
188 204 0.17604470252990723
188 205 0.9678506255149841
188 206 0.9621278047561646
188 207 0.9625645875930786
188 208 0.08131156116724014
188 209 0.1708773672580719
188 210 0.1253529042005539
188 211 0.9696065187454224
188 212 0.12448239326477051
188 213 0.9636051654815674
188 214 0.11060550808906555
188 215 0.9636362195014954
188 216 0.9485567808151245
188 217 0.9699813723564148
188 218 0.2791179120540619
188 219 0.10660036653280258
188 220 0.05567022040486336
188 221 0.966408371925354
188 222 0.9324257373809814
188 223 0.09690941870212555
188 224 0.9642365574836731
188 225 0.10788474231958389
188 226 0.9599125981330872
188 227 0.9610204100608826
188 228 0.09958591312170029
188 229 0.09690941870212555
188 230 0.946220338344574
188 231 0.971016526222229
188 232 0.18471716344356537
188 233 0.9545906782150269
188 234 0.1607060730457306
188 235 0.9668757319450378
188 236 0.9451889991760254
188 237 0.9727289080619812
188 238 0.05749595910310745
188 239 0.26111647486686707
188 240 0.9634400606155396
188 241 0.969008207321167
188 242 0.9674093723297119
188 243 0.10660036653280258
188 244 0.9593749046325684
188 245 0.9507644772529602
188 247 0.9556710124015808
188 248 0.9715480208396912
188 249 0.07872957736253738
188 250 0.9752878546714783
188 251 0.21603219211101532
188 252 0.9593424201011658
188 253 0.16477271914482117
188 254 0.9609548449516296
188 255 0.9773744940757751
189 190 0.18343974649906158
189 191 0.19341793656349182
189 192 0.18937404453754425
189 193 0.19762204587459564
189 195 0.19968494772911072
189 196 0.05006261542439461
189 198 0.051298920065164566
189 200 0.09487426280975342
189 201 0.18343974649906158
189 202 0.1943281590938568
189 203 0.18848426640033722
189 205 0.19371992349624634
189 206 0.18334409594535828
189 207 0.17331969738006592
189 208 0.051298920065164566
189 209 0.1391037255525589
189 211 0.17681972682476044
189 212 0.08377078175544739
189 213 0.1943281590938568
189 215 0.1888781636953354
189 216 0.18086129426956177
189 217 0.15151919424533844
189 221 0.1878008097410202
189 222 0.196087047457695
189 223 0.09782318770885468
189 224 0.1831532120704651
189 226 0.17359286546707153
189 227 0.16797958314418793
189 228 0.08377078175544739
189 229 0.19564637541770935
189 230 0.17687822878360748
189 231 0.18809279799461365
189 232 0.1371021270751953
189 233 0.18997427821159363
189 234 0.06488857418298721
189 235 0.17241838574409485
189 236 0.20345598459243774
189 237 0.18183350563049316
189 238 0.2176428735256195
189 239 0.13977652788162231
189 240 0.1691346913576126
189 241 0.18770378828048706
189 242 0.1879953294992447
189 244 0.1789473593235016
189 245 0.20149017870426178
189 246 0.08111070841550827
189 247 0.18450206518173218
189 248 0.1879953294992447
189 249 0.06622661650180817
189 250 0.19752056896686554
189 252 0.1949421465396881
189 253 0.05735393241047859
189 254 0.19463442265987396
189 255 0.18174031376838684
190 191 0.9599199295043945
190 192 0.9544328451156616
190 193 0.9663678407669067
190 195 0.9544773697853088
190 196 0.1894419640302658
190 198 0.1685781031847
190 200 0.6329978704452515
190 201 0.9645093679428101
190 202 0.9560690522193909
190 203 0.9624614119529724
190 204 0.14746759831905365
190 205 0.9593331217765808
190 206 0.9587898850440979
190 207 0.9571150541305542
190 208 0.09195169806480408
190 209 0.17176689207553864
190 210 0.133417546749115
190 211 0.9684394001960754
190 212 0.11678838729858398
190 213 0.9612991809844971
190 214 0.11859337240457535
190 215 0.9592481255531311
190 216 0.9492568969726562
190 217 0.9687872529029846
190 218 0.29442623257637024
190 219 0.09741389006376266
190 220 0.05596001818776131
190 221 0.9641663432121277
190 222 0.9177529215812683
190 223 0.09741389006376266
190 224 0.9609183073043823
190 225 0.12513041496276855
190 226 0.9544328451156616
190 227 0.9555683732032776
190 228 0.10844635218381882
190 229 0.10715528577566147
190 230 0.9362009763717651
190 231 0.9625437259674072
190 232 0.1911398470401764
190 233 0.9543049931526184
190 234 0.13569585978984833
190 235 0.9615030884742737
190 236 0.9426450133323669
190 237 0.9653761386871338
190 238 0.0722440779209137
190 239 0.23861433565616608
190 240 0.9495073556900024
190 241 0.9657451510429382
190 242 0.9630849361419678
190 243 0.09741389006376266
190 244 0.9549350738525391
190 245 0.9493776559829712
190 246 0.06461706012487411
190 247 0.9574962854385376
190 248 0.9610047936439514
190 249 0.06594952195882797
190 250 0.9658715724945068
190 251 0.2171567678451538
190 252 0.9517444968223572
190 253 0.16563047468662262
190 254 0.957575798034668
190 255 0.9669498801231384
191 192 0.9550866484642029
191 193 0.9669550657272339
191 195 0.9582594037055969
191 196 0.19392186403274536
191 197 0.06444909423589706
191 198 0.20380595326423645
191 200 0.625070333480835
191 201 0.9588788151741028
191 202 0.959843635559082
191 203 0.9620397090911865
191 204 0.17061775922775269
191 205 0.9630797505378723
191 206 0.9604598879814148
191 207 0.9577570557594299
191 208 0.10190297663211823
191 209 0.18789979815483093
191 210 0.14046356081962585
191 211 0.9669550657272339
191 212 0.11648479849100113
191 213 0.9588003158569336
191 214 0.11828510463237762
191 215 0.9588391184806824
191 216 0.9446760416030884
191 217 0.9631552696228027
191 218 0.29020610451698303
191 219 0.08744460344314575
191 220 0.055814556777477264
191 221 0.9647688865661621
191 222 0.9218593835830688
191 223 0.10687673836946487
191 224 0.9615389704704285
191 225 0.1081644594669342
191 226 0.956131637096405
191 227 0.9582982063293457
191 228 0.12480514496564865
191 229 0.10687673836946487
191 230 0.9465441703796387
191 231 0.9641931653022766
191 232 0.19064299762248993
191 233 0.9570656418800354
191 234 0.14823293685913086
191 235 0.9621174335479736
191 236 0.9444490075111389
191 237 0.9690588712692261
191 238 0.05764502286911011
191 239 0.25386032462120056
191 240 0.9512388706207275
191 241 0.9642704129219055
191 242 0.9636934399604797
191 243 0.08744460344314575
191 244 0.9566347002983093
191 245 0.9500697255134583
191 247 0.9539601802825928
191 248 0.9626561403274536
191 249 0.0789337083697319
191 250 0.9695561528205872
191 251 0.22110463678836823
191 252 0.9534569382667542
191 253 0.1708964854478836
191 254 0.9592664837837219
191 255 0.9695937633514404
192 193 0.9636805057525635
192 195 0.9527316093444824
192 196 0.18513426184654236
192 198 0.19483336806297302
192 200 0.6527076959609985
192 201 0.9544328451156616
192 202 0.9511822462081909
192 203 0.9555312395095825
192 204 0.17761120200157166
192 205 0.9565778374671936
192 206 0.9528879523277283
192 207 0.9511822462081909
192 208 0.09228949248790741
192 209 0.1779591143131256
192 210 0.13390766084194183
192 211 0.9626409411430359
192 212 0.12559008598327637
192 213 0.9532820582389832
192 214 0.1413469761610031
192 215 0.9533331394195557
192 216 0.9378575086593628
192 217 0.9566799998283386
192 218 0.28507816791534424
192 219 0.09777174890041351
192 220 0.05616559833288193
192 221 0.9593660235404968
192 222 0.9222132563591003
192 223 0.10754892975091934
192 224 0.9581721425056458
192 225 0.11721741408109665
192 226 0.9484753012657166
192 227 0.9527828097343445
192 228 0.11721741408109665
192 229 0.07821740210056305
192 230 0.9299973845481873
192 231 0.960857629776001
192 232 0.17539842426776886
192 233 0.9462072253227234
192 234 0.14916522800922394
192 235 0.9587688446044922
192 236 0.9332647919654846
192 237 0.962691605091095
192 239 0.23949091136455536
192 240 0.9455997347831726
192 241 0.9599125981330872
192 242 0.9582719802856445
192 243 0.10754892975091934
192 244 0.9500264525413513
192 245 0.9422661662101746
192 246 0.0648544430732727
192 247 0.950476348400116
192 248 0.9582719802856445
192 249 0.07943014800548553
192 250 0.9621466398239136
192 251 0.21795451641082764
192 252 0.9499748945236206
192 253 0.17770369350910187
192 254 0.9484753012657166
192 255 0.9632362127304077
193 195 0.9626687169075012
193 196 0.17808257043361664
193 198 0.19261813163757324
193 200 0.6421616673469543
193 201 0.9653320908546448
193 202 0.9632019400596619
193 203 0.9674301147460938
193 204 0.1580326110124588
193 205 0.965360701084137
193 206 0.965863823890686
193 207 0.9652778506278992
193 208 0.07096457481384277
193 209 0.1594417691230774
193 210 0.13973988592624664
193 211 0.9732785224914551
193 212 0.10760719329118729
193 213 0.9673537015914917
193 214 0.12503042817115784
193 215 0.9632307291030884
193 216 0.9524239301681519
193 217 0.9695510268211365
193 218 0.2612146735191345
193 219 0.07732807844877243
193 220 0.05552699789404869
193 221 0.9701077342033386
193 222 0.9289505481719971
193 223 0.09666009992361069
193 224 0.9700289964675903
193 225 0.12416214495897293
193 226 0.9626409411430359
193 227 0.9626975655555725
193 228 0.10760719329118729
193 229 0.10632611066102982
193 230 0.9448452591896057
193 231 0.9747136831283569
193 232 0.17882303893566132
193 233 0.9573491811752319
193 234 0.14105752110481262
193 235 0.9695510268211365
193 236 0.9533382058143616
193 237 0.9763864874839783
193 238 0.07168504595756531
193 239 0.2604447305202484
193 240 0.9578278660774231
193 241 0.9726977348327637
193 242 0.970080554485321
193 243 0.07732807844877243
193 244 0.9621073603630066
193 245 0.9567014575004578
193 247 0.9615465402603149
193 248 0.9721445441246033
193 249 0.07852703332901001
193 250 0.9799692630767822
193 251 0.2244545817375183
193 252 0.9662452936172485
193 253 0.17001602053642273
193 254 0.9667991995811462
193 255 0.9779385328292847
194 196 0.15430334210395813
194 197 0.5
194 208 0.3162277638912201
194 209 0.17149858176708221
194 218 0.10721126198768616
194 228 0.25819888710975647
194 234 0.20000001788139343
195 196 0.19493664801120758
195 198 0.20487244427204132
195 200 0.6488649845123291
195 201 0.9586637020111084
195 202 0.9512324333190918
195 203 0.9555734992027283
195 204 0.1596822589635849
195 205 0.9566190242767334
195 206 0.9539795517921448
195 207 0.9543787240982056
195 208 0.08194897323846817
195 209 0.17777228355407715
195 210 0.12633557617664337
195 211 0.9637071490287781
195 212 0.11709434539079666
195 213 0.9533299803733826
195 214 0.12633557617664337
195 215 0.9554752707481384
195 216 0.9400594830513
195 217 0.9619354605674744
195 218 0.2813059687614441
195 219 0.09766910970211029
195 221 0.9594005346298218
195 222 0.9223326444625854
195 223 0.09766910970211029
195 224 0.9582111239433289
195 225 0.11709434539079666
195 226 0.9527316093444824
195 227 0.9528307318687439
195 228 0.10036658495664597
195 229 0.09766910970211029
195 230 0.9375833868980408
195 231 0.9577622413635254
195 232 0.19164061546325684
195 233 0.9494287967681885
195 234 0.14252997934818268
195 235 0.9608922004699707
195 236 0.9322850108146667
195 237 0.9647931456565857
195 238 0.07243335247039795
195 239 0.26316341757774353
195 240 0.947773277759552
195 241 0.9630694389343262
195 242 0.9624797105789185
195 243 0.10743601620197296
195 244 0.9532329440116882
195 245 0.946570873260498
195 247 0.9494783878326416
195 248 0.9624797105789185
195 249 0.07934675365686417
195 250 0.9663261771202087
195 251 0.2131897509098053
195 252 0.9510816335678101
195 253 0.16606441140174866
195 254 0.9527316093444824
195 255 0.9663724303245544
196 197 0.15430334210395813
196 200 0.15040570497512817
196 201 0.1944272667169571
196 202 0.2048259675502777
196 203 0.1842643916606903
196 204 0.11268723011016846
196 205 0.2041848748922348
196 206 0.1993086040019989
196 207 0.18484294414520264
196 208 0.09759000688791275
196 209 0.052925609052181244
196 211 0.20281624794006348
196 212 0.19920477271080017
196 213 0.18484294414520264
196 214 0.07079923152923584
196 215 0.20960213243961334
196 216 0.20239225029945374
196 217 0.1838817149400711
196 218 0.08271528035402298
196 221 0.20344451069831848
196 222 0.19687797129154205
196 224 0.179190993309021
196 226 0.1951415240764618
196 227 0.2047186940908432
196 228 0.07968190312385559
196 230 0.18863806128501892
196 231 0.1938212662935257
196 232 0.13041013479232788
196 233 0.18572105467319489
196 235 0.19879105687141418
196 236 0.16806137561798096
196 237 0.17789983749389648
196 240 0.19607150554656982
196 241 0.20333939790725708
196 242 0.19372081756591797
196 243 0.1395726203918457
196 244 0.20025047659873962
196 245 0.1866118162870407
196 247 0.20558159053325653
196 248 0.19868803024291992
196 250 0.1779911369085312
196 251 0.06482037156820297
196 252 0.1954500377178192
196 253 0.1363861858844757
196 254 0.19013790786266327
196 255 0.18274778127670288
197 198 0.15811388194561005
197 202 0.06475239247083664
197 206 0.06458336859941483
197 208 0.15811388194561005
197 209 0.2572478652000427
197 210 0.11470786482095718
197 212 0.12909944355487823
197 214 0.22941572964191437
197 215 0.06468462198972702
197 218 0.16081687808036804
197 219 0.30151134729385376
197 223 0.45226699113845825
197 225 0.12909944355487823
197 226 0.0648544430732727
197 227 0.06471847742795944
197 228 0.3872983157634735
197 233 0.06506000459194183
197 234 0.20000001788139343
197 243 0.30151134729385376
197 247 0.06499126553535461
197 249 0.20412413775920868
197 253 0.1767766922712326
198 200 0.09247197955846786
198 201 0.1787949651479721
198 202 0.19964590668678284
198 203 0.19391793012619019
198 205 0.18881481885910034
198 206 0.1889132559299469
198 207 0.1945267766714096
198 210 0.10882143676280975
198 211 0.1824803352355957
198 213 0.1791694015264511
198 214 0.10882143676280975
198 215 0.1994369626045227
198 216 0.18146653473377228
198 217 0.18333019316196442
198 218 0.06780634820461273
198 219 0.19069251418113708
198 221 0.18304558098316193
198 222 0.1858130544424057
198 223 0.19069251418113708
198 224 0.19381701946258545
198 226 0.19996055960655212
198 227 0.20465780794620514
198 228 0.08164965361356735
198 230 0.1828480213880539
198 231 0.2037002146244049
198 233 0.19545090198516846
198 234 0.12649109959602356
198 235 0.18842269480228424
198 236 0.14611899852752686
198 237 0.19748416543006897
198 239 0.13623730838298798
198 240 0.19576190412044525
198 241 0.18803298473358154
198 242 0.17814528942108154
198 243 0.09534625709056854
198 244 0.17954619228839874
198 245 0.1963883340358734
198 247 0.20552043616771698
198 248 0.2035946398973465
198 249 0.06454972177743912
198 250 0.18745292723178864
198 252 0.2002767026424408
198 253 0.1956559270620346
198 254 0.18457898497581482
198 255 0.19738295674324036
199 200 0.06892455369234085
199 239 0.08703883737325668
200 201 0.6266993880271912
200 202 0.6406351327896118
200 203 0.6291921734809875
200 204 0.12457369267940521
200 205 0.6354840993881226
200 206 0.6310939192771912
200 207 0.6295897364616394
200 209 0.11701660603284836
200 210 0.1453534960746765
200 211 0.6421616673469543
200 212 0.1132545992732048
200 213 0.6359013915061951
200 214 0.05590519309043884
200 215 0.6446934938430786
200 216 0.6392598152160645
200 217 0.6388733983039856
200 218 0.21423141658306122
200 221 0.6347470879554749
200 222 0.5972965359687805
200 223 0.08816857635974884
200 224 0.6335812211036682
200 225 0.06291922181844711
200 226 0.6353232264518738
200 227 0.6402997374534607
200 228 0.06291922181844711
200 229 0.07347381860017776
200 230 0.60869961977005
200 231 0.6373037099838257
200 232 0.15652313828468323
200 233 0.6056286692619324
200 235 0.6451522707939148
200 236 0.6192960739135742
200 237 0.6461851596832275
200 238 0.06538756191730499
200 239 0.12598136067390442
200 240 0.63993901014328
200 241 0.6500838398933411
200 242 0.641680121421814
200 243 0.05877905339002609
200 244 0.6419824361801147
200 245 0.6212775111198425
200 247 0.6303286552429199
200 248 0.6463868618011475
200 249 0.07958722114562988
200 250 0.6418318748474121
200 251 0.14331550896167755
200 252 0.6442422270774841
200 253 0.08615569025278091
200 254 0.6258408427238464
200 255 0.6411738991737366
201 202 0.9560690522193909
201 203 0.9572476744651794
201 204 0.16516371071338654
201 205 0.960375964641571
201 206 0.9577466249465942
201 207 0.9560690522193909
201 208 0.07151798903942108
201 209 0.14960342645645142
201 210 0.11859337240457535
201 211 0.9674035906791687
201 212 0.12513041496276855
201 213 0.9592071175575256
201 214 0.12600545585155487
201 215 0.9550684094429016
201 216 0.9513758420944214
201 217 0.9646248817443848
201 218 0.2771070599555969
201 219 0.05844833329319954
201 220 0.05596001818776131
201 221 0.962088406085968
201 222 0.9242618083953857
201 223 0.07793111354112625
201 224 0.9598761200904846
201 225 0.10844635218381882
201 226 0.9617665410041809
201 227 0.9597502946853638
201 228 0.0834202766418457
201 229 0.10715528577566147
201 230 0.9372684359550476
201 231 0.9625437259674072
201 232 0.1911398470401764
201 233 0.951151967048645
201 234 0.12923415005207062
201 235 0.963584303855896
201 236 0.939445972442627
201 237 0.9664108753204346
201 238 0.0722440779209137
201 239 0.25054505467414856
201 240 0.9579286575317383
201 241 0.9636682271957397
201 242 0.9630849361419678
201 243 0.09741389006376266
201 244 0.9528385400772095
201 245 0.9514896869659424
201 247 0.9553964734077454
201 248 0.9610047936439514
201 249 0.05275961756706238
201 250 0.9700125455856323
201 251 0.23072907328605652
201 252 0.9548923969268799
201 253 0.1713418811559677
201 254 0.9565281867980957
201 255 0.9679840207099915
202 203 0.9561175107955933
202 204 0.17142066359519958
202 205 0.9550725817680359
202 206 0.9576614499092102
202 207 0.9528301954269409
202 208 0.10238251835107803
202 209 0.17767909169197083
202 210 0.1188417375087738
202 211 0.9632019400596619
202 212 0.10867346078157425
202 213 0.9549266695976257
202 214 0.14112456142902374
202 215 0.9528800845146179
202 216 0.9459366202354431
202 217 0.96247398853302
202 218 0.29504284262657166
202 219 0.09761790186166763
202 220 0.05607721582055092
202 221 0.9641032814979553
202 222 0.9196749329566956
202 223 0.10737969726324081
202 224 0.9556199312210083
202 225 0.1170329600572586
202 226 0.9522321820259094
202 227 0.9554742574691772
202 228 0.12539246678352356
202 229 0.10737969726324081
202 230 0.9338826537132263
202 231 0.9572601318359375
202 232 0.1805950105190277
202 233 0.9499843716621399
202 234 0.15540573000907898
202 235 0.9572601318359375
202 236 0.9317962527275085
202 237 0.9642873406410217
202 238 0.07239537686109543
202 239 0.24708452820777893
202 240 0.9472763538360596
202 241 0.9636051654815674
202 242 0.9578062295913696
202 243 0.10737969726324081
202 244 0.9506322741508484
202 245 0.9439581036567688
202 246 0.06475239247083664
202 247 0.9479285478591919
202 248 0.9588484764099121
202 249 0.07930515706539154
202 250 0.9627074003219604
202 251 0.20854441821575165
202 252 0.9495315551757812
202 253 0.18314741551876068
202 254 0.9522321820259094
202 255 0.9648295044898987
203 204 0.1649915874004364
203 205 0.9614583253860474
203 206 0.9588328003883362
203 207 0.9571624994277954
203 208 0.10206206887960434
203 209 0.17712298035621643
203 210 0.1406828761100769
203 211 0.966395378112793
203 212 0.10833333432674408
203 213 0.9582074284553528
203 214 0.12587414681911469
203 215 0.9582484364509583
203 216 0.944034218788147
203 217 0.9615405201911926
203 218 0.2941194176673889
203 219 0.09731236845254898
203 221 0.9652373194694519
203 222 0.9265496134757996
203 223 0.09731236845254898
203 224 0.963040292263031
203 225 0.125
203 226 0.9586710333824158
203 227 0.9587500095367432
203 228 0.125
203 229 0.10704360902309418
203 230 0.9448228478431702
203 231 0.9615405201911926
203 232 0.16911886632442474
203 233 0.9554101824760437
203 234 0.1613743007183075
203 235 0.9625800251960754
203 236 0.9395321011543274
203 237 0.9674709439277649
203 238 0.05773502215743065
203 239 0.24631115794181824
203 240 0.9485178589820862
203 241 0.9657759666442871
203 242 0.96312016248703
203 243 0.09731236845254898
203 244 0.9549869298934937
203 245 0.950498104095459
203 246 0.06454972177743912
203 247 0.956498384475708
203 248 0.962081253528595
203 249 0.07905694842338562
203 250 0.9669333696365356
203 251 0.2124110758304596
203 252 0.9559937119483948
203 253 0.1654578596353531
203 254 0.9555312395095825
203 255 0.966975212097168
204 205 0.1649915874004364
204 206 0.17097321152687073
204 207 0.16550961136817932
204 211 0.17559179663658142
204 213 0.16550961136817932
204 214 0.08377078175544739
204 215 0.17714613676071167
204 216 0.14967107772827148
204 217 0.15876860916614532
204 221 0.17613568902015686
204 222 0.14712578058242798
204 224 0.15901623666286469
204 226 0.17761120200157166
204 227 0.17723886668682098
204 230 0.16287536919116974
204 231 0.16464892029762268
204 233 0.13660019636154175
204 235 0.17052924633026123
204 236 0.14462029933929443
204 237 0.17541161179542542
204 240 0.17845766246318817
204 241 0.16430838406085968
204 242 0.17044085264205933
204 243 0.11009637266397476
204 244 0.17178116738796234
204 245 0.16709347069263458
204 247 0.16612018644809723
204 248 0.17631812393665314
204 250 0.17550162971019745
204 251 0.0766964927315712
204 252 0.16603253781795502
204 253 0.06454972177743912
204 254 0.16577045619487762
204 255 0.1694776564836502
205 206 0.9598750472068787
205 207 0.9550725817680359
205 208 0.09185586124658585
205 209 0.18265806138515472
205 210 0.12587414681911469
205 211 0.965360701084137
205 212 0.125
205 213 0.9582074284553528
205 214 0.0666392520070076
205 215 0.9561607241630554
205 216 0.9514425992965698
205 217 0.9636195302009583
205 218 0.2941194176673889
205 219 0.09731236845254898
205 220 0.055901702493429184
205 221 0.9641993641853333
205 222 0.9276333451271057
205 223 0.09731236845254898
205 224 0.9588757753372192
205 225 0.06666667014360428
205 226 0.9586710333824158
205 227 0.95561683177948
205 228 0.10833333432674408
205 229 0.08758113533258438
205 230 0.9394908547401428
205 231 0.9615405201911926
205 232 0.18548521399497986
205 233 0.9543602466583252
205 234 0.1484643667936325
205 235 0.9615405201911926
205 236 0.94272780418396
205 237 0.9674709439277649
205 238 0.07216878235340118
205 239 0.24631115794181824
205 240 0.9548272490501404
205 241 0.9647386074066162
205 242 0.9651980996131897
205 243 0.08758113533258438
205 244 0.9528926610946655
205 245 0.9526079893112183
205 247 0.9533520340919495
205 248 0.9610422849655151
205 249 0.05270463228225708
205 250 0.9679675102233887
205 251 0.2304886132478714
205 252 0.95389723777771
205 253 0.1654578596353531
205 254 0.9607641696929932
205 255 0.968008279800415
206 207 0.9618433117866516
206 208 0.10211528092622757
206 209 0.17167732119560242
206 210 0.14075618982315063
206 211 0.9679343104362488
206 212 0.1250651478767395
206 213 0.9566159248352051
206 214 0.14075618982315063
206 215 0.956659197807312
206 216 0.9455852508544922
206 217 0.9620417952537537
206 218 0.27350053191185
206 219 0.10709939897060394
206 220 0.055930834263563156
206 221 0.9667788743972778
206 222 0.9194428324699402
206 223 0.09736309200525284
206 224 0.9625005125999451
206 225 0.0750390887260437
206 226 0.9549822211265564
206 227 0.9582048654556274
206 228 0.11672747135162354
206 229 0.07789047062397003
206 230 0.9378466010093689
206 231 0.9599616527557373
206 232 0.18012358248233795
206 233 0.9506559371948242
206 234 0.15500007569789886
206 235 0.966201901435852
206 236 0.9368245005607605
206 237 0.9700434803962708
206 238 0.05776512250304222
206 239 0.23054024577140808
206 240 0.9500643014907837
206 241 0.9631656408309937
206 242 0.9615431427955627
206 243 0.10709939897060394
206 244 0.9565324187278748
206 245 0.9478271007537842
206 246 0.06458336859941483
206 247 0.9517502188682556
206 248 0.9615431427955627
206 249 0.06591512262821198
206 250 0.9674373269081116
206 251 0.22608698904514313
206 252 0.9533457159996033
206 253 0.14271043241024017
206 254 0.9539351463317871
206 255 0.9695464372634888
207 208 0.08190601319074631
207 209 0.1665741503238678
207 210 0.11141412705183029
207 211 0.9642398953437805
207 212 0.1170329600572586
207 213 0.957023024559021
207 214 0.1188417375087738
207 215 0.9591628909111023
207 216 0.9469982385635376
207 217 0.9614312052726746
207 218 0.2811584770679474
207 219 0.08785611391067505
207 221 0.9620209336280823
207 222 0.9196749329566956
207 223 0.08785611391067505
207 224 0.9639750719070435
207 225 0.1170329600572586
207 226 0.9553817510604858
207 227 0.9554742574691772
207 228 0.10867346078157425
207 229 0.09761790186166763
207 230 0.9349523782730103
207 231 0.9593456387519836
207 232 0.1751224398612976
207 233 0.9499843716621399
207 234 0.14893050491809845
207 235 0.9614312052726746
207 236 0.9350019693374634
207 237 0.9663610458374023
207 238 0.07239537686109543
207 239 0.2550550103187561
207 240 0.9493861198425293
207 241 0.9656863808631897
207 242 0.9598907232284546
207 243 0.09761790186166763
207 244 0.9558843970298767
207 245 0.9439581036567688
207 247 0.9521368741989136
207 248 0.9619751572608948
207 249 0.06608763337135315
207 250 0.9658195972442627
207 251 0.21761155128479004
207 252 0.952686071395874
207 253 0.14880727231502533
207 254 0.9543318748474121
207 255 0.9689748287200928
208 209 0.05423261597752571
208 210 0.07254762947559357
208 211 0.09124016761779785
208 213 0.08190601319074631
208 214 0.14509525895118713
208 215 0.10227537155151367
208 216 0.07258661836385727
208 217 0.061110060662031174
208 218 0.1017095223069191
208 221 0.10169199109077454
208 222 0.09556100517511368
208 224 0.06120537221431732
208 225 0.08164965361356735
208 226 0.06152632459998131
208 227 0.10232890397310257
208 228 0.3265986144542694
208 230 0.08358766883611679
208 232 0.10690449923276901
208 233 0.10286889225244522
208 234 0.06324554979801178
208 235 0.061110060662031174
208 236 0.07305949926376343
208 237 0.10127393156290054
208 240 0.05151629075407982
208 241 0.09147550910711288
208 242 0.09161758422851562
208 244 0.08207826316356659
208 245 0.0930260494351387
208 246 0.3162277638912201
208 247 0.10276021808385849
208 248 0.06107838824391365
208 250 0.07092813402414322
208 251 0.08856149017810822
208 253 0.05590169504284859
208 254 0.08203510195016861
209 210 0.07868894189596176
209 211 0.170437753200531
209 213 0.1665741503238678
209 215 0.16639980673789978
209 216 0.1349678337574005
209 217 0.1436135321855545
209 218 0.16547919809818268
209 219 0.1034175381064415
209 221 0.17096570134162903
209 222 0.14395897090435028
209 223 0.15512630343437195
209 224 0.1770308017730713
209 226 0.1390305608510971
209 227 0.17203648388385773
209 228 0.22140371799468994
209 229 0.05170876905322075
209 230 0.16999417543411255
209 231 0.17123152315616608
209 233 0.18968088924884796
209 234 0.20579829812049866
209 235 0.15466073155403137
209 236 0.18112948536872864
209 237 0.16477051377296448
209 238 0.0766964927315712
209 240 0.1452808678150177
209 241 0.1708773672580719
209 242 0.1711427867412567
209 243 0.05170876905322075
209 244 0.17248861491680145
209 245 0.17377379536628723
209 247 0.17276160418987274
209 248 0.18218424916267395
209 249 0.07001400738954544
209 250 0.16485506296157837
209 252 0.18381048738956451
209 253 0.0909508615732193
209 254 0.1723978966474533
209 255 0.17566514015197754
210 211 0.13238516449928284
210 213 0.1188417375087738
210 214 0.10526315867900848
210 215 0.1335570365190506
210 216 0.1278882473707199
210 217 0.12561272084712982
210 219 0.06917144358158112
210 221 0.13279521465301514
210 222 0.12324842065572739
210 223 0.13834288716316223
210 224 0.11840812116861343
210 225 0.11846978217363358
210 226 0.11902903765439987
210 227 0.14105066657066345
210 228 0.11846978217363358
210 230 0.12886185944080353
210 231 0.14039067924022675
210 233 0.1343320906162262
210 235 0.13300170004367828
210 236 0.12872140109539032
210 237 0.12490212172269821
210 240 0.09717198461294174
210 241 0.1253529042005539
210 242 0.11816245317459106
210 243 0.06917144358158112
210 244 0.11164843291044235
210 245 0.12747769057750702
210 246 0.11470786482095718
210 247 0.13419018685817719
210 248 0.11816245317459106
210 249 0.09365858137607574
210 250 0.1323171705007553
210 252 0.13411937654018402
210 253 0.08111070841550827
210 254 0.12646834552288055
210 255 0.1321815401315689
211 212 0.12416214495897293
211 213 0.966315746307373
211 214 0.13973988592624664
211 215 0.9642676711082458
211 216 0.9566288590431213
211 217 0.9705835580825806
211 218 0.2852739095687866
211 219 0.09666009992361069
211 220 0.05552699789404869
211 221 0.9701077342033386
211 222 0.9257212281227112
211 223 0.08699408918619156
211 224 0.9689948558807373
211 225 0.12416214495897293
211 226 0.9605617523193359
211 227 0.9637349247932434
211 228 0.09105224162340164
211 229 0.10632611066102982
211 230 0.9427267909049988
211 231 0.9695510268211365
211 232 0.18966080248355865
211 233 0.9573491811752319
211 234 0.14105752110481262
211 235 0.972648561000824
211 236 0.9438154101371765
211 237 0.9733064770698547
211 238 0.07168504595756531
211 239 0.25255247950553894
211 240 0.9567833542823792
211 241 0.9706369042396545
211 242 0.9721445441246033
211 243 0.10632611066102982
211 244 0.9662677645683289
211 245 0.9535578489303589
211 246 0.06411705911159515
211 247 0.9594630002975464
211 248 0.9690485596656799
211 249 0.07852703332901001
211 250 0.9738059639930725
211 251 0.22894369065761566
211 252 0.9610392451286316
211 253 0.16434882581233978
211 254 0.9616013765335083
211 255 0.9748600125312805
212 213 0.1170329600572586
212 214 0.05923489108681679
212 215 0.12526123225688934
212 216 0.11853344738483429
212 217 0.08316026628017426
212 218 0.11072731018066406
212 219 0.07784989476203918
212 221 0.1162436306476593
212 222 0.10403364151716232
212 223 0.07784989476203918
212 224 0.11660595238208771
212 226 0.11721741408109665
212 227 0.10861656069755554
212 230 0.09384245425462723
212 231 0.12474039196968079
212 232 0.08728715777397156
212 233 0.11758894473314285
212 235 0.12474039196968079
212 236 0.11078383028507233
212 237 0.1157657578587532
212 240 0.1177760437130928
212 241 0.1161835715174675
212 242 0.1080523133277893
212 243 0.07784989476203918
212 244 0.11727909743785858
212 245 0.10971342772245407
212 247 0.12585505843162537
212 248 0.12467575073242188
212 250 0.11582516878843307
212 251 0.07231015712022781
212 252 0.1257886439561844
212 254 0.10047207027673721
212 255 0.1157064288854599
213 214 0.09655890613794327
213 215 0.9539272785186768
213 216 0.9438133239746094
213 217 0.96247398853302
213 218 0.28462958335876465
213 219 0.07809432595968246
213 220 0.05607721582055092
213 221 0.9609798192977905
213 222 0.9175007939338684
213 223 0.07809432595968246
213 224 0.9587531089782715
213 225 0.09195447713136673
213 226 0.9511822462081909
213 227 0.9523311853408813
213 228 0.10867346078157425
213 229 0.10737969726324081
213 230 0.9338826537132263
213 231 0.9635167121887207
213 232 0.1805950105190277
213 233 0.951037585735321
213 234 0.14245526492595673
213 235 0.9593456387519836
213 236 0.9403448700904846
213 237 0.9642873406410217
213 238 0.07239537686109543
213 239 0.2510697543621063
213 240 0.9493861198425293
213 241 0.9615238904953003
213 242 0.9713551998138428
213 243 0.06833253055810928
213 244 0.9590356945991516
213 245 0.9471328854560852
213 247 0.9479285478591919
213 248 0.9609329700469971
213 249 0.06608763337135315
213 250 0.9668569564819336
213 251 0.21761155128479004
213 252 0.9547891616821289
213 253 0.16025398671627045
213 254 0.9543318748474121
213 255 0.9669021368026733
214 215 0.14097686111927032
214 216 0.09027405083179474
214 217 0.1108347475528717
214 219 0.27668577432632446
214 221 0.12541770935058594
214 222 0.10784237086772919
214 223 0.13834288716316223
214 224 0.13320913910865784
214 225 0.29617446660995483
214 226 0.12646834552288055
214 227 0.14105066657066345
214 228 0.11846978217363358
214 230 0.09854141622781754
214 231 0.13300170004367828
214 233 0.12686920166015625
214 234 0.09176629036664963
214 235 0.13300170004367828
214 236 0.08329032361507416
214 237 0.12490212172269821
214 240 0.09717198461294174
214 241 0.11797920614480972
214 242 0.10339214652776718
214 243 0.20751431584358215
214 244 0.13397812843322754
214 245 0.10498162358999252
214 246 0.34412357211112976
214 247 0.13419018685817719
214 248 0.1403179168701172
214 249 0.09365858137607574
214 250 0.12496621906757355
214 251 0.06424925476312637
214 252 0.1266683042049408
214 253 0.1216660588979721
214 254 0.09671108424663544
214 255 0.12483812123537064
215 216 0.9407044053077698
215 217 0.9593833684921265
215 218 0.2808642089366913
215 219 0.10726731270551682
215 221 0.9630942940711975
215 222 0.9165405631065369
215 223 0.10726731270551682
215 224 0.9598363637924194
215 225 0.12526123225688934
215 226 0.9554306864738464
215 227 0.9565674066543579
215 228 0.12526123225688934
215 229 0.10726731270551682
215 230 0.9371798038482666
215 231 0.9593833684921265
215 232 0.19133968651294708
215 233 0.9531984329223633
215 234 0.15524308383464813
215 235 0.9593833684921265
215 236 0.9350908994674683
215 237 0.9663854837417603
215 238 0.05785568431019783
215 239 0.2547880709171295
215 240 0.9473387598991394
215 241 0.964675784111023
215 242 0.9588861465454102
215 243 0.10726731270551682
215 244 0.9580320715904236
215 245 0.9461416602134705
215 246 0.06468462198972702
215 247 0.9521914124488831
215 248 0.9609683752059937
215 249 0.0660184696316719
215 250 0.9637725353240967
215 251 0.21738381683826447
215 252 0.9495882391929626
215 253 0.16580364108085632
215 254 0.9512355923652649
215 255 0.9648550152778625
216 217 0.9547473192214966
216 218 0.29179441928863525
216 219 0.07909556478261948
216 220 0.056796181946992874
216 221 0.9532651305198669
216 222 0.9105466604232788
216 223 0.08898251503705978
216 224 0.9456585645675659
216 225 0.09313342720270157
216 226 0.9474274516105652
216 227 0.9422580003738403
216 228 0.08466675132513046
216 229 0.1087564080953598
216 230 0.9231034517288208
216 231 0.9462981820106506
216 232 0.18845315277576447
216 233 0.9344298839569092
216 234 0.11804865300655365
216 235 0.9473543167114258
216 236 0.9253441095352173
216 237 0.9524967670440674
216 238 0.0733235627412796
216 239 0.23410707712173462
216 240 0.940190315246582
216 241 0.9527726173400879
216 242 0.9489745497703552
216 243 0.09886946529150009
216 244 0.9404788017272949
216 245 0.9389115571975708
216 247 0.9377049803733826
216 248 0.9458077549934387
216 249 0.06693494319915771
216 250 0.9550870060920715
216 251 0.2204015552997589
216 252 0.9382752776145935
216 253 0.15651187300682068
216 254 0.9431741237640381
216 255 0.9530583024024963
217 218 0.2866024672985077
217 219 0.08739923685789108
217 220 0.05578560009598732
217 221 0.9694470763206482
217 222 0.9278696775436401
217 223 0.07768820971250534
217 224 0.9672739505767822
217 225 0.10810833424329758
217 226 0.9619020819664001
217 227 0.963012158870697
217 228 0.08316026628017426
217 229 0.10682129114866257
217 230 0.9460530877113342
217 231 0.9668049812316895
217 232 0.1633235216140747
217 233 0.953425943851471
217 234 0.12883132696151733
217 235 0.9688796401023865
217 236 0.941832959651947
217 237 0.9726819396018982
217 238 0.07201889902353287
217 239 0.24976414442062378
217 240 0.9591404795646667
217 241 0.9679110050201416
217 242 0.9652671217918396
217 243 0.09711026400327682
217 244 0.9571834206581116
217 245 0.9495768547058105
217 247 0.9555584788322449
217 248 0.9642303586006165
217 249 0.06574396789073944
217 250 0.9711171984672546
217 251 0.23000992834568024
217 252 0.9581925272941589
217 253 0.16511422395706177
217 254 0.9587688446044922
217 255 0.9773383140563965
218 219 0.06465081870555878
218 221 0.29305288195610046
218 222 0.2267874926328659
218 223 0.09697622805833817
218 224 0.28359103202819824
218 226 0.28855472803115845
218 227 0.29488834738731384
218 228 0.1660909503698349
218 229 0.06465081870555878
218 230 0.2869310975074768
218 231 0.2727903127670288
218 233 0.299932062625885
218 234 0.15009574592113495
218 235 0.2727903127670288
218 236 0.27246442437171936
218 237 0.28841468691825867
218 240 0.27945050597190857
218 241 0.2860097289085388
218 242 0.2622951865196228
218 243 0.06465081870555878
218 244 0.28174975514411926
218 245 0.2838490605354309
218 247 0.28219571709632874
218 248 0.2622951865196228
218 249 0.08753762394189835
218 250 0.2679510712623596
218 251 0.15012578666210175
218 252 0.2785647511482239
218 253 0.05685735121369362
218 254 0.29203128814697266
218 255 0.2848351299762726
219 221 0.09695951640605927
219 222 0.08099008351564407
219 223 0.27272725105285645
219 224 0.10698790103197098
219 225 0.07784989476203918
219 226 0.09777174890041351
219 227 0.10732346028089523
219 228 0.15569978952407837
219 231 0.10682129114866257
219 233 0.09808164834976196
219 234 0.24120908975601196
219 235 0.09711026400327682
219 236 0.059708140790462494
219 237 0.08690482378005981
219 240 0.09823770821094513
219 241 0.08721847832202911
219 242 0.08735393732786179
219 243 0.1818181723356247
219 244 0.09782319515943527
219 245 0.08869685977697372
219 247 0.10777582228183746
219 248 0.10676592588424683
219 249 0.12309149652719498
219 250 0.086949422955513
219 251 0.08444005995988846
219 252 0.10771896690130234
219 253 0.053300175815820694
219 254 0.08799457550048828
219 255 0.10616257041692734
220 221 0.055698998272418976
220 222 0.0581565760076046
220 224 0.055872607976198196
220 226 0.05616559833288193
220 231 0.05578560009598732
220 235 0.05578560009598732
220 236 0.057166192680597305
220 237 0.055470019578933716
220 239 0.07106690853834152
220 240 0.05643326789140701
220 241 0.05567022040486336
220 242 0.05575668811798096
220 244 0.05619514361023903
220 245 0.056613851338624954
220 247 0.056284088641405106
220 250 0.05549848824739456
220 252 0.05625439062714577
220 254 0.05616559833288193
220 255 0.05544159188866615
221 222 0.9285887479782104
221 223 0.0872635617852211
221 224 0.9678469896316528
221 225 0.1162436306476593
221 226 0.9656227827072144
221 227 0.9667201638221741
221 228 0.1162436306476593
221 229 0.10665546357631683
221 230 0.9445844292640686
221 231 0.9642683863639832
221 232 0.18481262028217316
221 233 0.9582224488258362
221 234 0.15435758233070374
221 235 0.9642683863639832
221 236 0.9414321184158325
221 237 0.9722018837928772
221 238 0.05752567946910858
221 239 0.21770955622196198
221 240 0.9555560350418091
221 241 0.9705427289009094
221 242 0.9658389687538147
221 243 0.09695951640605927
221 244 0.9609141945838928
221 245 0.9554604291915894
221 246 0.06431566923856735
221 247 0.9551200270652771
221 248 0.9648038148880005
221 249 0.06564190238714218
221 250 0.971670389175415
221 251 0.22965285181999207
221 252 0.9556605815887451
221 253 0.1591731458902359
221 254 0.9604088068008423
221 255 0.9706743359565735
222 223 0.08099008351564407
222 224 0.924984335899353
222 225 0.08669470995664597
222 226 0.9233020544052124
222 227 0.9159337878227234
222 228 0.08669470995664597
222 229 0.09111384302377701
222 230 0.9052752256393433
222 231 0.9213810563087463
222 232 0.18729150295257568
222 233 0.9142137169837952
222 234 0.1477375477552414
222 235 0.9246253371238708
222 236 0.9042885303497314
222 237 0.9301478862762451
222 238 0.06006385013461113
222 239 0.2645125091075897
222 240 0.9189503192901611
222 241 0.9302673935890198
222 242 0.9273887276649475
222 243 0.08099008351564407
222 244 0.9139834642410278
222 245 0.915306031703949
222 247 0.9176122546195984
222 248 0.9295504689216614
222 249 0.05483054742217064
222 250 0.931701123714447
222 251 0.1927689015865326
222 252 0.9171280860900879
222 253 0.1305827796459198
222 254 0.9211243987083435
222 255 0.9307460188865662
223 224 0.09726172685623169
223 225 0.07784989476203918
223 226 0.09777174890041351
223 227 0.10732346028089523
223 228 0.15569978952407837
223 230 0.059773288667201996
223 231 0.10682129114866257
223 232 0.05096472054719925
223 233 0.1078898087143898
223 234 0.06030227243900299
223 235 0.08739923685789108
223 236 0.06965950131416321
223 237 0.09656091034412384
223 239 0.11134044080972672
223 240 0.08841393142938614
223 241 0.08721847832202911
223 242 0.06794194877147675
223 243 0.1818181723356247
223 244 0.08804087340831757
223 245 0.07884165644645691
223 247 0.10777582228183746
223 248 0.10676592588424683
223 249 0.36927446722984314
223 250 0.09661047160625458
223 252 0.10771896690130234
223 253 0.10660035163164139
223 254 0.08799457550048828
223 255 0.10616257041692734
224 225 0.12493494898080826
224 226 0.9634023308753967
224 227 0.9582510590553284
224 228 0.0999479591846466
224 229 0.0875355526804924
224 230 0.9411335587501526
224 231 0.9641570448875427
224 232 0.1363152116537094
224 233 0.9580610394477844
224 234 0.1548387110233307
224 235 0.9662349820137024
224 236 0.9390431642532349
224 237 0.9700667262077332
224 238 0.07213123142719269
224 239 0.23427090048789978
224 240 0.9543302655220032
224 241 0.9652733206748962
224 242 0.9646956920623779
224 243 0.09726172685623169
224 244 0.9597228765487671
224 245 0.9468402862548828
224 247 0.9528558850288391
224 248 0.9636573195457458
224 249 0.0658465027809143
224 250 0.9705645442008972
224 251 0.2258516252040863
224 252 0.9607347249984741
224 253 0.13115690648555756
224 254 0.9560800194740295
224 255 0.9736998081207275
225 226 0.11721741408109665
225 227 0.11697167903184891
225 228 0.13333334028720856
225 229 0.15569978952407837
225 230 0.09384245425462723
225 231 0.12474039196968079
225 233 0.11758894473314285
225 234 0.1549193263053894
225 235 0.10810833424329758
225 236 0.09374017268419266
225 237 0.10749676823616028
225 240 0.10095089673995972
225 241 0.10788474231958389
225 242 0.09974059462547302
225 243 0.15569978952407837
225 244 0.12565617263317108
225 245 0.08439495414495468
225 246 0.25819888710975647
225 247 0.12585505843162537
225 248 0.12467575073242188
225 249 0.10540926456451416
225 250 0.11582516878843307
225 252 0.10901682078838348
225 253 0.09128709137439728
225 254 0.0920993983745575
225 255 0.10744168609380722
226 227 0.9601280093193054
226 228 0.10884474217891693
226 229 0.10754892975091934
226 230 0.9364258646965027
226 231 0.9598132371902466
226 232 0.17539842426776886
226 233 0.9462072253227234
226 234 0.16213610768318176
226 235 0.9598132371902466
226 236 0.9354053139686584
226 237 0.9658071398735046
226 238 0.058007579296827316
226 239 0.24348244071006775
226 240 0.9519389271736145
226 241 0.9599125981330872
226 242 0.9572281241416931
226 243 0.10754892975091934
226 244 0.9500264525413513
226 245 0.9486256241798401
226 247 0.950476348400116
226 248 0.9561842679977417
226 249 0.07943014800548553
226 250 0.9652637243270874
226 251 0.23157669603824615
226 252 0.9520812630653381
226 253 0.1490418016910553
226 254 0.9526813626289368
226 255 0.9663501381874084
227 228 0.12532679736614227
227 229 0.08781010657548904
227 230 0.9344627261161804
227 231 0.9578010439872742
227 232 0.18050041794776917
227 233 0.9526447653770447
227 234 0.1617961972951889
227 235 0.9588432908058167
227 236 0.9345123171806335
227 237 0.9648186564445496
227 238 0.05788596719503403
227 239 0.2190731018781662
227 240 0.9520519375801086
227 241 0.9610204100608826
227 242 0.9583463072776794
227 243 0.10732346028089523
227 244 0.9543339610099792
227 245 0.9466368556022644
227 246 0.06471847742795944
227 247 0.9526897668838501
227 248 0.959388017654419
227 249 0.07926362752914429
227 250 0.9632400870323181
227 251 0.2310912013053894
227 252 0.9500852227210999
227 253 0.17733114957809448
227 254 0.9517335295677185
227 255 0.9663957953453064
228 229 0.07784989476203918
228 230 0.11090470850467682
228 231 0.09147629141807556
228 233 0.1259881556034088
228 234 0.1549193263053894
228 235 0.09979230910539627
228 236 0.0766965001821518
228 237 0.10749676823616028
228 240 0.05047544836997986
228 241 0.09128709137439728
228 242 0.1080523133277893
228 243 0.07784989476203918
228 244 0.10052493959665298
228 245 0.10971342772245407
228 246 0.12909944355487823
228 247 0.11746471375226974
228 248 0.09974059462547302
228 249 0.21081852912902832
228 250 0.09100548923015594
228 252 0.09224501252174377
228 253 0.18257418274879456
228 254 0.10047207027673721
228 255 0.09917693585157394
229 230 0.10958436876535416
229 231 0.10682129114866257
229 233 0.08827348053455353
229 235 0.10682129114866257
229 236 0.10946492850780487
229 237 0.10621700435876846
229 240 0.08841393142938614
229 241 0.09690941870212555
229 242 0.10676592588424683
229 244 0.09782319515943527
229 245 0.10840727388858795
229 247 0.09797801822423935
229 248 0.08735393732786179
229 249 0.12309149652719498
229 250 0.10627152025699615
229 252 0.10771896690130234
229 253 0.15990053117275238
229 254 0.10754892975091934
229 255 0.10616257041692734
230 231 0.9396679997444153
230 232 0.1731330305337906
230 233 0.9340198636054993
230 234 0.12555554509162903
230 235 0.9428605437278748
230 236 0.9247551560401917
230 237 0.947050154209137
230 239 0.2521575689315796
230 240 0.9268938302993774
230 241 0.9451584219932556
230 242 0.9381173849105835
230 243 0.09962215274572372
230 244 0.9294147491455078
230 245 0.927699863910675
230 247 0.9265909790992737
230 248 0.9391809701919556
230 249 0.05395561456680298
230 250 0.9454188346862793
230 251 0.18969286978244781
230 252 0.9325408339500427
230 253 0.14602164924144745
230 254 0.9374973773956299
230 255 0.9507952928543091
231 232 0.1742117553949356
231 233 0.9523782730102539
231 234 0.1417144536972046
231 235 0.9678422808647156
231 236 0.9460850358009338
231 237 0.9706190228462219
231 238 0.057615119963884354
231 239 0.2616576552391052
231 240 0.9538935422897339
231 241 0.9668757319450378
231 242 0.9642303586006165
231 243 0.09711026400327682
231 244 0.9571834206581116
231 245 0.9474713206291199
231 247 0.9586983919143677
231 248 0.9673407077789307
231 249 0.07889275252819061
231 250 0.976277232170105
231 251 0.22098992764949799
231 252 0.9613307118415833
231 253 0.17650140821933746
231 254 0.9587688446044922
231 255 0.9752764105796814
232 233 0.18695153295993805
232 235 0.1742117553949356
232 236 0.16736547648906708
232 237 0.17863954603672028
232 239 0.08322504162788391
232 240 0.16521969437599182
232 241 0.19015000760555267
232 242 0.18500405550003052
232 244 0.1700066477060318
232 245 0.19337311387062073
232 246 0.08451543003320694
232 247 0.18126124143600464
232 248 0.19044534862041473
232 250 0.1733151376247406
232 251 0.0710071548819542
232 252 0.16469600796699524
232 253 0.05976143106818199
232 254 0.17539842426776886
232 255 0.16231638193130493
233 234 0.162650004029274
233 235 0.953425943851471
233 236 0.9308546185493469
233 237 0.9584503173828125
233 238 0.058191437274217606
233 239 0.24024999141693115
233 240 0.9422375559806824
233 241 0.9556362628936768
233 242 0.9529317617416382
233 243 0.09808164834976196
233 244 0.9477605223655701
233 245 0.9399363398551941
233 246 0.06506000459194183
233 247 0.948203444480896
233 248 0.9539790153503418
233 249 0.06640159338712692
233 250 0.9578999280929565
233 251 0.2140902429819107
233 252 0.9455901980400085
233 253 0.14951419830322266
233 254 0.9462072253227234
233 255 0.961082935333252
234 235 0.13527289032936096
234 236 0.14522165060043335
234 237 0.14091278612613678
234 240 0.14335975050926208
234 241 0.1414213627576828
234 242 0.11588810384273529
234 243 0.12060454487800598
234 244 0.15573255717754364
234 245 0.150355726480484
234 247 0.15597903728485107
234 248 0.15451745688915253
234 249 0.08164966106414795
234 250 0.1345766931772232
234 252 0.15589673817157745
234 254 0.13619433343410492
234 255 0.15364424884319305
235 236 0.9386438727378845
235 237 0.9706190228462219
235 238 0.07201889902353287
235 239 0.2616576552391052
235 240 0.9559923410415649
235 241 0.9668757319450378
235 242 0.9663039445877075
235 243 0.10682129114866257
235 244 0.958228349685669
235 245 0.9495768547058105
235 247 0.9534652829170227
235 248 0.9642303586006165
235 249 0.07889275252819061
235 250 0.9700852036476135
235 251 0.2074599415063858
235 252 0.9634228348731995
235 253 0.16511422395706177
235 254 0.960857629776001
235 255 0.9804311394691467
236 237 0.9460179805755615
236 238 0.07380124181509018
236 239 0.23156960308551788
236 240 0.9301850199699402
236 241 0.9420065879821777
236 242 0.9477195143699646
236 243 0.059708140790462494
236 244 0.9305433630943298
236 245 0.9331616163253784
236 247 0.9352337121963501
236 248 0.9402822852134705
236 249 0.06737101078033447
236 250 0.9517912268638611
236 251 0.21259421110153198
236 252 0.93581223487854
236 253 0.16920050978660583
236 254 0.940756618976593
236 255 0.9465896487236023
237 238 0.05728919059038162
237 239 0.26017746329307556
237 240 0.9599753022193909
237 241 0.9727289080619812
237 242 0.9701159596443176
237 243 0.09656091034412384
237 244 0.9621590971946716
237 245 0.9578132629394531
237 246 0.06405126303434372
237 247 0.9605597853660583
237 248 0.9711469411849976
237 249 0.0653720498085022
237 250 0.9799898862838745
237 251 0.21525529026985168
237 252 0.9610931277275085
237 253 0.16984155774116516
237 254 0.9637300968170166
237 255 0.9769350290298462
238 240 0.07285503298044205
238 241 0.07186995446681976
238 242 0.07198157161474228
238 244 0.058038100600242615
238 245 0.07308816909790039
238 247 0.07266244292259216
238 248 0.07198157161474228
238 250 0.07164823263883591
238 252 0.07262410968542099
238 254 0.07250947505235672
238 255 0.07157479226589203
239 240 0.2566744089126587
239 241 0.2571601867675781
239 242 0.21793505549430847
239 243 0.07422696053981781
239 244 0.23961693048477173
239 245 0.25347238779067993
239 247 0.23599624633789062
239 248 0.24963468313217163
239 249 0.05025189369916916
239 250 0.25636687874794006
239 252 0.2598586976528168
239 254 0.26343998312950134
239 255 0.260044127702713
240 241 0.957156777381897
240 242 0.9544479846954346
240 243 0.09823770821094513
240 244 0.9492685794830322
240 245 0.9382369518280029
240 247 0.9412420988082886
240 248 0.9575945138931274
240 249 0.05320579558610916
240 250 0.9604679346084595
240 251 0.22355559468269348
240 252 0.9492111206054688
240 253 0.16127148270606995
240 254 0.947712779045105
240 255 0.9636550545692444
241 242 0.9684440493583679
241 243 0.07752753794193268
241 244 0.961460530757904
241 245 0.9528656601905823
241 247 0.9588043689727783
241 248 0.9674093723297119
241 249 0.05248638987541199
241 250 0.9711683392524719
241 251 0.2205328643321991
241 252 0.960386335849762
241 253 0.15340907871723175
241 254 0.9651238322257996
241 255 0.9722304344177246
242 243 0.06794194877147675
242 244 0.9619094133377075
242 245 0.9532934427261353
242 246 0.06438227742910385
242 247 0.956109344959259
242 248 0.9658031463623047
242 249 0.06570988893508911
242 250 0.9716453552246094
242 251 0.2163677215576172
242 252 0.95665043592453
242 253 0.17071929574012756
242 254 0.959315836429596
242 255 0.970649242401123
243 244 0.09782319515943527
243 245 0.08869685977697372
243 247 0.09797801822423935
243 248 0.10676592588424683
243 249 0.12309149652719498
243 250 0.09661047160625458
243 252 0.10771896690130234
243 253 0.053300175815820694
243 254 0.08799457550048828
243 255 0.10616257041692734
244 245 0.9427618980407715
244 246 0.06488857418298721
244 247 0.9478135108947754
244 248 0.959820568561554
244 249 0.06622661650180817
244 250 0.962652862071991
244 251 0.2180691957473755
244 252 0.950474739074707
244 253 0.13764943182468414
244 254 0.9489744305610657
244 255 0.9637430310249329
245 247 0.9410675764083862
245 248 0.9490846991539001
245 249 0.06672006100416183
245 250 0.9572575092315674
245 251 0.23342488706111908
245 252 0.9426943063735962
245 253 0.15023130178451538
245 254 0.9475657343864441
245 255 0.9562762379646301
246 247 0.06499126553535461
246 248 0.06438227742910385
246 253 0.1767766922712326
247 248 0.956109344959259
247 249 0.06633143872022629
247 250 0.9600115418434143
247 251 0.22751493752002716
247 252 0.9488127827644348
247 253 0.17807859182357788
247 254 0.9494225382804871
247 255 0.9600675702095032
248 249 0.06570988893508911
248 250 0.9716453552246094
248 251 0.2028447389602661
248 252 0.9650145769119263
248 253 0.17640994489192963
248 254 0.9572281241416931
248 255 0.9737405180931091
249 250 0.06540559232234955
249 252 0.07955572009086609
249 253 0.07216878980398178
249 254 0.06619179248809814
249 255 0.07840625196695328
250 251 0.21985255181789398
250 252 0.9647084474563599
250 253 0.16426442563533783
250 254 0.9652637243270874
250 255 0.9774364233016968
251 252 0.18646381795406342
251 253 0.07426106184720993
251 254 0.22703595459461212
251 255 0.2061806172132492
252 253 0.1607603132724762
252 254 0.9520812630653381
252 255 0.9699571132659912
253 254 0.16050656139850616
253 255 0.16409602761268616
254 255 0.9653121829032898
