0 2 0.07991612702608109
0 3 0.07892601937055588
0 4 0.10749242454767227
0 5 0.08708363026380539
0 6 0.09940534830093384
0 7 0.10621700435876846
0 8 0.10698790103197098
0 9 0.10050377994775772
0 10 0.06951529532670975
0 11 0.10275479406118393
0 12 0.0970599353313446
0 14 0.0936281681060791
0 16 0.09010367840528488
0 17 0.10660036653280258
0 18 0.09772038459777832
0 19 0.10806147754192352
0 20 0.09818560630083084
0 21 0.09751573950052261
0 22 0.10627152025699615
0 25 0.10743601620197296
0 26 0.10817637294530869
0 27 0.059226226061582565
0 28 0.08771830052137375
0 29 0.07982854545116425
0 30 0.10676592588424683
0 32 0.09690941870212555
0 33 0.09430418908596039
0 34 0.08869685977697372
0 35 0.09680946171283722
0 36 0.09886946529150009
0 37 0.08767250180244446
0 38 0.10858141630887985
0 39 0.09716066718101501
0 40 0.07422696053981781
0 42 0.09756678342819214
0 44 0.08813370019197464
0 46 0.07057846337556839
0 47 0.09731236845254898
0 48 0.10682129114866257
0 51 0.11024834215641022
0 53 0.09666009992361069
0 54 0.07000349462032318
0 55 0.10732346028089523
0 56 0.10698790103197098
0 58 0.10649040341377258
0 59 0.11009637266397476
0 60 0.06412070989608765
0 62 0.06988826394081116
0 65 0.11149893701076508
0 66 0.09746478497982025
0 67 0.10621700435876846
0 68 0.09892266243696213
0 69 0.08149699121713638
0 70 0.10704360902309418
0 72 0.0910625234246254
0 73 0.10840727388858795
0 74 0.06672848016023636
0 76 0.10643555223941803
0 77 0.11826248466968536
0 78 0.09871038049459457
0 79 0.21320070326328278
0 80 0.09641269594430923
0 81 0.06838416308164597
0 82 0.15891043841838837
0 83 0.09808164834976196
0 84 0.059708140790462494
0 85 0.10704360902309418
0 86 0.14738263189792633
0 87 0.05408329516649246
0 88 0.09777174890041351
0 89 0.05228869989514351
0 91 0.06808320432901382
0 92 0.12424729764461517
0 93 0.09731236845254898
0 94 0.09761790186166763
0 95 0.09849946945905685
0 96 0.08758113533258438
0 97 0.10749242454767227
0 99 0.08708363026380539
0 100 0.10737969726324081
0 101 0.10760551691055298
0 102 0.09666009992361069
0 104 0.05698028579354286
0 105 0.09876332432031631
0 106 0.06700251251459122
0 107 0.10643555223941803
0 108 0.10682129114866257
0 110 0.10946492850780487
0 111 0.09711026400327682
0 112 0.10665546357631683
0 113 0.09661047160625458
0 114 0.10800416767597198
0 115 0.10616257041692734
0 116 0.10638079792261124
0 117 0.17782169580459595
0 118 0.09751573950052261
0 119 0.15075567364692688
0 120 0.07801258563995361
0 121 0.08699408918619156
0 122 0.0774475634098053
0 123 0.10698790103197098
0 124 0.07821740210056305
0 125 0.05522102490067482
0 126 0.08771830052137375
0 127 0.09818560630083084
0 128 0.07772853225469589
0 129 0.10627152025699615
0 130 0.203858882188797
0 131 0.08790219575166702
0 132 0.05209322273731232
0 133 0.1302330642938614
0 134 0.08444005995988846
0 135 0.08860225230455399
0 136 0.08708363026380539
0 137 0.10693227499723434
0 138 0.09716066718101501
0 139 0.0804477259516716
0 141 0.09656091034412384
0 142 0.08749004453420639
0 145 0.08790219575166702
0 146 0.10726731270551682
0 147 0.10760551691055298
0 148 0.07879956811666489
0 149 0.0968594029545784
0 150 0.10687673836946487
0 151 0.08855506032705307
0 152 0.09813358634710312
0 154 0.0836242064833641
0 155 0.10660036653280258
0 157 0.08776416629552841
0 158 0.1818181723356247
0 159 0.09651143103837967
0 160 0.15601851046085358
0 162 0.05866304785013199
0 163 0.10660035163164139
0 164 0.10829164832830429
0 165 0.10823395848274231
0 166 0.09670981019735336
0 167 0.10928650945425034
0 168 0.10693227499723434
0 169 0.10806147754192352
0 171 0.1087564080953598
0 172 0.10233961790800095
0 173 0.0968594029545784
0 174 0.0804477259516716
0 175 0.10594569891691208
0 176 0.10660036653280258
0 177 0.10709939897060394
0 179 0.07892601937055588
0 180 0.07776892930269241
0 181 0.07789047062397003
0 183 0.10660036653280258
0 184 0.10610823333263397
0 186 0.08785611391067505
0 187 0.0581156387925148
0 188 0.05863222852349281
0 189 0.1111111119389534
0 190 0.07879956811666489
0 191 0.10621700435876846
0 193 0.1065453439950943
0 194 0.07312723994255066
0 195 0.10704360902309418
0 196 0.10704360902309418
0 198 0.11050641536712646
0 199 0.09940534830093384
0 200 0.11257358640432358
0 201 0.09808164834976196
0 202 0.0983421579003334
0 204 0.10497277975082397
0 206 0.10922722518444061
0 208 0.09670981019735336
0 209 0.09731236845254898
0 210 0.08163690567016602
0 212 0.06084554269909859
0 213 0.1034175381064415
0 214 0.09726172685623169
0 216 0.09711026400327682
0 217 0.10794694721698761
0 218 0.07935196161270142
0 219 0.09716066718101501
0 220 0.10649040341377258
0 221 0.05274273455142975
0 222 0.10627152025699615
0 223 0.1065453439950943
0 224 0.07156562805175781
0 225 0.08749004453420639
0 226 0.07537783682346344
0 227 0.09897594898939133
0 228 0.09989515691995621
0 229 0.08739923685789108
0 230 0.24618299305438995
0 231 0.1053973063826561
0 232 0.10701921582221985
0 233 0.06917144358158112
0 234 0.08735393732786179
0 235 0.11136576533317566
0 236 0.10605397075414658
0 237 0.10754892975091934
0 238 0.10643555223941803
0 239 0.09818560630083084
0 240 0.10649040341377258
0 241 0.09766910970211029
0 243 0.1065453439950943
0 244 0.06954595446586609
0 245 0.1002257689833641
0 246 0.06932052224874496
0 247 0.10709939897060394
0 248 0.10760551691055298
0 249 0.07875755429267883
0 250 0.10709939897060394
0 252 0.10754892975091934
0 253 0.09534625709056854
0 254 0.10732346028089523
0 255 0.07763891667127609
1 2 0.06626295298337936
1 4 0.06482037156820297
1 5 0.0641830563545227
1 7 0.06405126303434372
1 9 0.1666666567325592
1 10 0.05763904005289078
1 11 0.06815981864929199
1 14 0.0690065547823906
1 16 0.0664089098572731
1 17 0.06428243219852448
1 18 0.06482037156820297
1 19 0.0651635229587555
1 20 0.06512895971536636
1 22 0.06408413499593735
1 26 0.06523280590772629
1 30 0.06438227742910385
1 32 0.06428243219852448
1 33 0.10425721108913422
1 34 0.0653720498085022
1 35 0.06421612948179245
1 36 0.06558258086442947
1 37 0.06461706012487411
1 38 0.06547705829143524
1 39 0.06444909423589706
1 42 0.06471847742795944
1 46 0.11704114079475403
1 47 0.06454972177743912
1 48 0.06441566348075867
1 51 0.06648225337266922
1 55 0.06471847742795944
1 56 0.06451612710952759
1 58 0.06421612948179245
1 59 0.18257418274879456
1 63 0.0714285746216774
1 66 0.06465081870555878
1 67 0.06405126303434372
1 70 0.06454972177743912
1 71 0.16222141683101654
1 72 0.050336699932813644
1 73 0.0653720498085022
1 76 0.0641830563545227
1 77 0.0980580747127533
1 78 0.06547705829143524
1 80 0.06395295262336731
1 81 0.0680413767695427
1 82 0.10540925711393356
1 83 0.06506000459194183
1 85 0.06454972177743912
1 86 0.05431254580616951
1 88 0.0648544430732727
1 91 0.06451612710952759
1 94 0.06475239247083664
1 95 0.0653371512889862
1 96 0.06454972177743912
1 97 0.06482037156820297
1 98 0.0980580747127533
1 99 0.0641830563545227
1 101 0.06488857418298721
1 102 0.06411705911159515
1 105 0.06551217287778854
1 107 0.0641830563545227
1 112 0.06431566923856735
1 115 0.06401844322681427
1 116 0.06415002793073654
1 117 0.07372097671031952
1 118 0.06468462198972702
1 123 0.06451612710952759
1 127 0.06512895971536636
1 128 0.06444909423589706
1 130 0.08451543003320694
1 134 0.07001399993896484
1 135 0.06530231237411499
1 136 0.0641830563545227
1 139 0.06670373678207397
1 141 0.2401922345161438
1 142 0.06448258459568024
1 146 0.06468462198972702
1 148 0.0653371512889862
1 150 0.06444909423589706
1 151 0.06526753306388855
1 152 0.06509445607662201
1 153 0.09449111670255661
1 154 0.20801256597042084
1 155 0.06428243219852448
1 159 0.06401844322681427
1 160 0.07392212748527527
1 164 0.06530231237411499
1 166 0.06415002793073654
1 167 0.0659022405743599
1 169 0.0651635229587555
1 170 0.10910893976688385
1 175 0.06388765573501587
1 177 0.06458336859941483
1 180 0.06448258459568024
1 182 0.0887356549501419
1 184 0.0639856681227684
1 188 0.06482037156820297
1 189 0.05025188997387886
1 191 0.06405126303434372
1 193 0.06424925476312637
1 195 0.06454972177743912
1 196 0.06454972177743912
1 198 0.061084721237421036
1 199 0.06593804806470871
1 200 0.0678844228386879
1 201 0.06506000459194183
1 204 0.17407767474651337
1 206 0.06586649268865585
1 210 0.06768974661827087
1 211 0.05360563099384308
1 212 0.0672672763466835
1 213 0.17149858176708221
1 214 0.06451612710952759
1 216 0.06441566348075867
1 217 0.06509445607662201
1 219 0.06444909423589706
1 220 0.06421612948179245
1 221 0.0524783581495285
1 222 0.06408413499593735
1 223 0.06424925476312637
1 224 0.11867816746234894
1 228 0.06626295298337936
1 229 0.06441566348075867
1 231 0.07490642368793488
1 232 0.0887356549501419
1 234 0.06438227742910385
1 236 0.06395295262336731
1 237 0.0648544430732727
1 238 0.0641830563545227
1 240 0.06421612948179245
1 241 0.06478635221719742
1 243 0.06424925476312637
1 244 0.0659022405743599
1 246 0.0656886175274849
1 247 0.06458336859941483
1 252 0.0648544430732727
1 254 0.06471847742795944
2 3 0.9355740547180176
2 4 0.9331299066543579
2 5 0.947346568107605
2 6 0.9153578281402588
2 7 0.9432792067527771
2 8 0.93195641040802
2 9 0.1270039975643158
2 10 0.496513307094574
2 11 0.9066815376281738
2 12 0.9417547583580017
2 13 0.33298322558403015
2 14 0.8676468133926392
2 15 0.09989515691995621
2 16 0.9097931385040283
2 17 0.9541378617286682
2 18 0.9309823513031006
2 19 0.9251160025596619
2 20 0.9278620481491089
2 21 0.9354618787765503
2 22 0.9405785202980042
2 24 0.0573853999376297
2 25 0.9294204711914062
2 26 0.9282608032226562
2 27 0.9208898544311523
2 28 0.9403280019760132
2 29 0.9177636504173279
2 30 0.9428213834762573
2 32 0.9498783349990845
2 33 0.2348852902650833
2 34 0.9269934296607971
2 35 0.9414520263671875
2 36 0.9462752342224121
2 37 0.943048357963562
2 38 0.9219744801521301
2 39 0.9395293593406677
2 40 0.1712845414876938
2 41 0.1987888664007187
2 42 0.9359515309333801
2 43 0.07513512670993805
2 44 0.926487922668457
2 45 0.49769818782806396
2 46 0.25205349922180176
2 47 0.9409962296485901
2 48 0.9358406066894531
2 49 0.1742970049381256
2 50 0.08199622482061386
2 51 0.8997846245765686
2 52 0.10265412926673889
2 53 0.9431859850883484
2 54 0.91098952293396
2 55 0.9370236396789551
2 56 0.9340938925743103
2 58 0.9382606744766235
2 59 0.15727275609970093
2 60 0.8642951846122742
2 61 0.07730677723884583
2 62 0.9138783812522888
2 63 0.2177211493253708
2 65 0.30936363339424133
2 66 0.9413990378379822
2 67 0.9432792067527771
2 68 0.9206962585449219
2 69 0.9000047445297241
2 70 0.933510959148407
2 71 0.155864417552948
2 72 0.9083565473556519
2 73 0.9172469973564148
2 74 0.8407862186431885
2 75 0.22958943247795105
2 76 0.9388406276702881
2 77 0.1234547346830368
2 78 0.9382447004318237
2 80 0.9439501762390137
2 81 0.6762934327125549
2 82 0.5517935752868652
2 83 0.9333462715148926
2 84 0.3083674907684326
2 85 0.9345802664756775
2 86 0.4984489679336548
2 87 0.8474612236022949
2 88 0.9325460195541382
2 89 0.3562350571155548
2 90 0.3610033392906189
2 91 0.9437127113342285
2 92 0.14107970893383026
2 93 0.9377882480621338
2 94 0.9332239627838135
2 95 0.9210867881774902
2 96 0.9409962296485901
2 97 0.9374251365661621
2 98 0.3053880035877228
2 99 0.9399039149284363
2 100 0.93751460313797
2 101 0.9319617748260498
2 102 0.946372389793396
2 103 0.12161412090063095
2 104 0.29740989208221436
2 105 0.9278952479362488
2 106 0.8025180101394653
2 107 0.9399039149284363
2 108 0.9337064623832703
2 109 0.05856873467564583
2 110 0.9130738973617554
2 111 0.9454444646835327
2 112 0.9397149085998535
2 113 0.9427017569541931
2 114 0.9300199151039124
2 115 0.9427958130836487
2 116 0.944733738899231
2 117 0.17097394168376923
2 118 0.9376050233840942
2 120 0.9408196210861206
2 121 0.9484966993331909
2 122 0.9435796141624451
2 123 0.9373001456260681
2 124 0.9293230175971985
2 125 0.6750587821006775
2 126 0.9360440373420715
2 127 0.9235464334487915
2 128 0.9331234097480774
2 129 0.9405785202980042
2 130 0.08960387855768204
2 131 0.9412260055541992
2 132 0.35490334033966064
2 133 0.29193660616874695
2 134 0.213409423828125
2 135 0.9227592945098877
2 136 0.95053631067276
2 137 0.9368128776550293
2 138 0.9395293593406677
2 139 0.9348270893096924
2 140 0.15182749927043915
2 141 0.15915846824645996
2 142 0.9389493465423584
2 143 0.07730677723884583
2 144 0.1524048000574112
2 145 0.9294204711914062
2 146 0.9322472810745239
2 147 0.9319617748260498
2 148 0.9351574778556824
2 149 0.9430020451545715
2 150 0.9427322149276733
2 151 0.9309174418449402
2 152 0.9295271635055542
2 153 0.1502702534198761
2 154 0.23431997001171112
2 155 0.9360348582267761
2 156 0.15554749965667725
2 157 0.931175708770752
2 158 0.10988467931747437
2 159 0.9438562989234924
2 160 0.34777918457984924
2 161 0.11976315081119537
2 162 0.9303973317146301
2 163 0.3396986424922943
2 164 0.9195139408111572
2 165 0.9222677946090698
2 166 0.9489845037460327
2 167 0.9104939103126526
2 168 0.941085696220398
2 169 0.9272749423980713
2 170 0.09398844838142395
2 171 0.92237389087677
2 172 0.8850252628326416
2 173 0.9376803636550903
2 174 0.9016772508621216
2 175 0.9451032280921936
2 176 0.941359281539917
2 177 0.9414867162704468
2 179 0.9171444177627563
2 180 0.9421539306640625
2 181 0.9393469095230103
2 182 0.33809345960617065
2 183 0.9445539116859436
2 184 0.9507929682731628
2 185 0.08835060894489288
2 186 0.9353692531585693
2 187 0.940873384475708
2 188 0.4832088351249695
2 189 0.8979464769363403
2 190 0.934075117111206
2 191 0.9443402290344238
2 192 0.09429384022951126
2 193 0.9387447237968445
2 194 0.12053345143795013
2 195 0.933510959148407
2 196 0.9356496334075928
2 197 0.09989515691995621
2 198 0.23476393520832062
2 199 0.938296377658844
2 200 0.8816515803337097
2 201 0.9225686192512512
2 202 0.9206964373588562
2 204 0.1614886075258255
2 205 0.9261457324028015
2 206 0.9100000262260437
2 208 0.9383575320243835
2 209 0.9324416518211365
2 210 0.9060351252555847
2 211 0.6109555959701538
2 212 0.4724768400192261
2 213 0.18182404339313507
2 214 0.9330251216888428
2 215 0.21997739374637604
2 216 0.9379748106002808
2 217 0.9295271635055542
2 218 0.9264537692070007
2 219 0.9437999129295349
2 220 0.9478347301483154
2 221 0.86470627784729
2 222 0.9416400790214539
2 223 0.9387447237968445
2 224 0.25164690613746643
2 225 0.9389493465423584
2 226 0.11596016585826874
2 227 0.9201045036315918
2 228 0.9253567457199097
2 229 0.9465115070343018
2 230 0.1149698868393898
2 231 0.5641868710517883
2 232 0.6791268587112427
2 233 0.10641235113143921
2 234 0.9342890381813049
2 235 0.8382612466812134
2 236 0.9418313503265381
2 237 0.9303973317146301
2 238 0.947346568107605
2 239 0.9257042407989502
2 240 0.9403882622718811
2 241 0.9347866773605347
2 242 0.09429384022951126
2 243 0.9387447237968445
2 244 0.9115856289863586
2 245 0.9196085333824158
2 246 0.9162480235099792
2 247 0.930787980556488
2 248 0.9362614750862122
2 249 0.9324953556060791
2 250 0.9339975714683533
2 251 0.09370996803045273
2 252 0.9336203932762146
2 253 0.052385468035936356
2 254 0.9370236396789551
2 255 0.8555702567100525
3 4 0.940657913684845
3 5 0.9513605237007141
3 6 0.9331442713737488
3 7 0.9525508284568787
3 8 0.9478535056114197
3 9 0.1145235002040863
3 10 0.5469420552253723
3 11 0.9065995812416077
3 12 0.9522069692611694
3 13 0.31596139073371887
3 14 0.8772187829017639
3 15 0.10852327942848206
3 16 0.9224240183830261
3 17 0.9528336524963379
3 18 0.9395974278450012
3 19 0.9499020576477051
3 20 0.9355461597442627
3 21 0.9524455070495605
3 22 0.9572334289550781
3 24 0.10390312969684601
3 25 0.9454638957977295
3 26 0.9327688813209534
3 27 0.9319766163825989
3 28 0.9614672064781189
3 29 0.9497094750404358
3 30 0.9479936361312866
3 32 0.9517819881439209
3 33 0.21150678396224976
3 34 0.9379684329032898
3 35 0.9508002400398254
3 36 0.9356244802474976
3 37 0.9440506100654602
3 38 0.9330478310585022
3 39 0.9574128985404968
3 40 0.18930082023143768
3 41 0.19632600247859955
3 42 0.943414568901062
3 43 0.06183687970042229
3 44 0.9458284974098206
3 45 0.529650866985321
3 46 0.2565901279449463
3 47 0.9515151977539062
3 48 0.9463774561882019
3 49 0.15062037110328674
3 50 0.09254896640777588
3 51 0.9180043339729309
3 52 0.1098308339715004
3 53 0.958774209022522
3 54 0.9257498383522034
3 55 0.9412969350814819
3 56 0.9457424283027649
3 58 0.9518508315086365
3 59 0.07766212522983551
3 60 0.8883801102638245
3 61 0.07634899765253067
3 62 0.9328940510749817
3 63 0.19632600247859955
3 65 0.3448565602302551
3 66 0.956178605556488
3 67 0.954646646976471
3 68 0.9296866655349731
3 69 0.9231259822845459
3 70 0.9462348818778992
3 71 0.15924140810966492
3 72 0.9058870077133179
3 73 0.9326208233833313
3 74 0.8327832818031311
3 75 0.2313724160194397
3 76 0.950310468673706
3 77 0.11550809442996979
3 78 0.940546452999115
3 80 0.9542276859283447
3 81 0.687209963798523
3 82 0.5518554449081421
3 83 0.937748908996582
3 84 0.28186798095703125
3 85 0.9557394981384277
3 86 0.5384796857833862
3 87 0.8522218465805054
3 88 0.9411523342132568
3 89 0.3347979485988617
3 90 0.3147498071193695
3 91 0.9573531746864319
3 92 0.17079384624958038
3 93 0.9494031071662903
3 94 0.9545027017593384
3 95 0.9310541152954102
3 96 0.9525713324546814
3 97 0.943839430809021
3 98 0.28877022862434387
3 99 0.950310468673706
3 100 0.958740234375
3 101 0.9458940029144287
3 102 0.9514313340187073
3 103 0.1426275372505188
3 104 0.30918437242507935
3 105 0.9292610287666321
3 106 0.828931987285614
3 107 0.9545107483863831
3 108 0.9474313259124756
3 109 0.06941171735525131
3 110 0.9341601729393005
3 111 0.9516468048095703
3 112 0.9522739052772522
3 113 0.9530396461486816
3 114 0.9366117715835571
3 115 0.9604416489601135
3 116 0.9519206285476685
3 117 0.168855682015419
3 118 0.9418628215789795
3 119 0.06544199585914612
3 120 0.9630282521247864
3 121 0.9545782804489136
3 122 0.9529014825820923
3 123 0.9552420973777771
3 124 0.9422134757041931
3 125 0.6996554732322693
3 126 0.9604095220565796
3 127 0.9419394731521606
3 128 0.948977530002594
3 129 0.9530396461486816
3 130 0.13827146589756012
3 131 0.942284107208252
3 132 0.27135971188545227
3 133 0.3533329665660858
3 134 0.18785610795021057
3 135 0.9401731491088867
3 136 0.9555608034133911
3 137 0.9515805840492249
3 138 0.948977530002594
3 139 0.9166973829269409
3 140 0.1285255402326584
3 141 0.12574927508831024
3 142 0.9494706392288208
3 143 0.08725599944591522
3 144 0.1636049896478653
3 145 0.9486437439918518
3 146 0.9418628215789795
3 147 0.9416475296020508
3 148 0.9385367631912231
3 149 0.9502395987510681
3 150 0.9500319361686707
3 151 0.9578250050544739
3 152 0.942505419254303
3 153 0.16077587008476257
3 154 0.1633531004190445
3 155 0.9507303237915039
3 156 0.14026206731796265
3 157 0.9503290057182312
3 158 0.09865752607584
3 159 0.9541574120521545
3 160 0.3870089650154114
3 161 0.1098308339715004
3 162 0.9422134757041931
3 163 0.36151936650276184
3 164 0.9326944947242737
3 165 0.9332653880119324
3 166 0.962415874004364
3 167 0.9250901341438293
3 168 0.9547454714775085
3 169 0.9413731694221497
3 170 0.07854338735342026
3 171 0.9281137585639954
3 172 0.9040471911430359
3 173 0.9596999287605286
3 174 0.9243365526199341
3 175 0.9563891291618347
3 176 0.9538853764533997
3 177 0.9435582756996155
3 179 0.9357601404190063
3 180 0.9463056921958923
3 181 0.9477846622467041
3 182 0.3251941502094269
3 183 0.9486269354820251
3 184 0.9599500298500061
3 185 0.09816300123929977
3 186 0.9502651691436768
3 187 0.9554953575134277
3 188 0.4835851490497589
3 189 0.9054568409919739
3 190 0.9641915559768677
3 191 0.9525508284568787
3 192 0.10347288846969604
3 193 0.9533930420875549
3 194 0.08729609102010727
3 195 0.9462348818778992
3 196 0.9441227912902832
3 197 0.08879177272319794
3 198 0.23985038697719574
3 199 0.9320654273033142
3 200 0.8984940648078918
3 201 0.937748908996582
3 202 0.9455757737159729
3 204 0.06265594810247421
3 205 0.9267498254776001
3 206 0.9235106706619263
3 208 0.9540196657180786
3 209 0.9504591822624207
3 210 0.8992396593093872
3 211 0.592862069606781
3 212 0.4093957841396332
3 213 0.15151333808898926
3 214 0.9467979669570923
3 215 0.1936376392841339
3 216 0.952700674533844
3 217 0.9542201161384583
3 218 0.9278929233551025
3 219 0.9500319361686707
3 220 0.9529014825820923
3 221 0.8745988607406616
3 222 0.9519912004470825
3 223 0.9523418545722961
3 224 0.26017898321151733
3 225 0.9684600234031677
3 226 0.13088399171829224
3 227 0.9280391931533813
3 228 0.9225648641586304
3 229 0.9495390057563782
3 230 0.1335829198360443
3 231 0.570268988609314
3 232 0.6866822838783264
3 233 0.10509397089481354
3 234 0.9469403624534607
3 235 0.8387528657913208
3 236 0.9563202261924744
3 237 0.9400913119316101
3 238 0.9524106383323669
3 239 0.9355461597442627
3 240 0.9581544995307922
3 241 0.9465238451957703
3 242 0.05173644423484802
3 243 0.9523418545722961
3 244 0.9283247590065002
3 245 0.9277935028076172
3 246 0.9339130520820618
3 247 0.9530678391456604
3 248 0.9416475296020508
3 249 0.9401731491088867
3 250 0.9477846622467041
3 252 0.9464576244354248
3 253 0.05173644423484802
3 254 0.942355751991272
3 255 0.8449702858924866
4 5 0.9631255269050598
4 6 0.9349657297134399
4 7 0.9632237553596497
4 8 0.954532265663147
4 9 0.19446112215518951
4 10 0.5398786067962646
4 11 0.9112423658370972
4 12 0.9588118195533752
4 13 0.30657315254211426
4 14 0.900197446346283
4 15 0.10749242454767227
4 16 0.9319568276405334
4 17 0.9583665728569031
4 18 0.9527311325073242
4 19 0.9461588859558105
4 20 0.9498788118362427
4 21 0.9517841339111328
4 22 0.9647566080093384
4 24 0.1029161661863327
4 25 0.950131356716156
4 26 0.9439936280250549
4 27 0.9401008486747742
4 28 0.9554774165153503
4 29 0.9310346841812134
4 30 0.9640284180641174
4 32 0.9604499936103821
4 33 0.310867577791214
4 34 0.9407117962837219
4 35 0.9625812768936157
4 36 0.9426786303520203
4 37 0.9560256600379944
4 38 0.9411618709564209
4 39 0.9577181935310364
4 40 0.24734395742416382
4 41 0.1836577206850052
4 42 0.9522823095321655
4 43 0.08574929088354111
4 44 0.9484230875968933
4 45 0.5146837830543518
4 46 0.2731194496154785
4 47 0.955029308795929
4 48 0.9572213292121887
4 49 0.19714346528053284
4 50 0.09166985005140305
4 51 0.927599310874939
4 52 0.1255241185426712
4 53 0.9642132520675659
4 54 0.9287810325622559
4 55 0.9554286003112793
4 56 0.9555777311325073
4 58 0.9605000019073486
4 59 0.15976610779762268
4 60 0.8753464221954346
4 61 0.08642716705799103
4 62 0.9369110465049744
4 63 0.2268713116645813
4 65 0.3505697548389435
4 66 0.9554774165153503
4 67 0.962185800075531
4 68 0.9442492127418518
4 69 0.9110721945762634
4 70 0.9571213722229004
4 71 0.18401692807674408
4 72 0.9190343618392944
4 73 0.94706791639328
4 74 0.8487820625305176
4 75 0.22459113597869873
4 76 0.9652056694030762
4 77 0.15254785120487213
4 78 0.9422230124473572
4 80 0.9638180732727051
4 81 0.6850926280021667
4 82 0.5927338600158691
4 83 0.9478187561035156
4 84 0.32732683420181274
4 85 0.9560753703117371
4 86 0.5650497674942017
4 87 0.8673809766769409
4 88 0.9490280151367188
4 89 0.3681519031524658
4 90 0.3779745399951935
4 91 0.9566232562065125
4 92 0.2270459532737732
4 93 0.9539833068847656
4 94 0.950682520866394
4 95 0.9444448351860046
4 96 0.955029308795929
4 97 0.9548319578170776
4 98 0.3209861218929291
4 99 0.9610453248023987
4 100 0.9517319202423096
4 101 0.9516304135322571
4 102 0.9652522206306458
4 103 0.13383732736110687
4 104 0.3123724162578583
4 105 0.9437898993492126
4 106 0.8318614363670349
4 107 0.9600052237510681
4 108 0.9613967537879944
4 109 0.09166985005140305
4 110 0.9338442087173462
4 111 0.9572213292121887
4 112 0.9609465003013611
4 113 0.9626796841621399
4 114 0.947767972946167
4 115 0.9627301692962646
4 116 0.9605507850646973
4 117 0.21981658041477203
4 118 0.9601699113845825
4 119 0.06482037156820297
4 120 0.9528323411941528
4 121 0.9610961675643921
4 122 0.9594593644142151
4 123 0.954532265663147
4 124 0.9511299729347229
4 125 0.6440388560295105
4 126 0.9533820152282715
4 127 0.9446017146110535
4 128 0.958762526512146
4 129 0.9626796841621399
4 130 0.18626293540000916
4 131 0.9522311091423035
4 132 0.3723751902580261
4 133 0.358376145362854
4 134 0.2178400307893753
4 135 0.9449995160102844
4 136 0.9610453248023987
4 137 0.957170844078064
4 138 0.9598069190979004
4 139 0.9220420122146606
4 140 0.14144964516162872
4 141 0.2024015486240387
4 142 0.957170844078064
4 143 0.08642716705799103
4 144 0.1555688977241516
4 145 0.950131356716156
4 146 0.9528323411941528
4 147 0.9526818990707397
4 148 0.9412685036659241
4 149 0.9609954953193665
4 150 0.956673800945282
4 151 0.9434384107589722
4 152 0.9483206868171692
4 153 0.16537363827228546
4 154 0.23371317982673645
4 155 0.9604499936103821
4 156 0.14554545283317566
4 157 0.9559770226478577
4 158 0.10749242454767227
4 159 0.9648050665855408
4 160 0.43604105710983276
4 161 0.1255241185426712
4 162 0.9553338289260864
4 163 0.3437619209289551
4 164 0.9513488411903381
4 165 0.9444961547851562
4 166 0.9615904092788696
4 167 0.9376618266105652
4 168 0.9561258554458618
4 169 0.9472148418426514
4 170 0.13437716662883759
4 171 0.9479925036430359
4 172 0.9053604006767273
4 173 0.9589132070541382
4 174 0.9242038726806641
4 175 0.9649046659469604
4 176 0.9583665728569031
4 177 0.9534339308738708
4 179 0.9395974278450012
4 180 0.9603056311607361
4 181 0.9555270671844482
4 182 0.32785704731941223
4 183 0.9583665728569031
4 184 0.9632743000984192
4 185 0.08642716705799103
4 186 0.950682520866394
4 187 0.9589132070541382
4 188 0.47058823704719543
4 189 0.9196574687957764
4 190 0.9444448351860046
4 191 0.9642617106437683
4 192 0.081992007791996
4 193 0.962036669254303
4 194 0.13363061845302582
4 195 0.9560753703117371
4 196 0.9539833068847656
4 197 0.10749242454767227
4 198 0.2494506686925888
4 199 0.9381712675094604
4 200 0.9042603373527527
4 201 0.9499273896217346
4 202 0.9471648931503296
4 204 0.18618234992027283
4 205 0.920121967792511
4 206 0.9414226412773132
4 208 0.9626299738883972
4 209 0.955029308795929
4 210 0.9170239567756653
4 211 0.557695209980011
4 212 0.475271612405777
4 213 0.1778656244277954
4 214 0.9587142467498779
4 215 0.20115432143211365
4 216 0.9593090415000916
4 217 0.9451560974121094
4 218 0.944668173789978
4 219 0.958762526512146
4 220 0.9605000019073486
4 221 0.8742283582687378
4 222 0.9626796841621399
4 223 0.9651601910591125
4 224 0.26155394315719604
4 225 0.9550809264183044
4 226 0.1215381994843483
4 227 0.9383743405342102
4 228 0.9363513588905334
4 229 0.9561774730682373
4 230 0.1521611511707306
4 231 0.6134067177772522
4 232 0.6931012868881226
4 233 0.14127273857593536
4 234 0.9577685594558716
4 235 0.8403624892234802
4 236 0.9658907651901245
4 237 0.9574358463287354
4 238 0.9610453248023987
4 239 0.9498788118362427
4 240 0.9594593644142151
4 241 0.951181173324585
4 242 0.10249000787734985
4 243 0.962036669254303
4 244 0.9376618266105652
4 245 0.9340633749961853
4 246 0.9399448037147522
4 247 0.9555270671844482
4 248 0.949527382850647
4 249 0.9439412355422974
4 250 0.9544805288314819
4 251 0.08021111786365509
4 252 0.9511299729347229
4 253 0.10249000787734985
4 254 0.9543797969818115
4 255 0.844097375869751
5 6 0.9448175430297852
5 7 0.9722528457641602
5 8 0.9668866395950317
5 9 0.19254916906356812
5 10 0.5179229378700256
5 11 0.9241564273834229
5 12 0.9741781949996948
5 13 0.3225313425064087
5 14 0.9024192690849304
5 15 0.10643555223941803
5 16 0.9377118945121765
5 17 0.9695731401443481
5 18 0.9631255269050598
5 19 0.9609049558639526
5 20 0.9572601914405823
5 21 0.9621464014053345
5 22 0.9758366346359253
5 24 0.06484817713499069
5 25 0.9605409502983093
5 26 0.9535529613494873
5 27 0.9497690200805664
5 28 0.9689051508903503
5 29 0.9409980177879333
5 30 0.9721121191978455
5 32 0.9706045985221863
5 33 0.2877364456653595
5 34 0.9545393586158752
5 35 0.9757857918739319
5 36 0.9628751277923584
5 37 0.9715098142623901
5 38 0.9550221562385559
5 39 0.9700186252593994
5 40 0.22121086716651917
5 41 0.19254916906356812
5 42 0.9626500606536865
5 43 0.0849061980843544
5 44 0.9578592777252197
5 45 0.5076557397842407
5 46 0.2629220187664032
5 47 0.9642828702926636
5 48 0.9695153832435608
5 49 0.19520513713359833
5 50 0.0794224739074707
5 51 0.9344804286956787
5 52 0.12428995221853256
5 53 0.9753091335296631
5 54 0.9398728609085083
5 55 0.9626500606536865
5 56 0.9699922800064087
5 58 0.969603419303894
5 59 0.16991344094276428
5 60 0.888351559638977
5 61 0.09627458453178406
5 62 0.9404511451721191
5 63 0.21547168493270874
5 65 0.3471229374408722
5 66 0.9626809358596802
5 67 0.9732806086540222
5 68 0.9518115520477295
5 69 0.9205470681190491
5 70 0.9663543701171875
5 71 0.19782546162605286
5 72 0.9390751719474792
5 73 0.9555883407592773
5 74 0.8510901927947998
5 75 0.22692136466503143
5 76 0.9711636900901794
5 77 0.16363531351089478
5 78 0.9550221562385559
5 80 0.9769174456596375
5 81 0.6870909929275513
5 82 0.5936715006828308
5 83 0.9614664316177368
5 84 0.3241085112094879
5 85 0.9684258699417114
5 86 0.5734379887580872
5 87 0.8761218786239624
5 88 0.9594692587852478
5 89 0.36731481552124023
5 90 0.37699007987976074
5 91 0.9689571261405945
5 92 0.2071811854839325
5 93 0.9663543701171875
5 94 0.9610764384269714
5 95 0.9582234025001526
5 96 0.9684258699417114
5 97 0.9631255269050598
5 98 0.32727062702178955
5 99 0.9732234477996826
5 100 0.9641934037208557
5 101 0.9620563983917236
5 102 0.9773667454719543
5 103 0.13252142071723938
5 104 0.31233352422714233
5 105 0.9576367139816284
5 106 0.8355682492256165
5 107 0.9701338410377502
5 108 0.9664146304130554
5 109 0.09076854586601257
5 110 0.9479644894599915
5 111 0.9684817790985107
5 112 0.9721382260322571
5 113 0.9717234969139099
5 114 0.9593502879142761
5 115 0.9748362898826599
5 116 0.9706640243530273
5 117 0.20346041023731232
5 118 0.9662981033325195
5 120 0.9621464014053345
5 121 0.9711939096450806
5 122 0.9726946353912354
5 123 0.9668866395950317
5 124 0.9594692587852478
5 125 0.6685633659362793
5 126 0.9647557139396667
5 127 0.9593502879142761
5 128 0.9669162631034851
5 129 0.974808394908905
5 130 0.18443156778812408
5 131 0.9688573479652405
5 132 0.36316943168640137
5 133 0.32990196347236633
5 134 0.22019192576408386
5 135 0.9577125310897827
5 136 0.9773429036140442
5 137 0.9674186110496521
5 138 0.9700186252593994
5 139 0.9365233182907104
5 140 0.14706185460090637
5 141 0.19013400375843048
5 142 0.9694879651069641
5 143 0.09627458453178406
5 144 0.13478441536426544
5 145 0.9605409502983093
5 146 0.9621464014053345
5 147 0.9599740505218506
5 148 0.9561266303062439
5 149 0.9711344838142395
5 150 0.9658820629119873
5 151 0.9551078677177429
5 152 0.9619755148887634
5 153 0.1698123961687088
5 154 0.2314153015613556
5 155 0.96854168176651
5 156 0.1441144347190857
5 157 0.9662981033325195
5 158 0.10643555223941803
5 159 0.9748362898826599
5 160 0.4246370196342468
5 161 0.09943195432424545
5 162 0.963631808757782
5 163 0.3517281115055084
5 164 0.9566647410392761
5 165 0.9530133008956909
5 166 0.9727227091789246
5 167 0.9474767446517944
5 168 0.9674186110496521
5 169 0.9588137865066528
5 170 0.14005890488624573
5 171 0.9491949677467346
5 172 0.9138869643211365
5 173 0.969072699546814
5 174 0.9311717748641968
5 175 0.9748950004577637
5 176 0.9706045985221863
5 177 0.9637491703033447
5 179 0.950310468673706
5 180 0.9715573191642761
5 181 0.9699668884277344
5 182 0.35880547761917114
5 183 0.9716359972953796
5 184 0.9733105897903442
5 185 0.09627458453178406
5 186 0.9610764384269714
5 187 0.9711344838142395
5 188 0.47636231780052185
5 189 0.926741898059845
5 190 0.9582234025001526
5 191 0.9722528457641602
5 192 0.1014823243021965
5 193 0.9711344838142395
5 194 0.10118340700864792
5 195 0.9756761193275452
5 196 0.9642828702926636
5 197 0.10643555223941803
5 198 0.23131564259529114
5 199 0.9522237181663513
5 200 0.9138869643211365
5 201 0.9583345651626587
5 202 0.9566930532455444
5 204 0.18435178697109222
5 205 0.9379982948303223
5 206 0.9437922239303589
5 208 0.9706640243530273
5 209 0.9642828702926636
5 210 0.9253858923912048
5 211 0.5917785167694092
5 212 0.47707486152648926
5 213 0.18712414801120758
5 214 0.9658514261245728
5 215 0.19454455375671387
5 216 0.9746833443641663
5 217 0.9567530751228333
5 218 0.9480488896369934
5 219 0.9658820629119873
5 220 0.969603419303894
5 221 0.8880876302719116
5 222 0.972751796245575
5 223 0.9742273092269897
5 224 0.2627909183502197
5 225 0.9653492569923401
5 226 0.12034322321414948
5 227 0.9470569491386414
5 228 0.9399039149284363
5 229 0.9695153832435608
5 230 0.1375637799501419
5 231 0.6121834516525269
5 232 0.6991012096405029
5 233 0.13252142071723938
5 234 0.9669467806816101
5 235 0.8475092053413391
5 236 0.9738389849662781
5 237 0.9667537212371826
5 238 0.9701338410377502
5 239 0.9551700949668884
5 240 0.9726946353912354
5 241 0.9667782783508301
5 242 0.1014823243021965
5 243 0.9701035618782043
5 244 0.9443044662475586
5 245 0.9462147355079651
5 246 0.9465135931968689
5 247 0.9678942561149597
5 248 0.9610152244567871
5 249 0.9556168913841248
5 250 0.9637491703033447
5 251 0.09076854586601257
5 252 0.9594692587852478
5 253 0.1014823243021965
5 254 0.9636884927749634
5 255 0.8487837910652161
6 7 0.9471008777618408
6 8 0.9369584321975708
6 9 0.14286576211452484
6 10 0.5548884868621826
6 11 0.8999886512756348
6 12 0.9413823485374451
6 13 0.3086107671260834
6 14 0.8804555535316467
6 15 0.10934588313102722
6 16 0.9086163640022278
6 17 0.9431014657020569
6 18 0.9317600727081299
6 19 0.9409894347190857
6 20 0.9276069402694702
6 21 0.9404717087745667
6 22 0.9486433267593384
6 24 0.09517338126897812
6 25 0.9408828020095825
6 26 0.9301612973213196
6 27 0.9260886311531067
6 28 0.9453088641166687
6 29 0.9165369868278503
6 30 0.9488115310668945
6 32 0.9441611170768738
6 33 0.2612316310405731
6 34 0.9289138913154602
6 35 0.9442458748817444
6 36 0.9243378043174744
6 37 0.941619873046875
6 38 0.9239299297332764
6 39 0.948733925819397
6 40 0.21914313733577728
6 41 0.14286576211452484
6 42 0.9420307874679565
6 43 0.07476671785116196
6 44 0.9380068778991699
6 45 0.5215368270874023
6 46 0.2431001365184784
6 47 0.9363822340965271
6 48 0.9418705105781555
6 49 0.18428252637386322
6 50 0.06993785500526428
6 51 0.907427966594696
6 52 0.11917591840028763
6 53 0.9523014426231384
6 54 0.9185513257980347
6 55 0.9388302564620972
6 56 0.9390854239463806
6 58 0.9431872963905334
6 59 0.07825080305337906
6 60 0.8565515875816345
6 61 0.09890707582235336
6 62 0.9323232769966125
6 63 0.22136344015598297
6 65 0.32918262481689453
6 66 0.9463746547698975
6 67 0.9449892044067383
6 68 0.9313253164291382
6 69 0.9089587926864624
6 70 0.9438307285308838
6 71 0.13905532658100128
6 72 0.8983708024024963
6 73 0.9224481582641602
6 74 0.8585529923439026
6 75 0.19582602381706238
6 76 0.9427014589309692
6 77 0.1163836345076561
6 78 0.9239299297332764
6 80 0.9498640298843384
6 81 0.6430672407150269
6 82 0.5369246006011963
6 83 0.9373496174812317
6 84 0.2937977910041809
6 85 0.9374462962150574
6 86 0.49600493907928467
6 87 0.8598645329475403
6 88 0.9365261793136597
6 89 0.34877079725265503
6 90 0.35081368684768677
6 91 0.9369584321975708
6 92 0.21737489104270935
6 93 0.9395744204521179
6 94 0.9414570331573486
6 95 0.9230327606201172
6 96 0.9427666664123535
6 97 0.9360342621803284
6 98 0.24246591329574585
6 99 0.9448175430297852
6 100 0.9414570331573486
6 101 0.9348796606063843
6 102 0.9449028968811035
6 103 0.13614504039287567
6 104 0.31775856018066406
6 105 0.9222655892372131
6 106 0.8327731490135193
6 107 0.9479916095733643
6 108 0.9439942836761475
6 109 0.08159416913986206
6 110 0.9129493832588196
6 111 0.9418705105781555
6 112 0.9414685964584351
6 113 0.9465305209159851
6 114 0.9297541975975037
6 115 0.9487261772155762
6 116 0.9453888535499573
6 117 0.21388477087020874
6 118 0.9340739846229553
6 120 0.937272846698761
6 121 0.9438459873199463
6 122 0.9421287178993225
6 123 0.9422760009765625
6 124 0.9418716430664062
6 125 0.653634250164032
6 126 0.9421117305755615
6 127 0.9286805987358093
6 128 0.9391722083091736
6 129 0.9444177746772766
6 130 0.1839018166065216
6 131 0.9344750046730042
6 132 0.34177079796791077
6 133 0.3531631529331207
6 134 0.19389663636684418
6 135 0.9333053827285767
6 136 0.9458755850791931
6 137 0.9513527750968933
6 138 0.9444842338562012
6 139 0.9082518219947815
6 140 0.12949976325035095
6 141 0.1689366102218628
6 142 0.9407231211662292
6 143 0.07692772150039673
6 144 0.16484512388706207
6 145 0.9355429410934448
6 146 0.9351402521133423
6 147 0.9380886554718018
6 148 0.9327262043952942
6 149 0.9415556192398071
6 150 0.9434218406677246
6 151 0.939263641834259
6 152 0.9324806928634644
6 153 0.12461119890213013
6 154 0.16459131240844727
6 155 0.9462804794311523
6 156 0.09421683102846146
6 157 0.944736897945404
6 158 0.07952427864074707
6 159 0.9466155171394348
6 160 0.4143138527870178
6 161 0.11917591840028763
6 162 0.9365261793136597
6 163 0.35260337591171265
6 164 0.9322289228439331
6 165 0.926352858543396
6 166 0.952791154384613
6 167 0.9364477396011353
6 168 0.9396601915359497
6 169 0.9388410449028015
6 170 0.09352760016918182
6 171 0.9243378043174744
6 172 0.9176141619682312
6 173 0.9489694237709045
6 174 0.9280442595481873
6 175 0.9499474763870239
6 176 0.9452207684516907
6 177 0.937934935092926
6 179 0.9320654273033142
6 180 0.9407231211662292
6 181 0.9358056783676147
6 182 0.27792516350746155
6 183 0.9441611170768738
6 184 0.9492952227592468
6 185 0.08791740238666534
6 186 0.9382548332214355
6 187 0.9489694237709045
6 188 0.45092061161994934
6 189 0.8968572020530701
6 190 0.9510360360145569
6 191 0.9523801803588867
6 192 0.09383148699998856
6 193 0.9468511939048767
6 194 0.12793859839439392
6 195 0.9363822340965271
6 196 0.9395744204521179
6 197 0.09940534830093384
6 198 0.26180750131607056
6 199 0.929347813129425
6 200 0.890757143497467
6 201 0.9352046847343445
6 202 0.9312366247177124
6 204 0.12626175582408905
6 205 0.9138599634170532
6 206 0.9174814820289612
6 208 0.9506762027740479
6 209 0.9385103583335876
6 210 0.9038242697715759
6 211 0.5301975607872009
6 212 0.4280231297016144
6 213 0.11873695999383926
6 214 0.9444030523300171
6 215 0.18558809161186218
6 216 0.9493035674095154
6 217 0.9292615652084351
6 218 0.9229956865310669
6 219 0.9444842338562012
6 220 0.9431872963905334
6 221 0.8754611611366272
6 222 0.9475868940353394
6 223 0.9436737895011902
6 224 0.21519869565963745
6 225 0.9449750185012817
6 226 0.13187609612941742
6 227 0.9318269491195679
6 228 0.9186347723007202
6 229 0.9418705105781555
6 230 0.14132525026798248
6 231 0.5449565649032593
6 232 0.6626320481300354
6 233 0.13614504039287567
6 234 0.9424437284469604
6 235 0.8426751494407654
6 236 0.9519725441932678
6 237 0.9397335052490234
6 238 0.9437595009803772
6 239 0.9340487122535706
6 240 0.9431872963905334
6 241 0.9323390126228333
6 242 0.05212860554456711
6 243 0.9457920789718628
6 244 0.925584077835083
6 245 0.9205790758132935
6 246 0.922583818435669
6 247 0.937934935092926
6 248 0.932740330696106
6 249 0.9376112818717957
6 250 0.9464519619941711
6 251 0.06993785500526428
6 252 0.9311807155609131
6 253 0.09383148699998856
6 254 0.935629665851593
6 255 0.835608959197998
7 8 0.9680005311965942
7 9 0.19215379655361176
7 10 0.5316268801689148
7 11 0.9168016910552979
7 12 0.9711469411849976
7 13 0.32502466440200806
7 14 0.9027762413024902
7 15 0.09656091034412384
7 16 0.937913179397583
7 17 0.970670223236084
7 18 0.9673755764961243
7 19 0.9568449854850769
7 20 0.9605091214179993
7 21 0.9643139243125916
7 22 0.973832905292511
7 24 0.11094003915786743
7 25 0.9627182483673096
7 26 0.9609959721565247
7 27 0.9541096091270447
7 28 0.9648452401161194
7 29 0.9411856532096863
7 30 0.9690850377082825
7 32 0.970670223236084
7 33 0.3071790635585785
7 34 0.9536261558532715
7 35 0.9727538824081421
7 36 0.951446533203125
7 37 0.9674456119537354
7 38 0.9562066197395325
7 39 0.9680268168449402
7 40 0.26017746329307556
7 41 0.19215379655361176
7 42 0.9648186564445496
7 43 0.08473184704780579
7 44 0.960053026676178
7 45 0.5105405449867249
7 46 0.2548855245113373
7 47 0.9664373397827148
7 48 0.9747449159622192
7 49 0.19480431079864502
7 50 0.09058216214179993
7 51 0.9400135278701782
7 52 0.12403474003076553
7 53 0.9733064770698547
7 54 0.9453786015510559
7 55 0.9658549427986145
7 56 0.9721328616142273
7 58 0.971725583076477
7 59 0.17541161179542542
7 60 0.8763113617897034
7 61 0.09607689827680588
7 62 0.9438223838806152
7 63 0.21960431337356567
7 65 0.3345670700073242
7 66 0.9648452401161194
7 67 0.9743589758872986
7 68 0.9551107287406921
7 69 0.9219030737876892
7 70 0.9674709439277649
7 71 0.19741924107074738
7 72 0.9328480958938599
7 73 0.9588600993156433
7 74 0.8457987308502197
7 75 0.2128680944442749
7 76 0.9773916006088257
7 77 0.1632993221282959
7 78 0.9530611634254456
7 80 0.976959764957428
7 81 0.6813219785690308
7 82 0.5941404700279236
7 83 0.9594921469688416
7 84 0.3202720284461975
7 85 0.9664373397827148
7 86 0.5861756205558777
7 87 0.870876133441925
7 88 0.9647685885429382
7 89 0.3693375885486603
7 90 0.3598587214946747
7 91 0.9680005311965942
7 92 0.2287510484457016
7 93 0.9716054797172546
7 94 0.9642873406410217
7 95 0.9552096128463745
7 96 0.9664373397827148
7 97 0.9632237553596497
7 98 0.3265986442565918
7 99 0.9722528457641602
7 100 0.9642873406410217
7 101 0.9642371535301208
7 102 0.9743331670761108
7 103 0.12490212172269821
7 104 0.33287513256073
7 105 0.9535722732543945
7 106 0.8445276618003845
7 107 0.9732806086540222
7 108 0.9706190228462219
7 109 0.09058216214179993
7 110 0.9449610114097595
7 111 0.9747449159622192
7 112 0.970142126083374
7 113 0.9748590588569641
7 114 0.9605091214179993
7 115 0.9748848080635071
7 116 0.9738070368766785
7 117 0.19832071661949158
7 118 0.9663854837417603
7 120 0.9643139243125916
7 121 0.9753598570823669
7 122 0.9727538824081421
7 123 0.9669674634933472
7 124 0.9616531133651733
7 125 0.6730560064315796
7 126 0.9648452401161194
7 127 0.9594661593437195
7 128 0.9690588712692261
7 129 0.9748590588569641
7 130 0.18405288457870483
7 131 0.9668679237365723
7 132 0.3707234561443329
7 133 0.3485907316207886
7 134 0.2242242693901062
7 135 0.9578373432159424
7 136 0.9722528457641602
7 137 0.9705949425697327
7 138 0.9690588712692261
7 139 0.941008985042572
7 140 0.14675988256931305
7 141 0.20000000298023224
7 142 0.9685298204421997
7 143 0.09607689827680588
7 144 0.14731791615486145
7 145 0.9627182483673096
7 146 0.9663854837417603
7 147 0.9642371535301208
7 148 0.9552096128463745
7 149 0.9711980819702148
7 150 0.9742189049720764
7 151 0.9552369117736816
7 152 0.958957850933075
7 153 0.16946369409561157
7 154 0.23094011843204498
7 155 0.970670223236084
7 156 0.15689291059970856
7 157 0.9653497338294983
7 158 0.10621700435876846
7 159 0.9789852499961853
7 160 0.42849990725517273
7 161 0.12403474003076553
7 162 0.9647685885429382
7 163 0.3396831154823303
7 164 0.9567915797233582
7 165 0.9562820196151733
7 166 0.9727797508239746
7 167 0.9508076310157776
7 168 0.9695624113082886
7 169 0.9568449854850769
7 170 0.14675988256931305
7 171 0.9503964185714722
7 172 0.9163585305213928
7 173 0.9742844700813293
7 174 0.9335321187973022
7 175 0.9790312647819519
7 176 0.971699595451355
7 177 0.9669410586357117
7 179 0.9535987377166748
7 180 0.9674972891807556
7 181 0.9669410586357117
7 182 0.3609105348587036
7 183 0.9727289080619812
7 184 0.9764349460601807
7 185 0.09607689827680588
7 186 0.9632503986358643
7 187 0.9722268581390381
7 188 0.48161187767982483
7 189 0.9355679154396057
7 190 0.9541633725166321
7 191 0.9764102697372437
7 192 0.0911465436220169
7 193 0.9722268581390381
7 194 0.13204506039619446
7 195 0.9664373397827148
7 196 0.9716054797172546
7 197 0.10621700435876846
7 198 0.25040340423583984
7 199 0.9471008777618408
7 200 0.9163585305213928
7 201 0.9636593461036682
7 202 0.9557731747627258
7 204 0.18397323787212372
7 205 0.9317733645439148
7 206 0.9502918720245361
7 208 0.9727797508239746
7 209 0.9664373397827148
7 210 0.926737368106842
7 211 0.5836963057518005
7 212 0.45455247163772583
7 213 0.18673992156982422
7 214 0.9669674634933472
7 215 0.22188007831573486
7 216 0.9685561060905457
7 217 0.9579154849052429
7 218 0.953477144241333
7 219 0.9711228609085083
7 220 0.9758387207984924
7 221 0.8896253705024719
7 222 0.9758852124214172
7 223 0.9722268581390381
7 224 0.2660520076751709
7 225 0.9674972891807556
7 226 0.08807048201560974
7 227 0.9503687620162964
7 228 0.9422181844711304
7 229 0.9685561060905457
7 230 0.150355726480484
7 231 0.623720645904541
7 232 0.7076120376586914
7 233 0.13959649205207825
7 234 0.9701159596443176
7 235 0.843403160572052
7 236 0.976959764957428
7 237 0.9637300968170166
7 238 0.9763638377189636
7 239 0.9615520238876343
7 240 0.971725583076477
7 241 0.9647931456565857
7 242 0.10127393156290054
7 243 0.9711980819702148
7 244 0.9486971497535706
7 245 0.938948929309845
7 246 0.9487775564193726
7 247 0.9659067988395691
7 248 0.961120069026947
7 249 0.9547002911567688
7 250 0.9669410586357117
7 251 0.09058216214179993
7 252 0.9616531133651733
7 253 0.10127393156290054
7 254 0.9637823104858398
7 255 0.8435066342353821
8 9 0.19354839622974396
8 10 0.5317666530609131
8 11 0.9069653153419495
8 12 0.962618887424469
8 13 0.30831268429756165
8 14 0.8970852494239807
8 15 0.10698790103197098
8 16 0.9340091943740845
8 17 0.9631996750831604
8 18 0.9576687812805176
8 19 0.9501261711120605
8 20 0.9517232179641724
8 21 0.9577497839927673
8 22 0.9674636721611023
8 24 0.11174521595239639
8 25 0.9571661949157715
8 26 0.9500842690467834
8 27 0.9494174122810364
8 28 0.9582920074462891
8 29 0.9373406171798706
8 30 0.9646956920623779
8 32 0.9631996750831604
8 33 0.3094085156917572
8 34 0.9468402862548828
8 35 0.9653134942054749
8 36 0.9456585645675659
8 37 0.96196049451828
8 38 0.950473427772522
8 39 0.9604994654655457
8 40 0.25015366077423096
8 41 0.1827957034111023
8 42 0.957207202911377
8 43 0.07315441220998764
8 44 0.9544485807418823
8 45 0.49644508957862854
8 46 0.2718375325202942
8 47 0.9609580039978027
8 48 0.961040198802948
8 49 0.185611754655838
8 50 0.0912395790219307
8 51 0.9350406527519226
8 52 0.10827695578336716
8 53 0.9658924341201782
8 54 0.9372608661651611
8 55 0.957207202911377
8 56 0.9646202325820923
8 58 0.9663492441177368
8 59 0.17668470740318298
8 60 0.8769546747207642
8 61 0.08602150529623032
8 62 0.9335816502571106
8 63 0.2211981564760208
8 65 0.33997756242752075
8 66 0.9572492837905884
8 67 0.9690335988998413
8 68 0.9472257494926453
8 69 0.915515124797821
8 70 0.9640814065933228
8 71 0.19361911714076996
8 72 0.9287933707237244
8 73 0.9573841691017151
8 74 0.8400387763977051
8 75 0.2189750075340271
8 76 0.9658514261245728
8 77 0.16448450088500977
8 78 0.9462491273880005
8 80 0.9685777425765991
8 81 0.683340311050415
8 82 0.5933521389961243
8 83 0.9528142809867859
8 84 0.3130143880844116
8 85 0.9609580039978027
8 86 0.5886779427528381
8 87 0.8656242489814758
8 88 0.9571260213851929
8 89 0.3580324947834015
8 90 0.3652164936065674
8 91 0.9604578614234924
8 92 0.22598028182983398
8 93 0.9609580039978027
8 94 0.9556199312210083
8 95 0.949496328830719
8 96 0.9588757753372192
8 97 0.9576687812805176
8 98 0.32896900177001953
8 99 0.9648162722587585
8 100 0.9566643834114075
8 101 0.9565830826759338
8 102 0.9700289964675903
8 103 0.13320913910865784
8 104 0.3383391797542572
8 105 0.9478132724761963
8 106 0.8387097120285034
8 107 0.9668866395950317
8 108 0.9641570448875427
8 109 0.0912395790219307
8 110 0.9422371983528137
8 111 0.9631180763244629
8 112 0.9626602530479431
8 113 0.9705645442008972
8 114 0.961177408695221
8 115 0.9675045013427734
8 116 0.9674237966537476
8 117 0.20451626181602478
8 118 0.9567064642906189
8 119 0.06451612710952759
8 120 0.958793044090271
8 121 0.966926634311676
8 122 0.9694564938545227
8 123 0.9635796546936035
8 124 0.9550339579582214
8 125 0.6794178485870361
8 126 0.9624630212783813
8 127 0.9580260515213013
8 128 0.9604994654655457
8 129 0.9695308804512024
8 130 0.19084128737449646
8 131 0.9571661949157715
8 132 0.3566940724849701
8 133 0.3511207103729248
8 134 0.23036865890026093
8 135 0.9479368925094604
8 136 0.9648162722587585
8 137 0.9599584937095642
8 138 0.9625784754753113
8 139 0.9252453446388245
8 140 0.1337464600801468
8 141 0.18595527112483978
8 142 0.96099853515625
8 143 0.09677419811487198
8 144 0.1548387110233307
8 145 0.9592560529708862
8 146 0.9608796834945679
8 147 0.9544899463653564
8 148 0.9473887085914612
8 149 0.9699565172195435
8 150 0.9604994654655457
8 151 0.9474319219589233
8 152 0.9554186463356018
8 153 0.1524050235748291
8 154 0.22366943955421448
8 155 0.9663101434707642
8 156 0.14486229419708252
8 157 0.9577497839927673
8 158 0.09726172685623169
8 159 0.9685370326042175
8 160 0.4196869134902954
8 161 0.11660595238208771
8 162 0.9571260213851929
8 163 0.34499967098236084
8 164 0.9468836188316345
8 165 0.9537481069564819
8 166 0.9663891196250916
8 167 0.9396384358406067
8 168 0.96099853515625
8 169 0.951177179813385
8 170 0.14782503247261047
8 171 0.9424851536750793
8 172 0.9131549596786499
8 173 0.9647751450538635
8 174 0.9273970723152161
8 175 0.9717106819152832
8 176 0.9652733206748962
8 177 0.9604172110557556
8 179 0.9467979669570923
8 180 0.9620386362075806
8 181 0.9593755602836609
8 182 0.3578050434589386
8 183 0.9642365574836731
8 184 0.9680412411689758
8 185 0.09677419811487198
8 186 0.9597975015640259
8 187 0.9637388586997986
8 188 0.48301631212234497
8 189 0.9261478185653687
8 190 0.9463348984718323
8 191 0.9690335988998413
8 192 0.10200896114110947
8 193 0.9637388586997986
8 194 0.12517967820167542
8 195 0.959916889667511
8 196 0.959916889667511
8 197 0.10698790103197098
8 198 0.24433888494968414
8 199 0.9369584321975708
8 200 0.921914279460907
8 201 0.9517649412155151
8 202 0.9521884918212891
8 204 0.18530845642089844
8 205 0.9222983121871948
8 206 0.9444405436515808
8 208 0.9663891196250916
8 209 0.9609580039978027
8 210 0.911628007888794
8 211 0.5689113140106201
8 212 0.4708709418773651
8 213 0.18256299197673798
8 214 0.9594172835350037
8 215 0.21883438527584076
8 216 0.961040198802948
8 217 0.9512190222740173
8 218 0.9412953853607178
8 219 0.9604994654655457
8 220 0.9684207439422607
8 221 0.8847963809967041
8 222 0.9674636721611023
8 223 0.9647751450538635
8 224 0.24884133040905
8 225 0.9620386362075806
8 226 0.12096773833036423
8 227 0.9445591568946838
8 228 0.93195641040802
8 229 0.9620791673660278
8 230 0.15803158283233643
8 231 0.6218038201332092
8 232 0.7027291059494019
8 233 0.13320913910865784
8 234 0.9636573195457458
8 235 0.8280777931213379
8 236 0.9716722369194031
8 237 0.9560800194740295
8 238 0.9648162722587585
8 239 0.9527737498283386
8 240 0.9684207439422607
8 241 0.9644807577133179
8 242 0.10200896114110947
8 243 0.9647751450538635
8 244 0.9428271651268005
8 245 0.93182373046875
8 246 0.9450684785842896
8 247 0.9604172110557556
8 248 0.9576296806335449
8 249 0.9489901065826416
8 250 0.9604172110557556
8 251 0.0912395790219307
8 252 0.9539879560470581
8 253 0.10200896114110947
8 254 0.9561633467674255
8 255 0.8377622365951538
9 11 0.17607952654361725
9 12 0.18241645395755768
9 14 0.2070196568965912
9 16 0.1936926394701004
9 17 0.1392786055803299
9 18 0.19446112215518951
9 19 0.17919966578483582
9 20 0.1953868716955185
9 21 0.10241732001304626
9 22 0.18691204488277435
9 25 0.16736474633216858
9 26 0.1902623325586319
9 27 0.19097474217414856
9 28 0.15623947978019714
9 29 0.1709917038679123
9 30 0.19314683973789215
9 32 0.15534920990467072
9 33 0.36490023136138916
9 34 0.18522079288959503
9 35 0.19264838099479675
9 36 0.19128252565860748
9 37 0.17769692838191986
9 38 0.19643117487430573
9 39 0.16112273931503296
9 40 0.10257624834775925
9 42 0.18336902558803558
9 44 0.18945784866809845
9 46 0.11704114079475403
9 47 0.1828908771276474
9 48 0.18251104652881622
9 51 0.19944675266742706
9 53 0.1709788292646408
9 54 0.17689549922943115
9 55 0.18336902558803558
9 56 0.19354839622974396
9 58 0.19264838099479675
9 59 0.33471933007240295
9 60 0.10042483359575272
9 62 0.07174549996852875
9 66 0.16701462864875793
9 67 0.19215379655361176
9 68 0.1913854479789734
9 70 0.1828908771276474
9 71 0.3244428336620331
9 72 0.19575382769107819
9 73 0.1961161345243454
9 74 0.06762351840734482
9 76 0.19254916906356812
9 77 0.1634301245212555
9 78 0.18006190657615662
9 80 0.19185882806777954
9 81 0.23436476290225983
9 82 0.2986595630645752
9 83 0.12469834089279175
9 85 0.19364917278289795
9 86 0.31682315468788147
9 87 0.12556180357933044
9 88 0.17294518649578094
9 90 0.1276884824037552
9 91 0.1827957034111023
9 92 0.09157370775938034
9 93 0.19364917278289795
9 94 0.1672770082950592
9 95 0.19601145386695862
9 96 0.1828908771276474
9 97 0.1836577206850052
9 98 0.3595462739467621
9 99 0.19254916906356812
9 100 0.1726730465888977
9 101 0.19466570019721985
9 102 0.19235117733478546
9 105 0.1856178343296051
9 106 0.08641974627971649
9 107 0.18720057606697083
9 108 0.18787901103496552
9 109 0.3535533845424652
9 110 0.1980295181274414
9 111 0.17714306712150574
9 112 0.19294700026512146
9 113 0.15486998856067657
9 114 0.1953868716955185
9 115 0.1813855767250061
9 116 0.1871042400598526
9 118 0.19405387341976166
9 120 0.17249232530593872
9 121 0.1709788292646408
9 122 0.18194569647312164
9 123 0.18817204236984253
9 124 0.16754065454006195
9 125 0.12972941994667053
9 126 0.16701462864875793
9 127 0.1953868716955185
9 128 0.1826057732105255
9 129 0.19225239753723145
9 130 0.28171807527542114
9 131 0.19435906410217285
9 132 0.0719890370965004
9 134 0.30339401960372925
9 135 0.17413951456546783
9 136 0.18185199797153473
9 137 0.17195357382297516
9 138 0.15038122236728668
9 139 0.14452475309371948
9 140 0.07273929566144943
9 141 0.3736323416233063
9 142 0.1934477686882019
9 143 0.1666666567325592
9 145 0.17816245555877686
9 146 0.19405387341976166
9 147 0.1784435361623764
9 148 0.14156383275985718
9 149 0.19274777173995972
9 150 0.18797652423381805
9 151 0.14685194194316864
9 152 0.19528336822986603
9 153 0.18898223340511322
9 154 0.18490007519721985
9 155 0.19284729659557343
9 157 0.17249232530593872
9 158 0.05025188997387886
9 159 0.1920553296804428
9 160 0.3326495587825775
9 162 0.18375426530838013
9 163 0.0589255653321743
9 164 0.1904650777578354
9 165 0.17948570847511292
9 166 0.12295422703027725
9 167 0.18123115599155426
9 168 0.1558329164981842
9 169 0.18462997674942017
9 170 0.14547859132289886
9 171 0.19128252565860748
9 172 0.13011181354522705
9 173 0.16597723960876465
9 174 0.06114509329199791
9 175 0.1916629672050476
9 176 0.18749041855335236
9 177 0.18298621475696564
9 179 0.17451199889183044
9 180 0.17732711136341095
9 181 0.19375009834766388
9 182 0.22183912992477417
9 183 0.19284729659557343
9 184 0.14929988980293274
9 185 0.0555555559694767
9 186 0.1564849466085434
9 187 0.16062313318252563
9 188 0.19446112215518951
9 189 0.20100755989551544
9 190 0.10889525711536407
9 191 0.19215379655361176
9 193 0.1820395588874817
9 195 0.19364917278289795
9 196 0.1828908771276474
9 199 0.16484512388706207
9 200 0.19799622893333435
9 201 0.1951800137758255
9 202 0.16308200359344482
9 204 0.3191423714160919
9 205 0.16778899729251862
9 206 0.1921105831861496
9 208 0.19245009124279022
9 209 0.19364917278289795
9 210 0.15230192244052887
9 211 0.08934271335601807
9 212 0.224224254488945
9 213 0.20008167624473572
9 214 0.18817204236984253
9 215 0.07216878235340118
9 216 0.17714306712150574
9 217 0.19528336822986603
9 218 0.175453782081604
9 219 0.17723500728607178
9 220 0.19264838099479675
9 221 0.09329485893249512
9 222 0.19225239753723145
9 223 0.19274777173995972
9 224 0.05933908000588417
9 225 0.1612064689397812
9 227 0.1805463284254074
9 228 0.13252590596675873
9 229 0.16103915870189667
9 230 0.06804138422012329
9 231 0.29130274057388306
9 232 0.22183912992477417
9 234 0.18778163194656372
9 235 0.06155973672866821
9 236 0.18652941286563873
9 237 0.18375426530838013
9 238 0.18185199797153473
9 239 0.17910462617874146
9 240 0.19264838099479675
9 241 0.17276360094547272
9 242 0.05270462855696678
9 243 0.1820395588874817
9 244 0.18123115599155426
9 245 0.1495850533246994
9 246 0.1861177533864975
9 247 0.18836814165115356
9 248 0.18925830721855164
9 249 0.17958135902881622
9 250 0.16145841777324677
9 252 0.18375426530838013
9 253 0.10540925711393356
9 254 0.18876221776008606
10 11 0.5048336386680603
10 12 0.5195305943489075
10 13 0.0738314613699913
10 14 0.503150224685669
10 15 0.10427293926477432
10 16 0.537798285484314
10 17 0.5465137362480164
10 18 0.5137252807617188
10 19 0.5145668983459473
10 20 0.495524138212204
10 21 0.5406122207641602
10 22 0.5374403595924377
10 24 0.09983374923467636
10 25 0.5563992261886597
10 26 0.5113540887832642
10 27 0.5340259075164795
10 28 0.5384663939476013
10 29 0.5188601016998291
10 30 0.5417962074279785
10 32 0.5353981852531433
10 33 0.13821355998516083
10 34 0.555777370929718
10 35 0.5163391828536987
10 36 0.5140959620475769
10 37 0.517700731754303
10 38 0.5132687091827393
10 39 0.5423585176467896
10 40 0.09932825714349747
10 42 0.5241087079048157
10 44 0.5410163402557373
10 45 0.34633949398994446
10 46 0.2226225882768631
10 47 0.5525067448616028
10 48 0.5327949523925781
10 50 0.081513911485672
10 51 0.5173163414001465
10 53 0.5321729779243469
10 54 0.508529782295227
10 55 0.5241087079048157
10 56 0.5168920755386353
10 58 0.5311446189880371
10 60 0.4576233923435211
10 61 0.09606507420539856
10 62 0.5630427002906799
10 63 0.20585371553897858
10 65 0.20782050490379333
10 66 0.5533720850944519
10 67 0.529780924320221
10 68 0.5124815106391907
10 69 0.49659791588783264
10 70 0.5432053208351135
10 72 0.41972997784614563
10 73 0.5407053828239441
10 74 0.4698566198348999
10 75 0.1956333965063095
10 76 0.5197727084159851
10 78 0.5113817453384399
10 80 0.5363401174545288
10 81 0.2902161777019501
10 82 0.2703680992126465
10 83 0.5287494659423828
10 84 0.06848537921905518
10 85 0.5208817720413208
10 86 0.24418076872825623
10 87 0.41976118087768555
10 88 0.5551149845123291
10 90 0.07850497215986252
10 91 0.5150327086448669
10 92 0.1820986270904541
10 93 0.5078597068786621
10 94 0.5486429929733276
10 95 0.4820442497730255
10 96 0.5301832556724548
10 97 0.528670072555542
10 99 0.5345704555511475
10 100 0.5449107885360718
10 101 0.518005907535553
10 102 0.5247817039489746
10 103 0.19834953546524048
10 104 0.24508698284626007
10 105 0.49088767170906067
10 106 0.5038079023361206
10 107 0.5512179732322693
10 108 0.529082179069519
10 110 0.4965190291404724
10 111 0.5346513986587524
10 112 0.524553656578064
10 113 0.539287269115448
10 114 0.49927812814712524
10 115 0.5350444316864014
10 116 0.5361441969871521
10 117 0.2549523711204529
10 118 0.4809584319591522
10 119 0.11527808010578156
10 120 0.5331554412841797
10 121 0.5229339003562927
10 122 0.5218912363052368
10 123 0.5336259603500366
10 124 0.5345551371574402
10 125 0.4433705508708954
10 126 0.5272872447967529
10 127 0.5405718088150024
10 128 0.5516454577445984
10 129 0.5152778625488281
10 130 0.16562719643115997
10 131 0.5041201114654541
10 132 0.19419093430042267
10 133 0.4531121850013733
10 134 0.08878188580274582
10 135 0.5382466912269592
10 136 0.5401196479797363
10 137 0.5333485007286072
10 138 0.5219271779060364
10 139 0.49212661385536194
10 140 0.05031147971749306
10 141 0.11998523026704788
10 142 0.5463569760322571
10 144 0.2305561751127243
10 145 0.5153228044509888
10 146 0.5368838310241699
10 147 0.5348364114761353
10 148 0.5441827774047852
10 149 0.520308792591095
10 150 0.5349289178848267
10 151 0.5586507320404053
10 152 0.5327814221382141
10 155 0.5502188801765442
10 157 0.5238345861434937
10 159 0.5202845931053162
10 160 0.24286562204360962
10 161 0.059529345482587814
10 162 0.5270788073539734
10 163 0.2751094698905945
10 164 0.5476565957069397
10 165 0.5417219400405884
10 166 0.550934374332428
10 167 0.5128031373023987
10 168 0.5314901471138
10 169 0.5314687490463257
10 170 0.07546721398830414
10 171 0.5103158354759216
10 172 0.5634421706199646
10 173 0.5554898381233215
10 174 0.5382634401321411
10 175 0.5468398928642273
10 176 0.5298404097557068
10 177 0.5062631368637085
10 179 0.5620300769805908
10 180 0.5333485007286072
10 181 0.49695685505867004
10 182 0.09206348657608032
10 183 0.5168722867965698
10 184 0.5384585857391357
10 186 0.5561075806617737
10 187 0.5332702398300171
10 188 0.3661460280418396
10 189 0.5039859414100647
10 190 0.5554806590080261
10 191 0.5463942289352417
10 192 0.10936238616704941
10 193 0.5425283908843994
10 194 0.1397952139377594
10 195 0.5041391849517822
10 196 0.5264626741409302
10 198 0.3591282069683075
10 199 0.49597907066345215
10 200 0.5536602139472961
10 201 0.5212494730949402
10 202 0.501954197883606
10 205 0.4932311177253723
10 206 0.5353038311004639
10 208 0.550934374332428
10 209 0.5301832556724548
10 210 0.49354884028434753
10 211 0.15139907598495483
10 212 0.17447495460510254
10 214 0.5522192120552063
10 215 0.18302854895591736
10 216 0.5253692865371704
10 217 0.5477893948554993
10 218 0.46646153926849365
10 219 0.5497879981994629
10 220 0.5200405716896057
10 221 0.5444643497467041
10 222 0.5171247124671936
10 223 0.5351218581199646
10 224 0.0752454549074173
10 225 0.5519320964813232
10 226 0.08645855635404587
10 227 0.5638440847396851
10 228 0.5327969789505005
10 229 0.5235128402709961
10 230 0.09412416070699692
10 231 0.31661921739578247
10 232 0.40661370754241943
10 233 0.10578642040491104
10 234 0.5399407148361206
10 235 0.4108866751194
10 236 0.5492417812347412
10 237 0.5252097845077515
10 238 0.5290213227272034
10 239 0.5236789584159851
10 240 0.5274432897567749
10 241 0.519057035446167
10 243 0.5480833053588867
10 244 0.5469900369644165
10 245 0.5326442718505859
10 246 0.543323814868927
10 247 0.5379046201705933
10 248 0.5049155354499817
10 249 0.5288367867469788
10 250 0.545349657535553
10 252 0.5308169722557068
10 254 0.5241087079048157
10 255 0.4813050329685211
11 12 0.9127630591392517
11 13 0.30893537402153015
11 14 0.8360425233840942
11 15 0.10275479406118393
11 16 0.8792569041252136
11 17 0.9113476276397705
11 18 0.9068242311477661
11 19 0.9049624800682068
11 20 0.9055923223495483
11 21 0.9038228988647461
11 22 0.9194561839103699
11 24 0.05902813374996185
11 25 0.9008285403251648
11 26 0.8992552757263184
11 27 0.8858864903450012
11 28 0.9198752641677856
11 29 0.885386049747467
11 30 0.9204426407814026
11 32 0.9124430418014526
11 33 0.27713993191719055
11 34 0.900060772895813
11 35 0.920255720615387
11 36 0.9063121676445007
11 37 0.9282035827636719
11 38 0.9059695601463318
11 39 0.920299768447876
11 40 0.12165345251560211
11 41 0.19311948120594025
11 42 0.9109127521514893
11 43 0.07728596776723862
11 44 0.9020941853523254
11 45 0.47851231694221497
11 46 0.24331383407115936
11 47 0.9107373356819153
11 48 0.9132363796234131
11 49 0.17928647994995117
11 51 0.8700321912765503
11 52 0.12319152057170868
11 53 0.9177433848381042
11 54 0.8828105330467224
11 55 0.9120155572891235
11 56 0.9146607518196106
11 58 0.9158787727355957
11 59 0.13688646256923676
11 60 0.8346798419952393
11 61 0.05679984763264656
11 62 0.8994133472442627
11 63 0.1655309945344925
11 65 0.35287711024284363
11 66 0.9121637344360352
11 67 0.9168016910552979
11 68 0.8956186175346375
11 69 0.8635900616645813
11 70 0.9140371084213257
11 71 0.18244020640850067
11 72 0.8760334849357605
11 73 0.900060772895813
11 74 0.8196007609367371
11 75 0.2361617237329483
11 76 0.9154070019721985
11 77 0.10025430470705032
11 78 0.904853880405426
11 80 0.9153944849967957
11 81 0.6477304697036743
11 82 0.5352583527565002
11 83 0.9068507552146912
11 84 0.3138204514980316
11 85 0.9096373915672302
11 86 0.5145687460899353
11 87 0.8240390419960022
11 88 0.9050906896591187
11 89 0.3161960244178772
11 90 0.34812894463539124
11 91 0.9113627076148987
11 92 0.15448077023029327
11 93 0.9129371643066406
11 94 0.9069765210151672
11 95 0.9006937146186829
11 96 0.9228364825248718
11 97 0.9101378321647644
11 98 0.3041047155857086
11 99 0.913219690322876
11 100 0.9301474690437317
11 101 0.9122011065483093
11 102 0.9221135973930359
11 103 0.148550882935524
11 104 0.28016161918640137
11 105 0.9019902348518372
11 106 0.7876245379447937
11 107 0.9165007472038269
11 108 0.9088459014892578
11 109 0.08434347063302994
11 110 0.8852211833000183
11 111 0.9121387600898743
11 112 0.9118186831474304
11 113 0.9118121862411499
11 114 0.9011531472206116
11 115 0.9206953048706055
11 116 0.9116566777229309
11 117 0.16079387068748474
11 118 0.9137428998947144
11 120 0.9115384221076965
11 121 0.9144657254219055
11 122 0.9125961065292358
11 123 0.9146607518196106
11 124 0.8984599113464355
11 125 0.6038793921470642
11 126 0.9099603891372681
11 127 0.9000433683395386
11 128 0.9104158878326416
11 129 0.9129042029380798
11 130 0.1670561283826828
11 131 0.9107641577720642
11 132 0.3532866835594177
11 133 0.3032377362251282
11 134 0.2147463709115982
11 135 0.8991007208824158
11 136 0.9208754301071167
11 137 0.9141852259635925
11 138 0.9060230255126953
11 139 0.8763406276702881
11 140 0.11898952722549438
11 141 0.16917173564434052
11 142 0.9119877219200134
11 143 0.10223972797393799
11 144 0.14995160698890686
11 145 0.8997246026992798
11 146 0.9093340039253235
11 147 0.898932695388794
11 148 0.89512699842453
11 149 0.9097824096679688
11 150 0.91261225938797
11 151 0.9075191020965576
11 152 0.9084401726722717
11 153 0.1610124260187149
11 154 0.2315756231546402
11 155 0.9113476276397705
11 156 0.11130451411008835
11 157 0.91043621301651
11 158 0.11303027719259262
11 159 0.9217861890792847
11 160 0.4156777858734131
11 161 0.0791945531964302
11 162 0.9161418676376343
11 163 0.34339842200279236
11 164 0.9035517573356628
11 165 0.889724612236023
11 166 0.9236809015274048
11 167 0.9028687477111816
11 168 0.9108889102935791
11 169 0.9016312956809998
11 170 0.05949476361274719
11 171 0.9040770530700684
11 172 0.8571498990058899
11 173 0.9130668640136719
11 174 0.869520902633667
11 175 0.9166371822357178
11 176 0.9146337509155273
11 177 0.9057095646858215
11 179 0.8921028971672058
11 180 0.9163828492164612
11 181 0.9057095646858215
11 182 0.335675448179245
11 183 0.9102522730827332
11 184 0.9136821627616882
11 185 0.07951978594064713
11 186 0.9080799221992493
11 187 0.9097824096679688
11 188 0.4396054148674011
11 189 0.8654236793518066
11 190 0.9151671528816223
11 191 0.9168016910552979
11 192 0.08621610701084137
11 193 0.9174460768699646
11 194 0.09918709844350815
11 195 0.9096373915672302
11 196 0.9052376747131348
11 197 0.08220383524894714
11 198 0.2081761658191681
11 199 0.9202131032943726
11 200 0.8525229096412659
11 201 0.9057421088218689
11 202 0.8948090672492981
11 204 0.1364486813545227
11 205 0.9000501036643982
11 206 0.8866659998893738
11 208 0.9116566777229309
11 209 0.9085374474525452
11 210 0.8662260174751282
11 211 0.5645043253898621
11 212 0.4516151249408722
11 213 0.15780571103096008
11 214 0.9080646634101868
11 215 0.20167946815490723
11 216 0.922017514705658
11 217 0.9028940796852112
11 218 0.8969173431396484
11 219 0.9148086905479431
11 220 0.9115018844604492
11 221 0.8203058838844299
11 222 0.9194561839103699
11 223 0.920730471611023
11 224 0.2669396996498108
11 225 0.9108889102935791
11 226 0.11927968263626099
11 227 0.8983384370803833
11 228 0.8863573670387268
11 229 0.9099435210227966
11 230 0.146087184548378
11 231 0.5480020046234131
11 232 0.6305254697799683
11 233 0.11727700382471085
11 234 0.9072777628898621
11 235 0.8106479644775391
11 236 0.918663740158081
11 237 0.9106162786483765
11 238 0.9121260046958923
11 239 0.8956041932106018
11 240 0.9180672764778137
11 241 0.9074522256851196
11 242 0.09699312597513199
11 243 0.9108772277832031
11 244 0.8815323114395142
11 245 0.9334720969200134
11 246 0.8876295685768127
11 247 0.917815089225769
11 248 0.898932695388794
11 249 0.9068900346755981
11 250 0.9057095646858215
11 251 0.08434347063302994
11 252 0.9128264784812927
11 253 0.10777013748884201
11 254 0.9009875655174255
11 255 0.8286624550819397
12 13 0.31401684880256653
12 14 0.9018882513046265
12 15 0.10676592588424683
12 16 0.9406225085258484
12 17 0.9653400182723999
12 18 0.9598551392555237
12 19 0.9554969072341919
12 20 0.9528934955596924
12 21 0.9620094895362854
12 22 0.9726768136024475
12 24 0.11151337623596191
12 25 0.9603942036628723
12 26 0.9512630105018616
12 27 0.9474475979804993
12 28 0.9594255685806274
12 29 0.9385920166969299
12 30 0.9647668600082397
12 32 0.9653400182723999
12 33 0.2517118752002716
12 34 0.9511890411376953
12 35 0.9695122838020325
12 36 0.9510856866836548
12 37 0.9651650190353394
12 38 0.9463937282562256
12 39 0.9668055176734924
12 40 0.24170978367328644
12 41 0.19314683973789215
12 42 0.9604296684265137
12 43 0.08516974747180939
12 44 0.9556049108505249
12 45 0.5191003084182739
12 46 0.26373815536499023
12 47 0.9610422849655151
12 48 0.9673407077789307
12 49 0.19051888585090637
12 50 0.06828771531581879
12 51 0.9331007599830627
12 52 0.11636403203010559
12 53 0.9690485596656799
12 54 0.9438580870628357
12 55 0.959388017654419
12 56 0.9667726159095764
12 58 0.9664115309715271
12 59 0.17044085264205933
12 60 0.8728532791137695
12 61 0.09657341986894608
12 62 0.9359085559844971
12 63 0.18854808807373047
12 65 0.34820041060447693
12 66 0.9604661464691162
12 67 0.9742397665977478
12 68 0.9526536464691162
12 69 0.92231684923172
12 70 0.962081253528595
12 71 0.1932174116373062
12 72 0.9257861375808716
12 73 0.9553978443145752
12 74 0.8371085524559021
12 75 0.22762572765350342
12 76 0.9710790514945984
12 77 0.16414323449134827
12 78 0.9495553970336914
12 80 0.9727444052696228
12 81 0.6833828687667847
12 82 0.5904244780540466
12 83 0.9539790153503418
12 84 0.32511457800865173
12 85 0.962081253528595
12 86 0.5874566435813904
12 87 0.8684477210044861
12 88 0.9561842679977417
12 89 0.36566367745399475
12 90 0.3671990931034088
12 91 0.9646956920623779
12 92 0.20782427489757538
12 93 0.9651980996131897
12 94 0.9609329700469971
12 95 0.955939531326294
12 96 0.9672760367393494
12 97 0.9567252397537231
12 98 0.3219732940196991
12 99 0.9679798483848572
12 100 0.9588484764099121
12 101 0.9671315550804138
12 102 0.9690485596656799
12 103 0.1403179168701172
12 104 0.29809412360191345
12 105 0.9469013810157776
12 106 0.846507728099823
12 107 0.9669467806816101
12 108 0.9663039445877075
12 109 0.07966900616884232
12 110 0.9392198324203491
12 111 0.9673407077789307
12 112 0.9710149765014648
12 113 0.9695824384689331
12 114 0.953941822052002
12 115 0.9696188569068909
12 116 0.9695468544960022
12 117 0.19459930062294006
12 118 0.9651328921318054
12 120 0.9630506634712219
12 121 0.970080554485321
12 122 0.9705458879470825
12 123 0.9615805149078369
12 124 0.9572281241416931
12 125 0.6765342950820923
12 126 0.9625473618507385
12 127 0.953941822052002
12 128 0.9657681584358215
12 129 0.9726768136024475
12 130 0.18500405550003052
12 131 0.9687363505363464
12 132 0.34761133790016174
12 133 0.3531731069087982
12 134 0.2118600606918335
12 135 0.9638384580612183
12 136 0.9669467806816101
12 137 0.9641941785812378
12 138 0.9657681584358215
12 139 0.9351357817649841
12 140 0.1475183367729187
12 141 0.2010335922241211
12 142 0.9641941785812378
12 143 0.0858430340886116
12 144 0.1352027803659439
12 145 0.9593513607978821
12 146 0.9588861465454102
12 147 0.9629538655281067
12 148 0.9496297240257263
12 149 0.9669100642204285
12 150 0.9626561403274536
12 151 0.9559714794158936
12 152 0.9565796256065369
12 153 0.17033949494361877
12 154 0.22320538759231567
12 155 0.9653400182723999
12 156 0.1577037274837494
12 157 0.9640917778015137
12 158 0.10676592588424683
12 159 0.9727100729942322
12 160 0.4307143986225128
12 161 0.12467575073242188
12 162 0.9582719802856445
12 163 0.3471292555332184
12 164 0.9564809203147888
12 165 0.950718879699707
12 166 0.9695468544960022
12 167 0.9451140761375427
12 168 0.9756109118461609
12 169 0.9513015151023865
12 170 0.14049366116523743
12 171 0.9500301480293274
12 172 0.9156310558319092
12 173 0.9658758640289307
12 174 0.9308412075042725
12 175 0.9768928289413452
12 176 0.9694786667823792
12 177 0.9605036377906799
12 179 0.9469403624534607
12 180 0.9652321338653564
12 181 0.9625826478004456
12 182 0.3456366956233978
12 183 0.9653400182723999
12 184 0.9753018021583557
12 185 0.09657341986894608
12 186 0.9578062295913696
12 187 0.9658758640289307
12 188 0.4569745361804962
12 189 0.9274616241455078
12 190 0.9538363218307495
12 191 0.9690850377082825
12 192 0.09161758422851562
12 193 0.9658758640289307
12 194 0.10149747133255005
12 195 0.9672760367393494
12 196 0.9641591310501099
12 197 0.10676592588424683
12 198 0.25169751048088074
12 199 0.9541180729866028
12 200 0.9112604856491089
12 201 0.9613091945648193
12 202 0.9565128684043884
12 204 0.17932026088237762
12 205 0.9290268421173096
12 206 0.9414209127426147
12 208 0.9685142636299133
12 209 0.9641591310501099
12 210 0.9140946865081787
12 211 0.5970667004585266
12 212 0.4677286148071289
12 213 0.18770499527454376
12 214 0.9615805149078369
12 215 0.22302675247192383
12 216 0.9642303586006165
12 217 0.954484224319458
12 218 0.9531096816062927
12 219 0.9626561403274536
12 220 0.9684786796569824
12 221 0.8807083368301392
12 222 0.968550980091095
12 223 0.9669100642204285
12 224 0.26360660791397095
12 225 0.9621184468269348
12 226 0.1287645548582077
12 227 0.9436562657356262
12 228 0.9396217465400696
12 229 0.9642303586006165
12 230 0.1577037274837494
12 231 0.6092609763145447
12 232 0.7112689018249512
12 233 0.09600698947906494
12 234 0.9637306332588196
12 235 0.8560848832130432
12 236 0.9706856608390808
12 237 0.9582719802856445
12 238 0.9700459837913513
12 239 0.9528934955596924
12 240 0.9684786796569824
12 241 0.9593513607978821
12 242 0.10179731994867325
12 243 0.9689782857894897
12 244 0.942992627620697
12 245 0.9309606552124023
12 246 0.9431077241897583
12 247 0.9646616578102112
12 248 0.9577317833900452
12 249 0.9512255191802979
12 250 0.9615431427955627
12 251 0.09105028957128525
12 252 0.959315836429596
12 253 0.09161758422851562
12 254 0.9583463072776794
12 255 0.8348399996757507
13 14 0.24137933552265167
13 16 0.2780972123146057
13 17 0.31669682264328003
13 18 0.3193470537662506
13 19 0.32424798607826233
13 20 0.32728469371795654
13 21 0.31867825984954834
13 22 0.315719872713089
13 25 0.29045331478118896
13 26 0.3085238039493561
13 27 0.2774207890033722
13 28 0.31532663106918335
13 29 0.2869648337364197
13 30 0.30767306685447693
13 32 0.31986379623413086
13 33 0.061636604368686676
13 34 0.27375519275665283
13 35 0.32586127519607544
13 36 0.3263331949710846
13 37 0.3278958201408386
13 38 0.3096790313720703
13 39 0.32069310545921326
13 41 0.1806437075138092
13 42 0.32203352451324463
13 44 0.28801804780960083
13 45 0.19936756789684296
13 46 0.10379166156053543
13 47 0.31483355164527893
13 48 0.3237002491950989
13 51 0.2947810888290405
13 52 0.050882186740636826
13 53 0.3253585398197174
13 54 0.2875955402851105
13 55 0.32841044664382935
13 56 0.32420510053634644
13 58 0.31004273891448975
13 59 0.10793741047382355
13 60 0.31431660056114197
13 62 0.30669862031936646
13 65 0.16396869719028473
13 66 0.31532663106918335
13 67 0.32502466440200806
13 68 0.3038794696331024
13 69 0.2929624915122986
13 70 0.3211938142776489
13 71 0.07992076128721237
13 72 0.3405745029449463
13 73 0.32528558373451233
13 74 0.20716316998004913
13 75 0.12541194260120392
13 76 0.3162071704864502
13 78 0.30645322799682617
13 80 0.32452577352523804
13 81 0.1564340442419052
13 82 0.16618052124977112
13 83 0.3237329125404358
13 84 0.22439292073249817
13 85 0.3275541067123413
13 86 0.2889849841594696
13 87 0.31106671690940857
13 88 0.3131246268749237
13 89 0.3161238729953766
13 90 0.08387679606676102
13 91 0.3273836076259613
13 93 0.31801366806030273
13 94 0.315822035074234
13 95 0.33154985308647156
13 96 0.3243739604949951
13 97 0.2842188775539398
13 98 0.11594337224960327
13 99 0.32569342851638794
13 100 0.3190121352672577
13 101 0.3260766863822937
13 102 0.3221997022628784
13 103 0.06781501322984695
13 104 0.20483070611953735
13 105 0.32921043038368225
13 106 0.2700531780719757
13 107 0.303558886051178
13 108 0.311006098985672
13 110 0.31545087695121765
13 111 0.326873779296875
13 112 0.3105233311653137
13 113 0.315719872713089
13 114 0.3144499957561493
13 115 0.3248580992221832
13 116 0.3097236156463623
13 118 0.3154914677143097
13 120 0.32505181431770325
13 121 0.3253585398197174
13 122 0.32269755005836487
13 123 0.3114911913871765
13 124 0.3227100670337677
13 125 0.18046052753925323
13 126 0.32488197088241577
13 127 0.33049339056015015
13 128 0.31116756796836853
13 129 0.325191468000412
13 131 0.32875484228134155
13 132 0.15321508049964905
13 135 0.30241814255714417
13 136 0.3162071704864502
13 137 0.3176828920841217
13 138 0.314342737197876
13 139 0.3089081645011902
13 140 0.19351482391357422
13 141 0.1735568642616272
13 142 0.31450608372688293
13 145 0.31279587745666504
13 146 0.31867825984954834
13 147 0.3068957030773163
13 148 0.30579841136932373
13 149 0.319698691368103
13 150 0.32704347372055054
13 151 0.30868804454803467
13 152 0.3046624958515167
13 153 0.0558629147708416
13 154 0.23228898644447327
13 155 0.28819411993026733
13 156 0.10056474804878235
13 157 0.3154914677143097
13 158 0.14854396879673004
13 159 0.32170411944389343
13 160 0.10925645381212234
13 162 0.3131246268749237
13 163 0.13063743710517883
13 164 0.30563536286354065
13 165 0.30225706100463867
13 166 0.322365403175354
13 167 0.3181835114955902
13 168 0.31450608372688293
13 169 0.308196097612381
13 170 0.10750824213027954
13 171 0.274636834859848
13 172 0.29430943727493286
13 173 0.307037353515625
13 174 0.2891906499862671
13 175 0.311604380607605
13 176 0.3135298490524292
13 177 0.3213611841201782
13 179 0.2547035813331604
13 180 0.3272134065628052
13 181 0.32772478461265564
13 182 0.3934522569179535
13 183 0.31669682264328003
13 184 0.3246918320655823
13 186 0.29030105471611023
13 187 0.3133680522441864
13 188 0.17883434891700745
13 189 0.2937869727611542
13 190 0.2961416244506836
13 191 0.299780011177063
13 193 0.307037353515625
13 195 0.3275541067123413
13 196 0.3275541067123413
13 199 0.3216049075126648
13 200 0.24079863727092743
13 201 0.3012959957122803
13 202 0.30209624767303467
13 204 0.15437142550945282
13 205 0.3306548297405243
13 206 0.30827587842941284
13 208 0.3002423048019409
13 209 0.3275541067123413
13 210 0.32014408707618713
13 211 0.39614391326904297
13 212 0.1126767173409462
13 213 0.20277908444404602
13 214 0.3019557297229767
13 215 0.07111001759767532
13 216 0.31735315918922424
13 217 0.31107643246650696
13 218 0.31766656041145325
13 219 0.3079923689365387
13 220 0.32586127519607544
13 221 0.25509506464004517
13 222 0.31887707114219666
13 223 0.3165333569049835
13 224 0.18709930777549744
13 225 0.3176828920841217
13 227 0.2619946300983429
13 228 0.29707327485084534
13 229 0.326873779296875
13 230 0.06033884733915329
13 231 0.25094547867774963
13 232 0.23169967532157898
13 234 0.30767306685447693
13 235 0.2765941619873047
13 236 0.28671693801879883
13 237 0.29714885354042053
13 238 0.32569342851638794
13 239 0.3112413287162781
13 240 0.32586127519607544
13 241 0.31279587745666504
13 243 0.3133680522441864
13 244 0.2824690341949463
13 245 0.31443315744400024
13 246 0.31391584873199463
13 247 0.3086340129375458
13 248 0.29091155529022217
13 249 0.30563536286354065
13 250 0.2895432710647583
13 252 0.3163197636604309
13 254 0.31246817111968994
13 255 0.27184441685676575
14 16 0.8901797533035278
14 17 0.9004895687103271
14 18 0.8968426585197449
14 19 0.8982178568840027
14 20 0.8988650441169739
14 21 0.891616702079773
14 22 0.9120839834213257
14 24 0.11952286213636398
14 25 0.9086663722991943
14 26 0.8935460448265076
14 27 0.91044682264328
14 28 0.8967273831367493
14 29 0.8781148195266724
14 30 0.9085524678230286
14 32 0.9004895687103271
14 33 0.3021661043167114
14 34 0.8875588774681091
14 35 0.9017764329910278
14 36 0.884760320186615
14 37 0.8973739743232727
14 38 0.8844663500785828
14 39 0.8972650170326233
14 40 0.2378353625535965
14 41 0.12651202082633972
14 42 0.9010154008865356
14 43 0.05216405540704727
14 44 0.9043357968330383
14 45 0.5077276229858398
14 46 0.23018328845500946
14 47 0.8975523710250854
14 48 0.8967995643615723
14 49 0.17016912996768951
14 51 0.872812032699585
14 52 0.10690449178218842
14 53 0.9037035703659058
14 54 0.8754671812057495
14 55 0.899898886680603
14 56 0.9004242420196533
14 58 0.9150704741477966
14 59 0.16378460824489594
14 60 0.8291507959365845
14 61 0.09200873970985413
14 62 0.8705984950065613
14 63 0.22673584520816803
14 65 0.2041490525007248
14 66 0.8956120610237122
14 67 0.9127211570739746
14 68 0.8976885676383972
14 69 0.8521688580513
14 70 0.8997794985771179
14 71 0.16791512072086334
14 72 0.8718641996383667
14 73 0.8830477595329285
14 74 0.8132378458976746
14 75 0.10734901577234268
14 76 0.9057409763336182
14 77 0.16916625201702118
14 78 0.8776887655258179
14 80 0.9080102443695068
14 81 0.6682978868484497
14 82 0.5910067558288574
14 83 0.8923014402389526
14 84 0.19814735651016235
14 85 0.8975523710250854
14 86 0.5078433752059937
14 87 0.8478918075561523
14 88 0.8917198777198792
14 89 0.32909953594207764
14 90 0.37007635831832886
14 91 0.8926331996917725
14 92 0.24644826352596283
14 93 0.9020067453384399
14 94 0.8880824446678162
14 95 0.8848307728767395
14 96 0.8986659646034241
14 97 0.8968426585197449
14 98 0.2909659445285797
14 99 0.9035264849662781
14 100 0.8880824446678162
14 101 0.8944278359413147
14 102 0.9092341661453247
14 104 0.3064638078212738
14 105 0.8838105201721191
14 106 0.7616279125213623
14 107 0.9068483114242554
14 108 0.9023559093475342
14 109 0.09759000688791275
14 110 0.8882467150688171
14 111 0.8956882953643799
14 112 0.9076123237609863
14 113 0.9043450951576233
14 114 0.8954943418502808
14 115 0.9034180045127869
14 116 0.908595085144043
14 117 0.18314030766487122
14 118 0.891616702079773
14 119 0.0690065547823906
14 120 0.8882690072059631
14 121 0.8992790579795837
14 122 0.9017764329910278
14 123 0.9093283414840698
14 124 0.8995517492294312
14 125 0.6540358066558838
14 126 0.891150712966919
14 127 0.8954943418502808
14 128 0.9161665439605713
14 129 0.9032395482063293
14 130 0.19829201698303223
14 131 0.8885482549667358
14 132 0.31594669818878174
14 133 0.3099854290485382
14 134 0.22707697749137878
14 135 0.8832324743270874
14 136 0.9013119339942932
14 137 0.9066307544708252
14 138 0.8950413465499878
14 139 0.878021240234375
14 140 0.12799695134162903
14 141 0.1988980770111084
14 142 0.8999561071395874
14 143 0.1035098284482956
14 144 0.15871508419513702
14 145 0.8986073136329651
14 146 0.8983122110366821
14 147 0.8977862000465393
14 148 0.8915938138961792
14 149 0.9066752791404724
14 150 0.8994886875152588
14 151 0.8793840408325195
14 152 0.8950198888778687
14 153 0.16953317821025848
14 154 0.20574398338794708
14 155 0.9093614220619202
14 156 0.13381609320640564
14 157 0.8938485383987427
14 159 0.9122533798217773
14 160 0.42084166407585144
14 161 0.12472191452980042
14 162 0.892838716506958
14 163 0.23787564039230347
14 164 0.89337158203125
14 165 0.8973996043205261
14 166 0.9030616283416748
14 167 0.875429630279541
14 168 0.8955064415931702
14 169 0.8982178568840027
14 170 0.1505846530199051
14 171 0.8870230913162231
14 172 0.8619425296783447
14 173 0.8989164233207703
14 174 0.8619107604026794
14 175 0.9081854224205017
14 176 0.9015985727310181
14 177 0.9002485275268555
14 179 0.8851217031478882
14 180 0.9055182337760925
14 181 0.8969060778617859
14 182 0.31841376423835754
14 183 0.9060344696044922
14 184 0.9029555320739746
14 185 0.06900654733181
14 186 0.8970191478729248
14 187 0.9066752791404724
14 188 0.4227014183998108
14 189 0.8623039126396179
14 190 0.881449282169342
14 191 0.9094061255455017
14 192 0.0981980562210083
14 193 0.9055668711662292
14 194 0.14226065576076508
14 195 0.8986659646034241
14 196 0.8964387774467468
14 197 0.11443442851305008
14 198 0.24869954586029053
14 199 0.8724927306175232
14 200 0.8736537098884583
14 201 0.8900566697120667
14 202 0.8822922706604004
14 204 0.19820623099803925
14 205 0.87070631980896
14 206 0.8874541521072388
14 208 0.9074884057044983
14 209 0.8953251838684082
14 210 0.8758193254470825
14 211 0.508631706237793
14 212 0.4757930338382721
14 213 0.15976610779762268
14 214 0.9071023464202881
14 215 0.17430417239665985
14 216 0.9023559093475342
14 217 0.8950198888778687
14 218 0.878547728061676
14 219 0.8928176164627075
14 220 0.9084234833717346
14 221 0.8401533961296082
14 222 0.905450701713562
14 223 0.9033500552177429
14 224 0.18017058074474335
14 225 0.9010685682296753
14 226 0.077632375061512
14 227 0.8857132792472839
14 228 0.8882233500480652
14 229 0.8945770263671875
14 230 0.1479019969701767
14 231 0.5858238935470581
14 232 0.684283435344696
14 233 0.14248070120811462
14 234 0.924102246761322
14 235 0.7748398780822754
14 236 0.9091135859489441
14 237 0.8995517492294312
14 238 0.9024192690849304
14 239 0.9022358059883118
14 240 0.9017764329910278
14 241 0.8907836675643921
14 242 0.05455447733402252
14 243 0.9100005030632019
14 244 0.9004419445991516
14 245 0.857901930809021
14 246 0.8895905017852783
14 247 0.9047052264213562
14 248 0.8933084607124329
14 249 0.8922450542449951
14 250 0.8924493789672852
14 251 0.08539125323295593
14 252 0.887244462966919
14 253 0.10910895466804504
14 254 0.9077143669128418
14 255 0.7678802609443665
15 16 0.11012671887874603
15 17 0.10660036653280258
15 18 0.09772038459777832
15 19 0.09823770821094513
15 20 0.09818560630083084
15 21 0.10726731270551682
15 22 0.09661047160625458
15 25 0.10743601620197296
15 27 0.059226226061582565
15 28 0.10721126198768616
15 29 0.0997856855392456
15 30 0.10676592588424683
15 32 0.10660036653280258
15 34 0.10840727388858795
15 35 0.10649040341377258
15 36 0.1087564080953598
15 37 0.10715528577566147
15 38 0.0888393446803093
15 39 0.10687673836946487
15 42 0.10732346028089523
15 44 0.10771896690130234
15 46 0.21173538267612457
15 47 0.10704360902309418
15 48 0.10682129114866257
15 51 0.1002257689833641
15 53 0.10632611066102982
15 54 0.060002993792295456
15 55 0.09756678342819214
15 56 0.09726172685623169
15 58 0.06776662170886993
15 60 0.10686785727739334
15 62 0.0898563414812088
15 65 0.13937367498874664
15 66 0.10721126198768616
15 67 0.09656091034412384
15 68 0.05935359373688698
15 69 0.10187124460935593
15 70 0.10704360902309418
15 72 0.07082640379667282
15 73 0.10840727388858795
15 75 0.12792041897773743
15 76 0.10643555223941803
15 78 0.10858141630887985
15 80 0.10605397075414658
15 81 0.06838416308164597
15 82 0.07945521920919418
15 83 0.1078898087143898
15 85 0.10704360902309418
15 86 0.09825508296489716
15 88 0.10754892975091934
15 91 0.10698790103197098
15 93 0.09731236845254898
15 94 0.10737969726324081
15 95 0.10834941267967224
15 96 0.09731236845254898
15 97 0.10749242454767227
15 99 0.09675959497690201
15 100 0.09761790186166763
15 101 0.10760551691055298
15 102 0.10632611066102982
15 103 0.20751431584358215
15 105 0.108639657497406
15 106 0.12283795326948166
15 107 0.10643555223941803
15 108 0.09711026400327682
15 110 0.08956221491098404
15 111 0.10682129114866257
15 112 0.10665546357631683
15 113 0.10627152025699615
15 114 0.0883670449256897
15 115 0.10616257041692734
15 116 0.10638079792261124
15 117 0.22227711975574493
15 118 0.09751573950052261
15 120 0.10726731270551682
15 121 0.10632611066102982
15 122 0.10649040341377258
15 123 0.10698790103197098
15 124 0.07821740210056305
15 125 0.1380525678396225
15 126 0.10721126198768616
15 127 0.09818560630083084
15 128 0.08744460344314575
15 129 0.10627152025699615
15 131 0.10743601620197296
15 133 0.1823262721300125
15 135 0.09844695031642914
15 136 0.10643555223941803
15 137 0.09721115976572037
15 138 0.08744460344314575
15 139 0.09050370007753372
15 142 0.10693227499723434
15 145 0.10743601620197296
15 146 0.08776416629552841
15 147 0.09782319515943527
15 148 0.10834941267967224
15 149 0.0968594029545784
15 150 0.09716066718101501
15 151 0.10823395848274231
15 152 0.10794694721698761
15 153 0.05698028579354286
15 155 0.10660036653280258
15 157 0.09751573950052261
15 159 0.0868602842092514
15 162 0.08799457550048828
15 163 0.26650089025497437
15 164 0.10829164832830429
15 165 0.10823395848274231
15 166 0.10638079792261124
15 167 0.10928650945425034
15 168 0.10693227499723434
15 169 0.09823770821094513
15 171 0.1087564080953598
15 172 0.11257358640432358
15 173 0.1065453439950943
15 174 0.11061563342809677
15 175 0.10594569891691208
15 176 0.10660036653280258
15 177 0.10709939897060394
15 179 0.09865752607584
15 180 0.08749004453420639
15 181 0.10709939897060394
15 183 0.09690941870212555
15 184 0.10610823333263397
15 185 0.10050377994775772
15 186 0.09761790186166763
15 187 0.1065453439950943
15 188 0.09772038459777832
15 189 0.10101009905338287
15 190 0.10834941267967224
15 191 0.10621700435876846
15 193 0.1065453439950943
15 195 0.10704360902309418
15 196 0.10704360902309418
15 198 0.07367094606161118
15 199 0.10934588313102722
15 200 0.11257358640432358
15 201 0.08827348053455353
15 202 0.08850793540477753
15 205 0.08094446361064911
15 206 0.10922722518444061
15 208 0.10638079792261124
15 209 0.09731236845254898
15 211 0.09697622805833817
15 213 0.1034175381064415
15 214 0.09726172685623169
15 216 0.10682129114866257
15 217 0.10794694721698761
15 218 0.09918995201587677
15 219 0.10687673836946487
15 220 0.09680946171283722
15 221 0.0843883752822876
15 222 0.086949422955513
15 223 0.0871734619140625
15 224 0.07156562805175781
15 225 0.10693227499723434
15 226 0.15075567364692688
15 227 0.10887353867292404
15 228 0.08990564197301865
15 229 0.10682129114866257
15 232 0.1337740272283554
15 234 0.058235958218574524
15 235 0.05568288266658783
15 236 0.10605397075414658
15 237 0.08799457550048828
15 238 0.09675959497690201
15 239 0.07854848355054855
15 240 0.10649040341377258
15 241 0.10743601620197296
15 243 0.1065453439950943
15 244 0.08941622823476791
15 245 0.1002257689833641
15 246 0.1089322566986084
15 247 0.08762677758932114
15 248 0.10760551691055298
15 249 0.08860225230455399
15 250 0.10709939897060394
15 252 0.10754892975091934
15 254 0.10732346028089523
15 255 0.08873019367456436
16 17 0.9434327483177185
16 18 0.9276521801948547
16 19 0.9228262305259705
16 20 0.9244993329048157
16 21 0.9300050735473633
16 22 0.9405223727226257
16 24 0.11502360552549362
16 25 0.9346944093704224
16 26 0.9205583930015564
16 27 0.9294405579566956
16 28 0.9348857402801514
16 29 0.9131917953491211
16 30 0.935278058052063
16 32 0.9370293021202087
16 33 0.29425328969955444
16 34 0.9355471730232239
16 35 0.937129020690918
16 36 0.9298496842384338
16 37 0.9311792850494385
16 38 0.9196569919586182
16 39 0.9351787567138672
16 40 0.24523115158081055
16 41 0.15495410561561584
16 42 0.9294173717498779
16 44 0.932842493057251
16 45 0.46011245250701904
16 46 0.2603812515735626
16 47 0.9355672001838684
16 48 0.9357630610466003
16 49 0.1746809184551239
16 50 0.0939163863658905
16 51 0.9072853326797485
16 52 0.08573353290557861
16 53 0.9378121495246887
16 54 0.9063881635665894
16 55 0.927268385887146
16 56 0.9307957887649536
16 58 0.9435257911682129
16 59 0.17580601572990417
16 60 0.8450146913528442
16 61 0.0664089024066925
16 62 0.9015976190567017
16 63 0.1992267370223999
16 65 0.27320799231529236
16 66 0.9284456968307495
16 67 0.9442935585975647
16 68 0.9129195809364319
16 69 0.8851590156555176
16 70 0.9377105236053467
16 71 0.17775361239910126
16 72 0.8891862630844116
16 73 0.9257792234420776
16 74 0.8034456968307495
16 75 0.21600769460201263
16 76 0.9419742226600647
16 77 0.14977438747882843
16 78 0.917482852935791
16 80 0.9407206177711487
16 81 0.6898325681686401
16 82 0.584509551525116
16 83 0.9256808757781982
16 84 0.24657981097698212
16 85 0.9312804937362671
16 86 0.5572563409805298
16 87 0.8397982716560364
16 88 0.9292164444923401
16 89 0.2764023542404175
16 90 0.35049232840538025
16 91 0.9350802898406982
16 92 0.19612225890159607
16 93 0.9302088618278503
16 94 0.9331294298171997
16 95 0.9198614358901978
16 96 0.9355672001838684
16 97 0.9276521801948547
16 98 0.32559648156166077
16 99 0.9409086108207703
16 100 0.9288292527198792
16 101 0.9329372644424438
16 102 0.943134605884552
16 103 0.129499614238739
16 104 0.2886524200439453
16 105 0.9266762137413025
16 106 0.8313411474227905
16 107 0.944105327129364
16 108 0.9325547218322754
16 109 0.08217683434486389
16 110 0.917276918888092
16 111 0.9357630610466003
16 112 0.9428526163101196
16 113 0.939458429813385
16 114 0.9244993329048157
16 115 0.9427467584609985
16 116 0.9425545334815979
16 117 0.21051637828350067
16 118 0.9300050735473633
16 119 0.0664089098572731
16 120 0.9289311766624451
16 121 0.9399411082267761
16 122 0.9381951689720154
16 123 0.9404358267784119
16 124 0.9302931427955627
16 125 0.6750254034996033
16 126 0.9305923581123352
16 127 0.9299057722091675
16 128 0.9426687955856323
16 129 0.939458429813385
16 130 0.1739898920059204
16 131 0.9314676523208618
16 132 0.3384745121002197
16 133 0.37002721428871155
16 134 0.21387948095798492
16 135 0.9226233959197998
16 136 0.944105327129364
16 137 0.9313824772834778
16 138 0.9308988451957703
16 139 0.9247045516967773
16 140 0.115932896733284
16 141 0.2020447850227356
16 142 0.9388763308525085
16 143 0.0664089024066925
16 144 0.14609961211681366
16 145 0.9325432777404785
16 146 0.9343007206916809
16 147 0.9275508522987366
16 148 0.932878315448761
16 149 0.9461458325386047
16 150 0.9351787567138672
16 151 0.9242991805076599
16 152 0.9250903129577637
16 153 0.16942641139030457
16 154 0.21181295812129974
16 155 0.941298246383667
16 156 0.13555662333965302
16 157 0.9289311766624451
16 158 0.09010367840528488
16 159 0.9384953379631042
16 160 0.4270906150341034
16 161 0.1114535927772522
16 162 0.9281396865844727
16 163 0.34925153851509094
16 164 0.9247917532920837
16 165 0.9286335706710815
16 166 0.9393593668937683
16 167 0.9070287942886353
16 168 0.9452996253967285
16 169 0.92607182264328
16 170 0.15216194093227386
16 171 0.924405574798584
16 172 0.8959909081459045
16 173 0.9365456700325012
16 174 0.8992336392402649
16 175 0.942942202091217
16 176 0.9402310252189636
16 177 0.9339104294776917
16 179 0.9311159253120422
16 180 0.9345940947532654
16 181 0.9328382015228271
16 182 0.34178459644317627
16 183 0.9402310252189636
16 184 0.9412018656730652
16 185 0.09961336106061935
16 186 0.9363545179367065
16 187 0.9408124089241028
16 188 0.4713592231273651
16 189 0.9088234901428223
16 190 0.9166072010993958
16 191 0.9411033987998962
16 192 0.09450153261423111
16 193 0.9397457242012024
16 194 0.12885220348834991
16 195 0.9334238767623901
16 196 0.9334238767623901
16 197 0.07008063793182373
16 198 0.255563884973526
16 199 0.9129952192306519
16 200 0.9174044728279114
16 201 0.9246007204055786
16 202 0.9216413497924805
16 204 0.18496491014957428
16 205 0.8981004357337952
16 206 0.9130979180335999
16 208 0.9382943511009216
16 209 0.9312804937362671
16 210 0.8866785764694214
16 211 0.550003170967102
16 212 0.45788252353668213
16 213 0.17083550989627838
16 214 0.9404358267784119
16 215 0.21087662875652313
16 216 0.9346935749053955
16 217 0.9348167181015015
16 218 0.9153862595558167
16 219 0.9362488389015198
16 220 0.9381951689720154
16 221 0.8910061120986938
16 222 0.9373305439949036
16 223 0.9365456700325012
16 224 0.24037928879261017
16 225 0.9388763308525085
16 226 0.1328178197145462
16 227 0.9254012107849121
16 228 0.9152936935424805
16 229 0.9346935749053955
16 230 0.12877880036830902
16 231 0.6433627009391785
16 232 0.715979814529419
16 233 0.09902910888195038
16 234 0.935278058052063
16 235 0.7996352910995483
16 236 0.9439058899879456
16 237 0.9259862303733826
16 238 0.9377118945121765
16 239 0.9223368167877197
16 240 0.939261257648468
16 241 0.9282408356666565
16 242 0.09450153261423111
16 243 0.9408124089241028
16 244 0.9168758988380432
16 245 0.9028702974319458
16 246 0.9204472899436951
16 247 0.9349825978279114
16 248 0.9286280870437622
16 249 0.9204550981521606
16 250 0.9371270537376404
16 251 0.0939163863658905
16 252 0.9313699007034302
16 253 0.08400136232376099
16 254 0.9390875697135925
16 255 0.8171471357345581
17 18 0.9583665728569031
17 19 0.9550623893737793
17 20 0.9535091519355774
17 21 0.9677943587303162
17 22 0.9701384902000427
17 24 0.10206207633018494
17 25 0.9609870910644531
17 26 0.9529328346252441
17 27 0.9533441662788391
17 28 0.9631326198577881
17 29 0.9413913488388062
17 30 0.9663746953010559
17 32 0.9762396812438965
17 33 0.2814801037311554
17 34 0.9570679664611816
17 35 0.9680087566375732
17 36 0.949610710144043
17 37 0.9626297950744629
17 38 0.9512396454811096
17 39 0.9663418531417847
17 40 0.23342232406139374
17 41 0.18749041855335236
17 42 0.9599803686141968
17 43 0.08503766357898712
17 44 0.9582985639572144
17 45 0.5045003890991211
17 46 0.26709097623825073
17 47 0.9657759666442871
17 48 0.9658405184745789
17 49 0.19550737738609314
17 50 0.09090908616781235
17 51 0.9348589777946472
17 52 0.12448239326477051
17 53 0.9696065187454224
17 54 0.9381300806999207
17 55 0.9631005525588989
17 56 0.9631996750831604
17 58 0.9700728058815002
17 59 0.16430838406085968
17 60 0.8851702213287354
17 61 0.09642364829778671
17 62 0.9429715871810913
17 63 0.22498852014541626
17 65 0.3149743974208832
17 66 0.9662495851516724
17 67 0.970670223236084
17 68 0.9459035992622375
17 69 0.9274021983146667
17 70 0.9626638889312744
17 71 0.15120582282543182
17 72 0.9243505001068115
17 73 0.949713945388794
17 74 0.8500369191169739
17 75 0.2181818038225174
17 76 0.96854168176651
17 77 0.13237164914608002
17 78 0.9543964266777039
17 80 0.9722636342048645
17 81 0.6866968870162964
17 82 0.5810388922691345
17 83 0.9608640074729919
17 84 0.3055156469345093
17 85 0.9626638889312744
17 86 0.5463951230049133
17 87 0.8682540059089661
17 88 0.9599125981330872
17 89 0.3483746349811554
17 90 0.36115753650665283
17 91 0.9642365574836731
17 92 0.22516171634197235
17 93 0.9626638889312744
17 94 0.9615238904953003
17 95 0.9502570629119873
17 96 0.9668132662773132
17 97 0.9656585454940796
17 98 0.30256372690200806
17 99 0.9736989736557007
17 100 0.9615238904953003
17 101 0.9572893381118774
17 102 0.9706369042396545
17 103 0.14010031521320343
17 104 0.337113618850708
17 105 0.9506970047950745
17 106 0.8440045714378357
17 107 0.96854168176651
17 108 0.9648053646087646
17 109 0.06818181276321411
17 110 0.9420065879821777
17 111 0.9658405184745789
17 112 0.966408371925354
17 113 0.9732280969619751
17 114 0.9545558094978333
17 115 0.9712016582489014
17 116 0.9711360335350037
17 117 0.21325336396694183
17 118 0.9625967144966125
17 119 0.06428243219852448
17 120 0.964675784111023
17 121 0.9737281203269958
17 122 0.9690408110618591
17 123 0.9683837294578552
17 124 0.9609548449516296
17 125 0.688730001449585
17 126 0.9620936512947083
17 127 0.9545558094978333
17 128 0.9653061628341675
17 129 0.9701384902000427
17 130 0.14668715000152588
17 131 0.9599459767341614
17 132 0.3637317717075348
17 133 0.3637317717075348
17 134 0.21603219211101532
17 135 0.950799822807312
17 136 0.9736989736557007
17 137 0.9637352228164673
17 138 0.9684134125709534
17 139 0.9454771280288696
17 140 0.13326197862625122
17 141 0.16469484567642212
17 142 0.9658077955245972
17 143 0.06428243219852448
17 144 0.1607060730457306
17 145 0.9630694389343262
17 146 0.9615572094917297
17 147 0.9572893381118774
17 148 0.9660071730613708
17 149 0.9695407152175903
17 150 0.9663418531417847
17 151 0.9523911476135254
17 152 0.9540500640869141
17 153 0.15792709589004517
17 154 0.22731643915176392
17 155 0.9679751992225647
17 156 0.15745915472507477
17 157 0.9605176448822021
17 158 0.09690941870212555
17 159 0.9712016582489014
17 160 0.3920312523841858
17 161 0.12448239326477051
17 162 0.9599125981330872
17 163 0.36079543828964233
17 164 0.950799822807312
17 165 0.9565867185592651
17 166 0.9783526062965393
17 167 0.942589282989502
17 168 0.9668440222740173
17 169 0.9561095833778381
17 170 0.13326197862625122
17 171 0.9485567808151245
17 172 0.9207567572593689
17 173 0.9685081243515015
17 174 0.9411892890930176
17 175 0.9733244776725769
17 176 0.9700413346290588
17 177 0.9642035365104675
17 179 0.9538853764533997
17 180 0.9689165949821472
17 181 0.9621278047561646
17 182 0.33939653635025024
17 183 0.9741735458374023
17 184 0.9758459329605103
17 185 0.09642364829778671
17 186 0.9636051654815674
17 187 0.9716057181358337
17 188 0.48751693964004517
17 189 0.9292536377906799
17 190 0.9565571546554565
17 191 0.9727289080619812
17 192 0.10163945704698563
17 193 0.9685081243515015
17 194 0.1325216293334961
17 195 0.9626638889312744
17 196 0.9626638889312744
17 197 0.10660036653280258
17 198 0.25916051864624023
17 199 0.9505190849304199
17 200 0.9218477010726929
17 201 0.9545906782150269
17 202 0.9518845081329346
17 204 0.1678520292043686
17 205 0.9275861978530884
17 206 0.9420779943466187
17 208 0.9701051115989685
17 209 0.9626638889312744
17 210 0.9159405827522278
17 211 0.5806341767311096
17 212 0.46051710844039917
17 213 0.1819017082452774
17 214 0.9642365574836731
17 215 0.22268088161945343
17 216 0.9658405184745789
17 217 0.9550961256027222
17 218 0.9452873468399048
17 219 0.9684134125709534
17 220 0.9680087566375732
17 221 0.9052055478096008
17 222 0.9711683392524719
17 223 0.9685081243515015
17 224 0.24793995916843414
17 225 0.9658077955245972
17 226 0.12856486439704895
17 227 0.9527437090873718
17 228 0.9466837048530579
17 229 0.971016526222229
17 230 0.13121597468852997
17 231 0.6163414120674133
17 232 0.7030357122421265
17 233 0.14010031521320343
17 234 0.9674093723297119
17 235 0.8511958122253418
17 236 0.9722636342048645
17 237 0.9588702917098999
17 238 0.9716359972953796
17 239 0.9556024670600891
17 240 0.9680087566375732
17 241 0.9589048027992249
17 242 0.09147550910711288
17 243 0.9685081243515015
17 244 0.942589282989502
17 245 0.9402009844779968
17 246 0.9490348100662231
17 247 0.9621278047561646
17 248 0.9593749046325684
17 249 0.957096517086029
17 250 0.9673172235488892
17 251 0.09090908616781235
17 252 0.9599125981330872
17 253 0.08131156116724014
17 254 0.9662207365036011
17 255 0.8666506409645081
18 19 0.9461588859558105
18 20 0.9551559090614319
18 21 0.9538805484771729
18 22 0.9616411924362183
18 24 0.11227217316627502
18 25 0.950131356716156
18 26 0.9482219815254211
18 27 0.9390397667884827
18 28 0.9523343443870544
18 29 0.9278168082237244
18 30 0.9598551392555237
18 32 0.9583665728569031
18 33 0.3074885904788971
18 34 0.9407117962837219
18 35 0.9657031297683716
18 36 0.9384275674819946
18 37 0.9602141976356506
18 38 0.9454061388969421
18 39 0.9556293487548828
18 40 0.24734395742416382
18 41 0.18905940651893616
18 42 0.9522823095321655
18 43 0.08574929088354111
18 44 0.9473704695701599
18 45 0.4789142608642578
18 46 0.24277283251285553
18 47 0.9539833068847656
18 48 0.9572213292121887
18 49 0.19714346528053284
18 50 0.09166985005140305
18 51 0.9297539591789246
18 52 0.1255241185426712
18 53 0.9610961675643921
18 54 0.9363058805465698
18 55 0.9564773440361023
18 56 0.9597597122192383
18 58 0.9657031297683716
18 59 0.17751790583133698
18 60 0.8615614771842957
18 61 0.09723056107759476
18 62 0.9283254146575928
18 63 0.2129812389612198
18 65 0.3475734293460846
18 66 0.9523343443870544
18 67 0.9642617106437683
18 68 0.9453125596046448
18 69 0.9066920876502991
18 70 0.955029308795929
18 71 0.19978982210159302
18 72 0.9353485703468323
18 73 0.9449491500854492
18 74 0.8428047299385071
18 75 0.22459113597869873
18 76 0.9693660736083984
18 77 0.15890401601791382
18 78 0.9411618709564209
18 80 0.9648544192314148
18 81 0.6939135789871216
18 82 0.5859012603759766
18 83 0.9520360231399536
18 84 0.32732683420181274
18 85 0.9539833068847656
18 86 0.5879334211349487
18 87 0.8731945157051086
18 88 0.9511299729347229
18 89 0.3709621727466583
18 90 0.3807334899902344
18 91 0.9576687812805176
18 92 0.2270459532737732
18 93 0.9571213722229004
18 94 0.950682520866394
18 95 0.94762122631073
18 96 0.9560753703117371
18 97 0.9495798349380493
18 98 0.3146299719810486
18 99 0.9652056694030762
18 100 0.950682520866394
18 101 0.949527382850647
18 102 0.9662913084030151
18 103 0.09666028618812561
18 104 0.3307472765445709
18 105 0.9459131360054016
18 106 0.8294606804847717
18 107 0.9600052237510681
18 108 0.9582651853561401
18 109 0.09166985005140305
18 110 0.932774543762207
18 111 0.9572213292121887
18 112 0.9578197598457336
18 113 0.9626796841621399
18 114 0.954100489616394
18 115 0.9627301692962646
18 116 0.9605507850646973
18 117 0.1863662153482437
18 118 0.9633145332336426
18 120 0.9517841339111328
18 121 0.9621351957321167
18 122 0.9625812768936157
18 123 0.954532265663147
18 124 0.9490280151367188
18 125 0.6514586210250854
18 126 0.9523343443870544
18 127 0.9467125535011292
18 128 0.9556293487548828
18 129 0.9647566080093384
18 130 0.18626293540000916
18 131 0.9532809853553772
18 132 0.3695753812789917
18 133 0.3303780257701874
18 134 0.22691670060157776
18 135 0.9460577368736267
18 136 0.9600052237510681
18 137 0.9592607021331787
18 138 0.958762526512146
18 139 0.9231229424476624
18 140 0.14852212369441986
18 141 0.2024015486240387
18 142 0.9550809264183044
18 143 0.09723056107759476
18 144 0.14260482788085938
18 145 0.9564306139945984
18 146 0.9612181186676025
18 147 0.9484758377075195
18 148 0.9412685036659241
18 149 0.9609954953193665
18 150 0.956673800945282
18 151 0.9423807859420776
18 152 0.9472658038139343
18 153 0.16537363827228546
18 154 0.23371317982673645
18 155 0.9594083428382874
18 156 0.1521611511707306
18 157 0.9517841339111328
18 158 0.10749242454767227
18 159 0.9699921607971191
18 160 0.4384368658065796
18 161 0.1255241185426712
18 162 0.9605886936187744
18 163 0.32657384872436523
18 164 0.9481741189956665
18 165 0.9455537796020508
18 166 0.9605507850646973
18 167 0.9376618266105652
18 168 0.9550809264183044
18 169 0.9451029300689697
18 170 0.14852212369441986
18 171 0.943741500377655
18 172 0.9075605869293213
18 173 0.9589132070541382
18 174 0.9242038726806641
18 175 0.9649046659469604
18 176 0.9594083428382874
18 177 0.9544805288314819
18 179 0.9395974278450012
18 180 0.9603056311607361
18 181 0.9565736651420593
18 182 0.3393608033657074
18 183 0.9594083428382874
18 184 0.9632743000984192
18 185 0.09723056107759476
18 186 0.950682520866394
18 187 0.9589132070541382
18 188 0.44117647409439087
18 189 0.9305152893066406
18 190 0.9412685036659241
18 191 0.962185800075531
18 192 0.081992007791996
18 193 0.9589132070541382
18 194 0.12577000260353088
18 195 0.9560753703117371
18 196 0.9560753703117371
18 197 0.10749242454767227
18 198 0.2256934642791748
18 199 0.9338971376419067
18 200 0.9053604006767273
18 201 0.9488730430603027
18 202 0.946107804775238
18 204 0.18618234992027283
18 205 0.9233847856521606
18 206 0.9350184202194214
18 208 0.9615904092788696
18 209 0.955029308795929
18 210 0.9137332439422607
18 211 0.5802810192108154
18 212 0.481812059879303
18 213 0.18898223340511322
18 214 0.9555777311325073
18 215 0.21986635029315948
18 216 0.9572213292121887
18 217 0.9451560974121094
18 218 0.9425357580184937
18 219 0.9556293487548828
18 220 0.9625812768936157
18 221 0.8742283582687378
18 222 0.9626796841621399
18 223 0.964119017124176
18 224 0.26155394315719604
18 225 0.9550809264183044
18 226 0.1053331047296524
18 227 0.9373104572296143
18 228 0.9309823513031006
18 229 0.9582651853561401
18 230 0.15877683460712433
18 231 0.6393025517463684
18 232 0.6815975308418274
18 233 0.14127273857593536
18 234 0.9588118195533752
18 235 0.8319827914237976
18 236 0.9638180732727051
18 237 0.9542828798294067
18 238 0.9610453248023987
18 239 0.9498788118362427
18 240 0.9594593644142151
18 241 0.9543308019638062
18 242 0.10249000787734985
18 243 0.9599543213844299
18 244 0.9333899617195129
18 245 0.9286766648292542
18 246 0.9367513656616211
18 247 0.9555270671844482
18 248 0.9505788683891296
18 249 0.9418247938156128
18 250 0.9555270671844482
18 251 0.09166985005140305
18 252 0.9511299729347229
18 253 0.10249000787734985
18 254 0.9533310532569885
18 255 0.832175076007843
19 20 0.943236231803894
19 21 0.9515538811683655
19 22 0.9625559449195862
19 24 0.06583881378173828
19 25 0.9519949555397034
19 26 0.9415521025657654
19 27 0.9386775493621826
19 28 0.9615887403488159
19 29 0.937041699886322
19 30 0.9575945138931274
19 32 0.9540151357650757
19 33 0.2547662556171417
19 34 0.9382369518280029
19 35 0.9582617878913879
19 36 0.9369850754737854
19 37 0.951612651348114
19 38 0.9354774951934814
19 39 0.9564886093139648
19 40 0.20453742146492004
19 41 0.17919966578483582
19 42 0.9541605114936829
19 43 0.08620323240756989
19 44 0.9492111206054688
19 45 0.5253993272781372
19 46 0.27456530928611755
19 47 0.9506209492683411
19 48 0.9528441429138184
19 49 0.16604866087436676
19 50 0.05759695917367935
19 51 0.9238454103469849
19 52 0.12618862092494965
19 53 0.9661840796470642
19 54 0.9250525236129761
19 55 0.9520519375801086
19 56 0.9532792568206787
19 58 0.9572156071662903
19 59 0.1546633094549179
19 60 0.8753610253334045
19 61 0.07602410763502121
19 62 0.9246086478233337
19 63 0.20014509558677673
19 65 0.3343525230884552
19 66 0.9573758840560913
19 67 0.9589318633079529
19 68 0.9417651295661926
19 69 0.910391092300415
19 70 0.952724039554596
19 71 0.17970561981201172
19 72 0.9173393249511719
19 73 0.9350420236587524
19 74 0.8352485299110413
19 75 0.22117231786251068
19 76 0.9556769728660583
19 77 0.1469656080007553
19 78 0.9376108646392822
19 80 0.9647529125213623
19 81 0.670984148979187
19 82 0.5890029072761536
19 83 0.9432974457740784
19 84 0.30002498626708984
19 85 0.9579820036888123
19 86 0.5609626770019531
19 87 0.8696349859237671
19 88 0.944543182849884
19 89 0.3531496226787567
19 90 0.3466929495334625
19 91 0.9564323425292969
19 92 0.22824791073799133
19 93 0.9558787941932678
19 94 0.9483312368392944
19 95 0.9398649334907532
19 96 0.9621882438659668
19 97 0.9461588859558105
19 98 0.2875414192676544
19 99 0.9577682018280029
19 100 0.9493861198425293
19 101 0.9524397850036621
19 102 0.9567833542823792
19 103 0.13454583287239075
19 104 0.3324981927871704
19 105 0.9359791874885559
19 106 0.8290248513221741
19 107 0.9556769728660583
19 108 0.9549428820610046
19 109 0.08063574135303497
19 110 0.9366371631622314
19 111 0.9517947435379028
19 112 0.9555560350418091
19 113 0.9562920928001404
19 114 0.9421752691268921
19 115 0.9657409191131592
19 116 0.9604105353355408
19 117 0.1969606578350067
19 118 0.9473387598991394
19 120 0.9515538811683655
19 121 0.9557387828826904
19 122 0.9593079090118408
19 123 0.9585344195365906
19 124 0.947712779045105
19 125 0.6832518577575684
19 126 0.955269455909729
19 127 0.9464192390441895
19 128 0.9533388018608093
19 129 0.9594239592552185
19 130 0.1927562952041626
19 131 0.9467177987098694
19 132 0.30679526925086975
19 133 0.3349416255950928
19 134 0.20530615746974945
19 135 0.94255530834198
19 136 0.9577682018280029
19 137 0.961187481880188
19 138 0.9522888660430908
19 139 0.9290964603424072
19 140 0.14219845831394196
19 141 0.18260399997234344
19 142 0.9559350609779358
19 143 0.09774527698755264
19 144 0.14335975050926208
19 145 0.9530503749847412
19 146 0.9462850093841553
19 147 0.9492685794830322
19 148 0.9398649334907532
19 149 0.9535227417945862
19 150 0.950188934803009
19 151 0.9452430605888367
19 152 0.9437969326972961
19 153 0.17240646481513977
19 154 0.20784077048301697
19 155 0.957156777381897
19 156 0.1330144852399826
19 157 0.9547151327133179
19 158 0.09823770821094513
19 159 0.9626121520996094
19 160 0.428715318441391
19 161 0.1177760437130928
19 162 0.9455997347831726
19 163 0.35134145617485046
19 164 0.9468106627464294
19 165 0.9399267435073853
19 166 0.9625006914138794
19 167 0.9340367913246155
19 168 0.9527837038040161
19 169 0.9543524384498596
19 170 0.13508853316307068
19 171 0.9316430687904358
19 172 0.9046237468719482
19 173 0.9566627740859985
19 174 0.9214898347854614
19 175 0.9606456160545349
19 176 0.957156777381897
19 177 0.9490122199058533
19 179 0.9349765181541443
19 180 0.9527837038040161
19 181 0.9584812521934509
19 182 0.33826616406440735
19 183 0.9561095833778381
19 184 0.9600346088409424
19 185 0.09774527698755264
19 186 0.9462214708328247
19 187 0.954569399356842
19 188 0.45829570293426514
19 189 0.9092445969581604
19 190 0.94305819272995
19 191 0.9610188007354736
19 192 0.08242606371641159
19 193 0.9577094316482544
19 194 0.0948268473148346
19 195 0.9548272490501404
19 196 0.9485178589820862
19 197 0.09823770821094513
19 198 0.22290776669979095
19 199 0.9377668499946594
19 200 0.9013060927391052
19 201 0.9443573355674744
19 202 0.9415521025657654
19 204 0.1701527088880539
19 205 0.9249929189682007
19 206 0.9292380809783936
19 208 0.9593654870986938
19 209 0.9537757039070129
19 210 0.9075430631637573
19 211 0.581606388092041
19 212 0.4405289590358734
19 213 0.17880722880363464
19 214 0.951177179813385
19 215 0.19751644134521484
19 216 0.9612392783164978
19 217 0.9490991830825806
19 218 0.9357348084449768
19 219 0.950188934803009
19 220 0.9561694860458374
19 221 0.8697372078895569
19 222 0.9604679346084595
19 223 0.9608494639396667
19 224 0.25133833289146423
19 225 0.9580360651016235
19 226 0.130327045917511
19 227 0.9315769076347351
19 228 0.9348313212394714
19 229 0.9538935422897339
19 230 0.1529666632413864
19 231 0.5922482013702393
19 232 0.7083351016044617
19 233 0.11212152242660522
19 234 0.9523503184318542
19 235 0.8387940526008606
19 236 0.9585018157958984
19 237 0.9466562271118164
19 238 0.9556769728660583
19 239 0.943236231803894
19 240 0.9614001512527466
19 241 0.9498840570449829
19 242 0.07212280482053757
19 243 0.9577094316482544
19 244 0.9329631328582764
19 245 0.9238454103469849
19 246 0.9384999871253967
19 247 0.9584812521934509
19 248 0.9460972547531128
19 249 0.9404276609420776
19 250 0.9500643014907837
19 251 0.06911634653806686
19 252 0.9455997347831726
19 253 0.08242606371641159
19 254 0.9478346109390259
19 255 0.8257936835289001
20 21 0.9521023631095886
20 22 0.9578717350959778
20 24 0.10340611636638641
20 25 0.9451608061790466
20 26 0.9463633894920349
20 27 0.9371135830879211
20 28 0.9484468102455139
20 29 0.9268451929092407
20 30 0.953941822052002
20 32 0.9545558094978333
20 33 0.3089524507522583
20 34 0.936674952507019
20 35 0.9661182165145874
20 36 0.9396916627883911
20 37 0.952160120010376
20 38 0.9413779973983765
20 39 0.9507343769073486
20 40 0.2525298595428467
20 41 0.1953868716955185
20 42 0.9494393467903137
20 43 0.07384929805994034
20 44 0.9423618316650391
20 45 0.501160740852356
20 46 0.25536271929740906
20 47 0.9490657448768616
20 48 0.9554853439331055
20 49 0.19808200001716614
20 50 0.08059297502040863
20 51 0.917943000793457
20 52 0.12612168490886688
20 53 0.9594078063964844
20 54 0.9234817624092102
20 55 0.9473318457603455
20 56 0.9559251070022583
20 58 0.959844708442688
20 59 0.17836301028728485
20 60 0.874896764755249
20 61 0.08683861047029495
20 62 0.9327448606491089
20 63 0.22795136272907257
20 65 0.3401963412761688
20 66 0.9473941326141357
20 67 0.9625949263572693
20 68 0.9369920492172241
20 69 0.9055072665214539
20 70 0.9543207883834839
20 71 0.20074093341827393
20 72 0.9354303479194641
20 73 0.9377393126487732
20 74 0.8251962065696716
20 75 0.22566033899784088
20 76 0.9593502879142761
20 77 0.15966050326824188
20 78 0.9403119087219238
20 80 0.9631999731063843
20 81 0.7001714706420898
20 82 0.5989882946014404
20 83 0.943856418132782
20 84 0.3224364221096039
20 85 0.9511677026748657
20 86 0.5907323956489563
20 87 0.8621642589569092
20 88 0.9472101330757141
20 89 0.37555190920829773
20 90 0.3825460374355316
20 91 0.9527737498283386
20 92 0.214707612991333
20 93 0.9564228057861328
20 94 0.9457195997238159
20 95 0.9468133449554443
20 96 0.9522187113761902
20 97 0.9519897103309631
20 98 0.3129345774650574
20 99 0.9614403247833252
20 100 0.9467739462852478
20 101 0.9434824585914612
20 102 0.9656716585159302
20 103 0.12700366973876953
20 104 0.3323218524456024
20 105 0.9514830112457275
20 106 0.8165242075920105
20 107 0.9551700949668884
20 108 0.9523388147354126
20 109 0.09210626035928726
20 110 0.9404395222663879
20 111 0.9544364809989929
20 112 0.9540020823478699
20 113 0.9578717350959778
20 114 0.9490986466407776
20 115 0.9610592722892761
20 116 0.9588567018508911
20 117 0.18245209753513336
20 118 0.9542087316513062
20 120 0.947889506816864
20 121 0.9562759399414062
20 122 0.9608902931213379
20 123 0.9559251070022583
20 124 0.9461541771888733
20 125 0.6724523901939392
20 126 0.9505521655082703
20 127 0.9437963962554932
20 128 0.9559813141822815
20 129 0.9630889296531677
20 130 0.1816452592611313
20 131 0.9483254551887512
20 132 0.36852169036865234
20 133 0.2981931269168854
20 134 0.21431715786457062
20 135 0.9378023743629456
20 136 0.9551700949668884
20 137 0.9543781876564026
20 138 0.9538825154304504
20 139 0.9188289642333984
20 140 0.14922919869422913
20 141 0.19293613731861115
20 142 0.9501785039901733
20 143 0.09769343584775925
20 144 0.15630951523780823
20 145 0.9525449275970459
20 146 0.9542087316513062
20 147 0.9455955028533936
20 148 0.9383026361465454
20 149 0.9634782671928406
20 150 0.9538825154304504
20 151 0.9373028874397278
20 152 0.9464760422706604
20 153 0.1661609262228012
20 154 0.23482580482959747
20 155 0.9535091519355774
20 156 0.1528855264186859
20 157 0.9489427208900452
20 158 0.10800416767597198
20 159 0.9652287364006042
20 160 0.39719387888908386
20 161 0.1177135780453682
20 162 0.9493221044540405
20 163 0.3194935917854309
20 164 0.9409922361373901
20 165 0.9394283294677734
20 166 0.9557231664657593
20 167 0.9335414171218872
20 168 0.9501785039901733
20 169 0.943236231803894
20 170 0.14922919869422913
20 171 0.9354202747344971
20 172 0.8975121378898621
20 173 0.9540631175041199
20 174 0.9155707359313965
20 175 0.9601361751556396
20 176 0.9545558094978333
20 177 0.9569213390350342
20 179 0.934480607509613
20 180 0.9522783756256104
20 181 0.9590245485305786
20 182 0.3640934228897095
20 183 0.9535091519355774
20 184 0.9584835767745972
20 185 0.09769343584775925
20 186 0.9457195997238159
20 187 0.9540631175041199
20 188 0.4432767927646637
20 189 0.9163990020751953
20 190 0.9361750483512878
20 191 0.9584233164787292
20 192 0.07208454608917236
20 193 0.9603398442268372
20 194 0.1184707060456276
20 195 0.957473874092102
20 196 0.9522187113761902
20 197 0.10800416767597198
20 198 0.21483275294303894
20 199 0.9319013953208923
20 200 0.9008281230926514
20 201 0.9427971243858337
20 202 0.9399906396865845
20 204 0.18706868588924408
20 205 0.9157600402832031
20 206 0.9394698143005371
20 208 0.9557231664657593
20 209 0.950116753578186
20 210 0.916981041431427
20 211 0.6004999876022339
20 212 0.47315317392349243
20 213 0.18988192081451416
20 214 0.9517232179641724
20 215 0.18801112473011017
20 216 0.9544364809989929
20 217 0.9401167035102844
20 218 0.938452422618866
20 219 0.9507343769073486
20 220 0.9640270471572876
20 221 0.8658581376075745
20 222 0.9620454907417297
20 223 0.9592937231063843
20 224 0.2666638195514679
20 225 0.9512283802032471
20 226 0.11397568136453629
20 227 0.9310828447341919
20 228 0.9278620481491089
20 229 0.9628271460533142
20 230 0.15953271090984344
20 231 0.6342150568962097
20 232 0.667504608631134
20 233 0.14194528758525848
20 234 0.953941822052002
20 235 0.8263212442398071
20 236 0.95903480052948
20 237 0.9535460472106934
20 238 0.9551700949668884
20 239 0.9448568820953369
20 240 0.959844708442688
20 241 0.9525449275970459
20 242 0.1029779314994812
20 243 0.9540631175041199
20 244 0.9281762838363647
20 245 0.9233554005622864
20 246 0.9315849542617798
20 247 0.9516635537147522
20 248 0.9487650990486145
20 249 0.9367391467094421
20 250 0.9485089182853699
20 251 0.09210626035928726
20 252 0.9450982213020325
20 253 0.1029779314994812
20 254 0.9547081589698792
20 255 0.8433243036270142
21 22 0.9637725353240967
21 24 0.10270064324140549
21 25 0.9607135653495789
21 26 0.9504557847976685
21 27 0.9455439448356628
21 28 0.9607947468757629
21 29 0.9355071187019348
21 30 0.9588861465454102
21 32 0.9677943587303162
21 33 0.24277816712856293
21 34 0.9461416602134705
21 35 0.9647191166877747
21 36 0.9449466466903687
21 37 0.9571583271026611
21 38 0.942367434501648
21 39 0.9588391184806824
21 40 0.23886381089687347
21 41 0.18866346776485443
21 42 0.9555208086967468
21 43 0.08556970953941345
21 44 0.954840362071991
21 45 0.4977416396141052
21 46 0.2649766802787781
21 47 0.9582484364509583
21 48 0.9625083804130554
21 49 0.1967305988073349
21 50 0.0914778783917427
21 51 0.9256566762924194
21 52 0.11691047996282578
21 53 0.9673781394958496
21 54 0.9332723021507263
21 55 0.9576139450073242
21 56 0.9577497839927673
21 58 0.9616038203239441
21 59 0.12990717589855194
21 60 0.8792449235916138
21 61 0.09702693670988083
21 62 0.9435166120529175
21 63 0.19867418706417084
21 65 0.3378753960132599
21 66 0.9607947468757629
21 67 0.9643139243125916
21 68 0.9412106275558472
21 69 0.925555408000946
21 70 0.9603360891342163
21 71 0.14690522849559784
21 72 0.9181949496269226
21 73 0.9461416602134705
21 74 0.844618558883667
21 75 0.22869467735290527
21 76 0.9631842970848083
21 77 0.1268569827079773
21 78 0.9466027617454529
21 80 0.9669705629348755
21 81 0.6631187796592712
21 82 0.5659237504005432
21 83 0.9584589600563049
21 84 0.3138318657875061
21 85 0.9561607241630554
21 86 0.5463005304336548
21 87 0.8760068416595459
21 88 0.9564794301986694
21 89 0.34494540095329285
21 90 0.35240453481674194
21 91 0.9577497839927673
21 92 0.20435768365859985
21 93 0.9592922329902649
21 94 0.9612571001052856
21 95 0.9435235857963562
21 96 0.9592922329902649
21 97 0.9549288153648376
21 98 0.27591395378112793
21 99 0.9652601480484009
21 100 0.9591628909111023
21 101 0.9506867527961731
21 102 0.9632307291030884
21 103 0.14097686111927032
21 104 0.32394248247146606
21 105 0.9428728222846985
21 106 0.8409001231193542
21 107 0.9642221927642822
21 108 0.9604250192642212
21 110 0.9329559206962585
21 111 0.9666750431060791
21 112 0.9610141515731812
21 113 0.9699903726577759
21 114 0.947889506816864
21 115 0.9658902287483215
21 116 0.9637261033058167
21 117 0.2098190039396286
21 118 0.9539749026298523
21 119 0.06468462198972702
21 120 0.9602510333061218
21 121 0.9663413166999817
21 122 0.9636806845664978
21 123 0.9608796834945679
21 124 0.9585769772529602
21 125 0.675268828868866
21 126 0.9566128253936768
21 127 0.947889506816864
21 128 0.9598813652992249
21 129 0.9637725353240967
21 130 0.1585386097431183
21 131 0.9565228819847107
21 132 0.35483166575431824
21 133 0.36321353912353516
21 134 0.18115319311618805
21 135 0.9493565559387207
21 136 0.9704497456550598
21 137 0.9624655842781067
21 138 0.9650924205780029
21 139 0.9298191070556641
21 140 0.13409575819969177
21 141 0.16054634749889374
21 142 0.9572518467903137
21 143 0.06468462198972702
21 144 0.16171155869960785
21 145 0.9565228819847107
21 146 0.9560669660568237
21 147 0.9548840522766113
21 148 0.9477497935295105
21 149 0.9610608816146851
21 150 0.9661346673965454
21 151 0.9541281461715698
21 152 0.9505453109741211
21 153 0.14057882130146027
21 154 0.19285808503627777
21 155 0.9605176448822021
21 156 0.15184247493743896
21 157 0.9571129679679871
21 158 0.09751573950052261
21 159 0.9658902287483215
21 160 0.40165650844573975
21 161 0.12526123225688934
21 162 0.9554306864738464
21 163 0.35161808133125305
21 164 0.9472444653511047
21 165 0.9541281461715698
21 166 0.9689130187034607
21 167 0.9367638230323792
21 168 0.9655939340591431
21 169 0.9526076316833496
21 170 0.12703807651996613
21 171 0.9438861012458801
21 172 0.9254197478294373
21 173 0.9662558436393738
21 174 0.9427632093429565
21 175 0.9670164585113525
21 176 0.9625967144966125
21 177 0.9597923159599304
21 179 0.94715416431427
21 180 0.9603801369667053
21 181 0.9556147456169128
21 182 0.3185606896877289
21 183 0.964675784111023
21 184 0.9674652814865112
21 185 0.09702693670988083
21 186 0.9602099657058716
21 187 0.9683337807655334
21 188 0.4465418756008148
21 189 0.9188149571418762
21 190 0.9572589993476868
21 191 0.9653497338294983
21 192 0.09204783290624619
21 193 0.9631388187408447
21 194 0.13335075974464417
21 195 0.9572045803070068
21 196 0.9582484364509583
21 197 0.07801258563995361
21 198 0.26078200340270996
21 199 0.944736897945404
21 200 0.9144420623779297
21 201 0.9521463513374329
21 202 0.9504557847976685
21 204 0.1238616332411766
21 205 0.9290484189987183
21 206 0.9351905584335327
21 208 0.9637261033058167
21 209 0.9561607241630554
21 210 0.9183874130249023
21 211 0.5825332403182983
21 212 0.452520489692688
21 213 0.16085314750671387
21 214 0.9577497839927673
21 215 0.210069477558136
21 216 0.9593833684921265
21 217 0.9473873376846313
21 218 0.9426897764205933
21 219 0.9630079865455627
21 220 0.962642252445221
21 221 0.9006853699684143
21 222 0.9679177403450012
21 223 0.9620998501777649
21 224 0.24949121475219727
21 225 0.9655939340591431
21 226 0.12936924397945404
21 227 0.9406559467315674
21 228 0.9397481083869934
21 229 0.9677167534828186
21 230 0.1452406346797943
21 231 0.6056618094444275
21 232 0.6859099268913269
21 233 0.14097686111927032
21 234 0.9588861465454102
21 235 0.8469646573066711
21 236 0.9680047035217285
21 237 0.9533331394195557
21 238 0.9662981033325195
21 239 0.9552620053291321
21 240 0.9616038203239441
21 241 0.9544275999069214
21 242 0.0818202942609787
21 243 0.9620998501777649
21 244 0.9388952255249023
21 245 0.9364075660705566
21 246 0.9411631226539612
21 247 0.956659197807312
21 248 0.9517361521720886
21 249 0.9461885094642639
21 250 0.9629254937171936
21 251 0.0914778783917427
21 252 0.960674524307251
21 253 0.10227537155151367
21 254 0.9586605429649353
21 255 0.8566064238548279
22 24 0.10174723714590073
22 25 0.9621744155883789
22 26 0.9562637209892273
22 27 0.9514522552490234
22 28 0.9684476852416992
22 29 0.9448499083518982
22 30 0.9716453552246094
22 32 0.9711683392524719
22 33 0.2906336188316345
22 34 0.953068196773529
22 35 0.9711955189704895
22 36 0.9529856443405151
22 37 0.9658715724945068
22 38 0.9545992612838745
22 39 0.9695561528205872
22 40 0.2524227797985077
22 41 0.19225239753723145
22 42 0.9653138518333435
22 43 0.08477533608675003
22 44 0.9595050811767578
22 45 0.5186610221862793
22 46 0.2550163269042969
22 47 0.9669333696365356
22 48 0.9700852036476135
22 49 0.18963661789894104
22 50 0.07930006831884384
22 51 0.9383657574653625
22 52 0.12409839779138565
22 53 0.9820237159729004
22 54 0.940549910068512
22 55 0.9632400870323181
22 56 0.9674636721611023
22 58 0.9711955189704895
22 59 0.1579514592885971
22 60 0.8869823813438416
22 61 0.09612619876861572
22 62 0.9443067908287048
22 63 0.21971701085567474
22 65 0.34362566471099854
22 66 0.9643046259880066
22 67 0.9748590588569641
22 68 0.9524470567703247
22 69 0.9256239533424377
22 70 0.9669333696365356
22 71 0.19232265651226044
22 72 0.9311763644218445
22 73 0.9541155695915222
22 74 0.8474147319793701
22 75 0.22204019129276276
22 76 0.972751796245575
22 77 0.1633831262588501
22 78 0.9514522552490234
22 80 0.9754118919372559
22 81 0.6947527527809143
22 82 0.5978228449821472
22 83 0.9578999280929565
22 84 0.32360899448394775
22 85 0.9752065539360046
22 86 0.5760347247123718
22 87 0.8678746223449707
22 88 0.961107611656189
22 89 0.36674872040748596
22 90 0.36822623014450073
22 91 0.9684972763061523
22 92 0.22446714341640472
22 93 0.9669333696365356
22 94 0.9637447595596313
22 95 0.9577933549880981
22 96 0.9669333696365356
22 97 0.9647566080093384
22 98 0.31734031438827515
22 99 0.9717234969139099
22 100 0.9647822380065918
22 101 0.962652862071991
22 102 0.9748331904411316
22 103 0.1323171705007553
22 104 0.30579674243927
22 105 0.9530121088027954
22 106 0.8414009809494019
22 107 0.972751796245575
22 108 0.9690532088279724
22 109 0.09062865376472473
22 110 0.9517912268638611
22 111 0.9690532088279724
22 112 0.9747616052627563
22 113 0.9733060002326965
22 114 0.9599586129188538
22 115 0.9784620404243469
22 116 0.972251296043396
22 117 0.2078711837530136
22 118 0.9637725353240967
22 119 0.06408413499593735
22 120 0.9648088216781616
22 121 0.9738059639930725
22 122 0.973253071308136
22 123 0.9705645442008972
22 124 0.961107611656189
22 125 0.6822040677070618
22 126 0.9694834351539612
22 127 0.9610021114349365
22 128 0.9695561528205872
22 129 0.9763860106468201
22 130 0.18956342339515686
22 131 0.9621744155883789
22 132 0.3543056845664978
22 133 0.3487696349620819
22 134 0.21985255181789398
22 135 0.958328902721405
22 136 0.972751796245575
22 137 0.9741922616958618
22 138 0.9674910306930542
22 139 0.9350799322128296
22 140 0.14683520793914795
22 141 0.19497181475162506
22 142 0.9700599908828735
22 143 0.09612619876861572
22 144 0.14098510146141052
22 145 0.9642502665519714
22 146 0.9637725353240967
22 147 0.962652862071991
22 148 0.9567466378211975
22 149 0.9716964960098267
22 150 0.9685235619544983
22 151 0.9578184485435486
22 152 0.9594499468803406
22 153 0.16955067217350006
22 154 0.22661519050598145
22 155 0.9701384902000427
22 156 0.15697342157363892
22 157 0.9710266590118408
22 158 0.10627152025699615
22 159 0.980513334274292
22 160 0.4310884475708008
22 161 0.11582516878843307
22 162 0.961107611656189
22 163 0.35118600726127625
22 164 0.9635599255561829
22 165 0.9546814560890198
22 166 0.9743068218231201
22 167 0.9534072875976562
22 168 0.9710930585861206
22 169 0.9594239592552185
22 170 0.12585873901844025
22 171 0.9529856443405151
22 172 0.9168288111686707
22 173 0.9716964960098267
22 174 0.9329425692558289
22 175 0.9764631986618042
22 176 0.9711683392524719
22 177 0.9664025902748108
22 179 0.9519912004470825
22 180 0.9669607281684875
22 181 0.9705413579940796
22 182 0.3525659441947937
22 183 0.9701384902000427
22 184 0.9748858213424683
22 185 0.07476481795310974
22 186 0.9627074003219604
22 187 0.9706671237945557
22 188 0.48185908794403076
22 189 0.9285339713096619
22 190 0.9567466378211975
22 191 0.973832905292511
22 192 0.10132590681314468
22 193 0.9737551808357239
22 194 0.11657014489173889
22 195 0.9690016508102417
22 196 0.9658991694450378
22 197 0.09661047160625458
22 198 0.24270282685756683
22 199 0.9465305209159851
22 200 0.9168288111686707
22 201 0.9610269069671631
22 202 0.9604440927505493
22 204 0.16733424365520477
22 205 0.9290257692337036
22 206 0.9507795572280884
22 208 0.972251296043396
22 209 0.9658991694450378
22 210 0.9261285662651062
22 211 0.5925841331481934
22 212 0.44831955432891846
22 213 0.18134057521820068
22 214 0.9664300680160522
22 215 0.18961983919143677
22 216 0.9711171984672546
22 217 0.9594499468803406
22 218 0.948695957660675
22 219 0.9674910306930542
22 220 0.975310742855072
22 221 0.8889609575271606
22 222 0.9733060002326965
22 223 0.9758138656616211
22 224 0.2699912488460541
22 225 0.9690268635749817
22 226 0.1281682699918747
22 227 0.9487528204917908
22 228 0.9416400790214539
22 229 0.9690532088279724
22 230 0.15043286979198456
22 231 0.6112399101257324
22 232 0.7022885680198669
22 233 0.1323171705007553
22 234 0.9695824384689331
22 235 0.8485699892044067
22 236 0.9754118919372559
22 237 0.9673418402671814
22 238 0.9717234969139099
22 239 0.9568283557891846
22 240 0.9763395190238953
22 241 0.9632123112678528
22 242 0.10132590681314468
22 243 0.9716964960098267
22 244 0.9512956142425537
22 245 0.9373006224632263
22 246 0.949264407157898
22 247 0.9736454486846924
22 248 0.960573673248291
22 249 0.9541440606117249
22 250 0.9653679132461548
22 251 0.07930006831884384
22 252 0.961107611656189
22 253 0.10132590681314468
22 254 0.9632400870323181
22 255 0.8451181650161743
23 40 0.08703883737325668
23 41 0.1178511306643486
23 46 0.08276058733463287
23 59 0.12909944355487823
23 60 0.05012546852231026
23 65 0.0653720498085022
23 75 0.10000000894069672
23 81 0.06415002793073654
23 84 0.07001399993896484
23 86 0.07680954039096832
23 106 0.05237828195095062
23 133 0.061084721237421036
23 156 0.2886751592159271
23 160 0.052270837128162384
23 163 0.0625
23 178 0.5
23 182 0.1254911571741104
23 213 0.12126781791448593
23 215 0.10206206887960434
23 224 0.1678362786769867
23 231 0.07062245160341263
23 255 0.05202269181609154
24 25 0.11221326142549515
24 26 0.10357099771499634
24 27 0.11340959370136261
24 28 0.05598925054073334
24 29 0.10509128868579865
24 30 0.08363503217697144
24 32 0.09278370440006256
24 33 0.12038584798574448
24 34 0.09435642510652542
24 35 0.101956807076931
24 37 0.10259337723255157
24 38 0.10395880043506622
24 39 0.11162911355495453
24 40 0.14213381707668304
24 42 0.0934130847454071
24 44 0.11250878125429153
24 45 0.05309942364692688
24 46 0.10136060416698456
24 47 0.11180340498685837
24 48 0.11157120019197464
24 51 0.11515063047409058
24 53 0.06478150188922882
24 54 0.10532225668430328
24 55 0.11209569126367569
24 56 0.10243312269449234
24 58 0.11122559756040573
24 59 0.10540926456451416
24 60 0.07162272930145264
24 62 0.10514888167381287
24 66 0.10264696925878525
24 67 0.11094003915786743
24 68 0.10418237000703812
24 69 0.10728771984577179
24 70 0.10248646140098572
24 72 0.09687303751707077
24 73 0.11322770267724991
24 74 0.08518354594707489
24 76 0.11116830259561539
24 77 0.05661385506391525
24 78 0.07560639828443527
24 80 0.0830773189663887
24 81 0.09166198968887329
24 82 0.0760725736618042
24 83 0.11268723011016846
24 85 0.09316951036453247
24 86 0.09407208859920502
24 87 0.103561632335186
24 88 0.11233119666576385
24 89 0.07509392499923706
24 90 0.07372096925973892
24 91 0.11174521595239639
24 92 0.19826290011405945
24 93 0.11180340498685837
24 94 0.10280823707580566
24 95 0.0848754495382309
24 96 0.11180340498685837
24 97 0.09356015175580978
24 99 0.10190428793430328
24 100 0.08411582559347153
24 101 0.11239028722047806
24 102 0.09254500269889832
24 104 0.2182178795337677
24 105 0.07564695179462433
24 106 0.11760839819908142
24 107 0.11116830259561539
24 108 0.11157120019197464
24 109 0.10206206887960434
24 110 0.08574929088354111
24 111 0.11157120019197464
24 112 0.10211484134197235
24 113 0.11099697649478912
24 114 0.10340611636638641
24 115 0.07392212748527527
24 116 0.1111111119389534
24 118 0.10270064324140549
24 119 0.14433757960796356
24 120 0.10270064324140549
24 121 0.11105399578809738
24 122 0.11122559756040573
24 123 0.10243312269449234
24 124 0.11233119666576385
24 125 0.07930515706539154
24 126 0.10264696925878525
24 127 0.10340611636638641
24 128 0.11162911355495453
24 129 0.10174723714590073
24 131 0.07480884343385696
24 133 0.12468867748975754
24 134 0.08084520697593689
24 135 0.09425577521324158
24 137 0.07445807754993439
24 138 0.10232669115066528
24 139 0.1059064045548439
24 141 0.09245003759860992
24 142 0.06515081971883774
24 144 0.057735029608011246
24 145 0.1028621643781662
24 146 0.1120370551943779
24 147 0.1030244380235672
24 148 0.06601423770189285
24 149 0.11128297448158264
24 150 0.09302426874637604
24 151 0.08478501439094543
24 152 0.08456018567085266
24 155 0.11134044080972672
24 156 0.1178511306643486
24 157 0.09336421638727188
24 159 0.09240265935659409
24 160 0.06401843577623367
24 162 0.11233119666576385
24 164 0.09425577521324158
24 165 0.11304667592048645
24 166 0.10185185819864273
24 167 0.1046338677406311
24 168 0.11168711632490158
24 169 0.05643326789140701
24 170 0.18898223340511322
24 171 0.11359236389398575
24 172 0.10778100788593292
24 173 0.10200940072536469
24 174 0.11553425341844559
24 175 0.11065666377544403
24 176 0.10206207633018494
24 177 0.08389625698328018
24 179 0.11334886401891708
24 180 0.10237986594438553
24 181 0.09321806579828262
24 183 0.10206207633018494
24 184 0.11082642525434494
24 186 0.11215443164110184
24 187 0.09273581951856613
24 189 0.11605177074670792
24 190 0.0848754495382309
24 191 0.11094003915786743
24 193 0.08346223831176758
24 194 0.07001400738954544
24 195 0.09316951036453247
24 196 0.11180340498685837
24 198 0.07053456455469131
24 199 0.06662136316299438
24 200 0.11757927387952805
24 201 0.11268723011016846
24 202 0.11298653483390808
24 204 0.05025189369916916
24 206 0.10457710921764374
24 208 0.1111111119389534
24 209 0.11180340498685837
24 210 0.0879315584897995
24 212 0.07767356187105179
24 213 0.0990147590637207
24 214 0.11174521595239639
24 215 0.0833333358168602
24 216 0.09297600388526917
24 217 0.10335133969783783
24 218 0.10446386784315109
24 219 0.11162911355495453
24 220 0.11122559756040573
24 221 0.10099464654922485
24 222 0.10174723714590073
24 223 0.09273581951856613
24 225 0.10237986594438553
24 227 0.11371470987796783
24 228 0.1147707998752594
24 229 0.08367840200662613
24 230 0.1178511306643486
24 231 0.1009102314710617
24 232 0.11527100205421448
24 234 0.11151337623596191
24 235 0.05331229791045189
24 236 0.11076974868774414
24 237 0.0748874694108963
24 238 0.11116830259561539
24 239 0.11280666291713715
24 240 0.09268800169229507
24 241 0.1028621643781662
24 243 0.11128297448158264
24 244 0.11414602398872375
24 245 0.05757531523704529
24 246 0.11377602070569992
24 247 0.09321806579828262
24 248 0.11239028722047806
24 249 0.10368135571479797
24 250 0.11186166852712631
24 252 0.11233119666576385
24 254 0.1027543917298317
24 255 0.06371451914310455
25 26 0.9456112384796143
25 27 0.9459704160690308
25 28 0.9570701718330383
25 29 0.9348343014717102
25 30 0.9583086371421814
25 32 0.9599459767341614
25 33 0.26680055260658264
25 34 0.9518648982048035
25 35 0.9599958658218384
25 36 0.9400594830513
25 37 0.9544773697853088
25 38 0.9406679272651672
25 39 0.9561716914176941
25 40 0.23525215685367584
25 41 0.1565670222043991
25 42 0.9528307318687439
25 43 0.061217352747917175
25 44 0.9594982862472534
25 45 0.5124275088310242
25 46 0.27676743268966675
25 47 0.9597554802894592
25 48 0.9577622413635254
25 49 0.18638919293880463
25 50 0.09162174165248871
25 51 0.9281892776489258
25 52 0.10036658495664597
25 53 0.9616302251815796
25 54 0.9282935857772827
25 55 0.9528307318687439
25 56 0.9561212062835693
25 58 0.9620760679244995
25 59 0.14785394072532654
25 60 0.8748869895935059
25 61 0.09717953205108643
25 62 0.9332014322280884
25 63 0.2174970507621765
25 65 0.28749600052833557
25 66 0.9623057842254639
25 67 0.9647931456565857
25 68 0.9405653476715088
25 69 0.9127830266952515
25 70 0.9555734992027283
25 71 0.13137167692184448
25 72 0.9142038226127625
25 73 0.9423356652259827
25 74 0.8304140567779541
25 75 0.17866238951683044
25 76 0.9605409502983093
25 77 0.15882061421871185
25 78 0.9417284727096558
25 80 0.9653838276863098
25 81 0.6685698628425598
25 82 0.5804718732833862
25 83 0.947321355342865
25 84 0.25017738342285156
25 85 0.9545280337333679
25 86 0.5577157735824585
25 87 0.8587909936904907
25 88 0.9548324346542358
25 89 0.3258259892463684
25 90 0.33089882135391235
25 91 0.955076277256012
25 92 0.23137633502483368
25 93 0.9576645493507385
25 94 0.9575250744819641
25 95 0.9418326616287231
25 96 0.9555734992027283
25 97 0.950131356716156
25 98 0.2890535295009613
25 99 0.9605409502983093
25 100 0.9554275274276733
25 101 0.9490290284156799
25 102 0.9616302251815796
25 103 0.14119857549667358
25 104 0.330573707818985
25 105 0.9390503168106079
25 106 0.8422225713729858
25 107 0.9730154871940613
25 108 0.9577622413635254
25 109 0.05726359039545059
25 110 0.9354923963546753
25 111 0.9598488211631775
25 112 0.9583587646484375
25 113 0.9694399833679199
25 114 0.9462156891822815
25 115 0.9632617831230164
25 116 0.9652417898178101
25 117 0.21970121562480927
25 118 0.9523321986198425
25 119 0.06478635221719742
25 120 0.9544275999069214
25 121 0.9616302251815796
25 122 0.9599958658218384
25 123 0.9571661949157715
25 124 0.956933319568634
25 125 0.6985785365104675
25 126 0.9539288282394409
25 127 0.9472705721855164
25 128 0.960347056388855
25 129 0.9621744155883789
25 130 0.19164061546325684
25 131 0.9517313838005066
25 132 0.3246079385280609
25 133 0.37497812509536743
25 134 0.2177256941795349
25 135 0.9466188549995422
25 136 0.9615805149078369
25 137 0.9577129483222961
25 138 0.9561716914176941
25 139 0.9269599914550781
25 140 0.1343066543340683
25 141 0.20229530334472656
25 142 0.9577129483222961
25 143 0.08638180047273636
25 144 0.16196587681770325
25 145 0.9548792839050293
25 146 0.9523321986198425
25 147 0.9532329440116882
25 148 0.9471238851547241
25 149 0.9594504833221436
25 150 0.9582594037055969
25 151 0.9514002203941345
25 152 0.9457142949104309
25 153 0.1652868539094925
25 154 0.19316138327121735
25 155 0.9682751893997192
25 156 0.13224460184574127
25 157 0.9544275999069214
25 158 0.08790219575166702
25 159 0.9632617831230164
25 160 0.4190501868724823
25 161 0.125458225607872
25 162 0.9506307244300842
25 163 0.36648696660995483
25 164 0.9445035457611084
25 165 0.9566857814788818
25 166 0.9652417898178101
25 167 0.9350348711013794
25 168 0.9618905186653137
25 169 0.9498840570449829
25 170 0.14844419062137604
25 171 0.9411216974258423
25 172 0.9290741682052612
25 173 0.9615316987037659
25 174 0.9366833567619324
25 175 0.9654330015182495
25 176 0.9630694389343262
25 177 0.9550256133079529
25 179 0.9465238451957703
25 180 0.9566685557365417
25 181 0.9539795517921448
25 182 0.30181512236595154
25 183 0.9609870910644531
25 184 0.9648414254188538
25 185 0.09717953205108643
25 186 0.9606713652610779
25 187 0.963612973690033
25 188 0.4829396903514862
25 189 0.9170043468475342
25 190 0.9492403268814087
25 191 0.9689427018165588
25 192 0.10243622213602066
25 193 0.9604911208152771
25 194 0.13356049358844757
25 195 0.9545280337333679
25 196 0.9555734992027283
25 197 0.09766910970211029
25 198 0.26119211316108704
25 199 0.9334070086479187
25 200 0.9224771857261658
25 201 0.9462676048278809
25 202 0.9466677904129028
25 204 0.1635289341211319
25 205 0.9196390509605408
25 206 0.9355945587158203
25 208 0.9673198461532593
25 209 0.9545280337333679
25 210 0.9066756367683411
25 211 0.5678213238716125
25 212 0.43797916173934937
25 213 0.18332765996456146
25 214 0.9571661949157715
25 215 0.2244265228509903
25 216 0.956718921661377
25 217 0.953094482421875
25 218 0.9367127418518066
25 219 0.9582594037055969
25 220 0.9599958658218384
25 221 0.8975687026977539
25 222 0.9632123112678528
25 223 0.9594504833221436
25 224 0.2537279427051544
25 225 0.9598016738891602
25 226 0.12957270443439484
25 227 0.9485154151916504
25 228 0.9347866773605347
25 229 0.9577622413635254
25 230 0.15869350731372833
25 231 0.6130847930908203
25 232 0.7114213705062866
25 233 0.14119857549667358
25 234 0.9614369869232178
25 235 0.8435108661651611
25 236 0.9705628752708435
25 237 0.9495803117752075
25 238 0.9626200795173645
25 239 0.9483254551887512
25 240 0.961035966873169
25 241 0.9506819844245911
25 242 0.08194897323846817
25 243 0.9604911208152771
25 244 0.9457088112831116
25 245 0.9271125197410583
25 246 0.9458351135253906
25 247 0.9550256133079529
25 248 0.9490290284156799
25 249 0.9476765394210815
25 250 0.9560716152191162
25 251 0.08016902208328247
25 252 0.9527316093444824
25 253 0.10243622213602066
25 254 0.9559754133224487
25 255 0.837696373462677
26 27 0.9407433271408081
26 28 0.9467960596084595
26 29 0.9229258298873901
26 30 0.9512630105018616
26 32 0.9550294876098633
26 33 0.29244258999824524
26 34 0.9381684064865112
26 35 0.9571861028671265
26 36 0.9304946064949036
26 37 0.9473555684089661
26 38 0.9386077523231506
26 39 0.9490971565246582
26 40 0.2569473087787628
26 41 0.18482628464698792
26 42 0.9488424062728882
26 43 0.0616392083466053
26 44 0.9449236989021301
26 45 0.4819614589214325
26 46 0.2328651398420334
26 47 0.9484735727310181
26 48 0.9517562389373779
26 49 0.19303573668003082
26 50 0.08072147518396378
26 51 0.923743486404419
26 52 0.1179012656211853
26 53 0.9546637535095215
26 54 0.9271178841590881
26 55 0.9541196227073669
26 56 0.9511364102363586
26 58 0.9592806100845337
26 59 0.17864739894866943
26 60 0.8589509129524231
26 61 0.09784920513629913
26 62 0.9299118518829346
26 63 0.2283148318529129
26 65 0.2894771993160248
26 66 0.9478504061698914
26 67 0.9578623175621033
26 68 0.9384859800338745
26 69 0.9091550707817078
26 70 0.9474208950996399
26 71 0.20106101036071777
26 72 0.9226928353309631
26 73 0.9349700808525085
26 74 0.8529796600341797
26 75 0.1798935830593109
26 76 0.9566930532455444
26 77 0.1535184681415558
26 78 0.9354043006896973
26 80 0.9605639576911926
26 81 0.6672590970993042
26 82 0.5758768320083618
26 83 0.9432393908500671
26 84 0.30357348918914795
26 85 0.9474208950996399
26 86 0.5438443422317505
26 87 0.8705595135688782
26 88 0.948720395565033
26 89 0.3620097041130066
26 90 0.3581675589084625
26 91 0.9490321278572083
26 92 0.2374510020017624
26 93 0.9590005278587341
26 94 0.9472275376319885
26 95 0.9355365633964539
26 96 0.9505789875984192
26 97 0.9471648931503296
26 98 0.300640344619751
26 99 0.9577397704124451
26 100 0.9482836127281189
26 101 0.9428703188896179
26 102 0.9546637535095215
26 103 0.1122407391667366
26 104 0.34517955780029297
26 105 0.9327007532119751
26 106 0.8226581811904907
26 107 0.9556463956832886
26 108 0.9507057666778564
26 109 0.09225311875343323
26 110 0.9279444813728333
26 111 0.9549077749252319
26 112 0.953425407409668
26 113 0.9573088884353638
26 114 0.9442391395568848
26 115 0.9573714733123779
26 116 0.9582932591438293
26 117 0.1779339611530304
26 118 0.952565610408783
26 119 0.06523280590772629
26 120 0.9462361931800842
26 121 0.9557093977928162
26 122 0.955091655254364
26 123 0.9479799270629883
26 124 0.949778139591217
26 125 0.6690443158149719
26 126 0.9457417130470276
26 127 0.9399906396865845
26 128 0.9533013701438904
26 129 0.9552186131477356
26 130 0.18744806945323944
26 131 0.9445547461509705
26 132 0.36629170179367065
26 133 0.32684487104415894
26 134 0.22836048901081085
26 135 0.9361028075218201
26 136 0.9535529613494873
26 137 0.9527450799942017
26 138 0.9522503018379211
26 139 0.9257330298423767
26 140 0.13523218035697937
26 141 0.1880209594964981
26 142 0.9516935348510742
26 143 0.09784920513629913
26 144 0.16308201849460602
26 145 0.9456112384796143
26 146 0.9515107274055481
26 147 0.9481614232063293
26 148 0.9366021752357483
26 149 0.9534887075424194
26 150 0.9501482248306274
26 151 0.9387973546981812
26 152 0.9405540823936462
26 153 0.14177018404006958
26 154 0.2216309905052185
26 155 0.9539811611175537
26 156 0.15312929451465607
26 157 0.9462361931800842
26 158 0.10817637294530869
26 159 0.9605035185813904
26 160 0.38577184081077576
26 161 0.12632279098033905
26 162 0.9466051459312439
26 163 0.2998226284980774
26 164 0.9382327198982239
26 165 0.9398617148399353
26 166 0.9541085362434387
26 167 0.9285814166069031
26 168 0.9485387802124023
26 169 0.942614734172821
26 170 0.14234966039657593
26 171 0.9337031245231628
26 172 0.9011573195457458
26 173 0.9555843472480774
26 174 0.9235574007034302
26 175 0.9585413336753845
26 176 0.9550294876098633
26 177 0.9542341232299805
26 179 0.9381051063537598
26 180 0.9537967443466187
26 181 0.947914719581604
26 182 0.3502027988433838
26 183 0.958174467086792
26 184 0.9579249024391174
26 185 0.08697707206010818
26 186 0.9503955841064453
26 187 0.9534887075424194
26 188 0.45032617449760437
26 189 0.9102113246917725
26 190 0.934471070766449
26 191 0.9568178057670593
26 192 0.07219948619604111
26 193 0.9555843472480774
26 194 0.12657023966312408
26 195 0.9484735727310181
26 196 0.949526309967041
26 197 0.07867372035980225
26 198 0.2311142235994339
26 199 0.9269353151321411
26 200 0.9000502228736877
26 201 0.9464223384857178
26 202 0.9382978677749634
26 204 0.18736696243286133
26 205 0.9128420352935791
26 206 0.9323743581771851
26 208 0.9551547169685364
26 209 0.9505789875984192
26 210 0.9206509590148926
26 211 0.5577468872070312
26 212 0.45854946970939636
26 213 0.17899733781814575
26 214 0.9532406330108643
26 215 0.2212653011083603
26 216 0.9517562389373779
26 217 0.9394925236701965
26 218 0.9324377775192261
26 219 0.9522503018379211
26 220 0.9561388492584229
26 221 0.8797907829284668
26 222 0.9667147397994995
26 223 0.9555843472480774
26 224 0.2593472898006439
26 225 0.9495903253555298
26 226 0.09784920513629913
26 227 0.931496798992157
26 228 0.934744656085968
26 229 0.9528067708015442
26 230 0.15978708863258362
26 231 0.6140521168708801
26 232 0.6830401420593262
26 233 0.14217160642147064
26 234 0.9565128684043884
26 235 0.8420953750610352
26 236 0.9605639576911926
26 237 0.9508357644081116
26 238 0.9650667905807495
26 239 0.9527361989021301
26 240 0.952997088432312
26 241 0.9466677904129028
26 242 0.10314212739467621
26 243 0.9524409174919128
26 244 0.9285814166069031
26 245 0.9215750694274902
26 246 0.9352127909660339
26 247 0.9500212669372559
26 248 0.9471032023429871
26 249 0.9382327198982239
26 250 0.9489679336547852
26 251 0.09225311875343323
26 252 0.9434321522712708
26 253 0.10314212739467621
26 254 0.9477869868278503
26 255 0.8374699950218201
27 28 0.9492828845977783
27 29 0.9220476150512695
27 30 0.9463937282562256
27 32 0.9512396454811096
27 33 0.2969508171081543
27 34 0.9416812658309937
27 35 0.9492073059082031
27 36 0.9339786767959595
27 37 0.9434986114501953
27 38 0.9324759244918823
27 39 0.9463209509849548
27 40 0.2579094171524048
27 41 0.1091284304857254
27 42 0.9449794292449951
27 43 0.08661800622940063
27 44 0.960158109664917
27 45 0.4757367968559265
27 46 0.2528958320617676
27 47 0.9435719847679138
27 48 0.9468845129013062
27 49 0.18299415707588196
27 50 0.09259855002164841
27 51 0.9206726551055908
27 52 0.08453052490949631
27 53 0.9508914947509766
27 54 0.9316751956939697
27 55 0.9418012499809265
27 56 0.9462491273880005
27 58 0.9628725647926331
27 59 0.14345304667949677
27 60 0.8575255274772644
27 61 0.09821558743715286
27 62 0.9182167053222656
27 63 0.22449277341365814
27 65 0.2481876164674759
27 66 0.943991482257843
27 67 0.9551581144332886
27 68 0.9409259557723999
27 69 0.899285614490509
27 70 0.9488551616668701
27 71 0.1965029537677765
27 72 0.9140627384185791
27 73 0.934190571308136
27 74 0.839267373085022
27 75 0.1759372502565384
27 76 0.9497690200805664
27 77 0.14125220477581024
27 78 0.928188681602478
27 80 0.9610199928283691
27 81 0.6667873859405518
27 82 0.5883859992027283
27 83 0.9382513165473938
27 84 0.23663662374019623
27 85 0.9435719847679138
27 86 0.5512149930000305
27 87 0.877342700958252
27 88 0.9405949115753174
27 89 0.3292997181415558
27 90 0.37065619230270386
27 91 0.9462491273880005
27 92 0.2383400946855545
27 93 0.947798490524292
27 94 0.9444145560264587
27 95 0.9304834008216858
27 96 0.947798490524292
27 97 0.9401008486747742
27 98 0.2889249324798584
27 99 0.9581740498542786
27 100 0.9401747584342957
27 101 0.9379032850265503
27 102 0.9519410729408264
27 103 0.0976395383477211
27 104 0.33719152212142944
27 105 0.9297588467597961
27 106 0.830588698387146
27 107 0.9529209136962891
27 108 0.9489933848381042
27 109 0.09259855002164841
27 110 0.9270969033241272
27 111 0.9479389190673828
27 112 0.9485729336738586
27 113 0.9545992612838745
27 114 0.9413779973983765
27 115 0.9525727033615112
27 116 0.9576810598373413
27 117 0.18825428187847137
27 118 0.944485068321228
27 119 0.06547705829143524
27 120 0.9413085579872131
27 121 0.9508914947509766
27 122 0.9513096213340759
27 123 0.950473427772522
27 124 0.953334391117096
27 125 0.6865394115447998
27 126 0.9450498223304749
27 127 0.9360474348068237
27 128 0.9558157920837402
27 129 0.9514522552490234
27 130 0.18261611461639404
27 131 0.9417284727096558
27 132 0.33089685440063477
27 133 0.3450377583503723
27 134 0.22004693746566772
27 135 0.9396079182624817
27 136 0.9539715647697449
27 137 0.9478682279586792
27 138 0.9484309554100037
27 139 0.9248318672180176
27 140 0.11430612206459045
27 141 0.18872497975826263
27 142 0.9489237666130066
27 143 0.09821558743715286
27 144 0.1636926531791687
27 145 0.9512729644775391
27 146 0.9518969655036926
27 147 0.9453385472297668
27 148 0.9475957155227661
27 149 0.954955518245697
27 150 0.9463209509849548
27 151 0.9326971173286438
27 152 0.9408791661262512
27 153 0.15467500686645508
27 154 0.18160070478916168
27 155 0.9596577286720276
27 156 0.14033721387386322
27 157 0.942367434501648
27 159 0.9536206126213074
27 160 0.41625747084617615
27 161 0.12679578363895416
27 162 0.9427182078361511
27 163 0.2922641634941101
27 164 0.9321252107620239
27 165 0.9423125386238098
27 166 0.9524306058883667
27 167 0.9212706685066223
27 168 0.9457571506500244
27 169 0.947210967540741
27 170 0.15002678334712982
27 171 0.9318315982818604
27 172 0.9045315384864807
27 173 0.9486452341079712
27 174 0.9237399101257324
27 175 0.9558557271957397
27 176 0.9522919058799744
27 177 0.9546356201171875
27 179 0.9491164088249207
27 180 0.949979305267334
27 181 0.9440638422966003
27 182 0.3369886875152588
27 183 0.9565009474754333
27 184 0.9531325101852417
27 185 0.09821558743715286
27 186 0.9507742524147034
27 187 0.9570589065551758
27 188 0.44989025592803955
27 189 0.9212968945503235
27 190 0.9369005560874939
27 191 0.9572550654411316
27 192 0.10352832823991776
27 193 0.9507486820220947
27 194 0.13498441874980927
27 195 0.9456852078437805
27 196 0.9456852078437805
27 197 0.10858141630887985
27 198 0.2519778311252594
27 199 0.9206918478012085
27 200 0.9100876450538635
27 201 0.9403812289237976
27 202 0.9364720582962036
27 204 0.18236948549747467
27 205 0.9140627384185791
27 206 0.9218490719795227
27 208 0.9587311148643494
27 209 0.9456852078437805
27 210 0.908585786819458
27 211 0.538775622844696
27 212 0.46026644110679626
27 213 0.1291360706090927
27 214 0.9546977877616882
27 215 0.21736839413642883
27 216 0.9489933848381042
27 217 0.9430103302001953
27 218 0.9251589179039001
27 219 0.9463209509849548
27 220 0.9513096213340759
27 221 0.8956842422485352
27 222 0.9535502791404724
27 223 0.9486452341079712
27 224 0.17484068870544434
27 225 0.9510347843170166
27 226 0.0900309607386589
27 227 0.934984564781189
27 228 0.9273978471755981
27 229 0.9458300471305847
27 230 0.10692358762025833
27 231 0.6228908896446228
27 232 0.7044806480407715
27 233 0.14270395040512085
27 234 0.9600943326950073
27 235 0.8174362778663635
27 236 0.957879364490509
27 237 0.9416565299034119
27 238 0.9529209136962891
27 239 0.9552375078201294
27 240 0.9492073059082031
27 241 0.9427889585494995
27 242 0.062116991728544235
27 243 0.9486452341079712
27 244 0.9396097660064697
27 245 0.9119665622711182
27 246 0.9301124215126038
27 247 0.9472353458404541
27 248 0.9442763924598694
27 249 0.9364010095596313
27 250 0.9472353458404541
27 251 0.08102373033761978
27 252 0.9384717345237732
27 253 0.08282265812158585
27 254 0.9523952007293701
27 255 0.8213369250297546
28 29 0.945716381072998
28 30 0.9635879397392273
28 32 0.9652105569839478
28 33 0.2595020830631256
28 34 0.9509301781654358
28 35 0.9642149806022644
28 36 0.9465728402137756
28 37 0.956658124923706
28 38 0.9450498223304749
28 39 0.9625046849250793
28 40 0.20690710842609406
28 41 0.15623947978019714
28 42 0.9539754390716553
28 43 0.07330713421106339
28 44 0.9606406092643738
28 45 0.5173014998435974
28 46 0.2686215937137604
28 47 0.9619209170341492
28 48 0.9588820338249207
28 49 0.15411368012428284
28 50 0.09143006801605225
28 51 0.9294710755348206
28 52 0.10850300639867783
28 53 0.9761993885040283
28 54 0.9381454586982727
28 55 0.9539754390716553
28 56 0.9614202976226807
28 58 0.9673287272453308
28 59 0.07672321051359177
28 60 0.8971173167228699
28 61 0.08620109409093857
28 62 0.9408827424049377
28 63 0.1985703706741333
28 65 0.3257448971271515
28 66 0.9613375067710876
28 67 0.9669157266616821
28 68 0.941779375076294
28 69 0.918518602848053
28 70 0.9619209170341492
28 71 0.16780395805835724
28 72 0.9242238402366638
28 73 0.9445906281471252
28 74 0.8489465713500977
28 75 0.20571763813495636
28 76 0.9626809358596802
28 77 0.12045115977525711
28 78 0.9503412246704102
28 80 0.9695661664009094
28 81 0.6701038479804993
28 82 0.5928871631622314
28 83 0.9495457410812378
28 84 0.27846023440361023
28 85 0.9629641771316528
28 86 0.5477706789970398
28 87 0.8732297420501709
28 88 0.9538831114768982
28 89 0.34196215867996216
28 90 0.34121349453926086
28 91 0.9635058045387268
28 92 0.19093015789985657
28 93 0.9577476978302002
28 94 0.9628478288650513
28 95 0.9461984634399414
28 96 0.9608775973320007
28 97 0.9586203694343567
28 98 0.2979581356048584
28 99 0.9637182950973511
28 100 0.9680807590484619
28 101 0.9533362984657288
28 102 0.9648000597953796
28 103 0.14090318977832794
28 104 0.32377320528030396
28 105 0.9434388875961304
28 106 0.836868941783905
28 107 0.9657930731773376
28 108 0.9588820338249207
28 109 0.08000130206346512
28 110 0.9474050402641296
28 111 0.9599231481552124
28 112 0.964669942855835
28 113 0.9643046259880066
28 114 0.9547628164291382
28 115 0.9746978282928467
28 116 0.9632225036621094
28 117 0.1811126172542572
28 118 0.954521894454956
28 120 0.9639312028884888
28 121 0.9658363461494446
28 122 0.9673287272453308
28 123 0.9635058045387268
28 124 0.958076000213623
28 125 0.6911967992782593
28 126 0.9655172228813171
28 127 0.9526574611663818
28 128 0.9656297564506531
28 129 0.9684476852416992
28 130 0.15299177169799805
28 131 0.9539288282394409
28 132 0.32113635540008545
28 133 0.3490612506866455
28 134 0.18105851113796234
28 135 0.9509713053703308
28 136 0.9709799289703369
28 137 0.9661314487457275
28 138 0.9614630341529846
28 139 0.9314894080162048
28 140 0.10580974072217941
28 141 0.12422899156808853
28 142 0.9682158827781677
28 143 0.08620109409093857
28 144 0.1486968994140625
28 145 0.9623057842254639
28 146 0.954521894454956
28 147 0.951238751411438
28 148 0.9535906910896301
28 149 0.9615970849990845
28 150 0.9593797326087952
28 151 0.9599588513374329
28 152 0.9521527290344238
28 153 0.1588321328163147
28 154 0.19724002480506897
28 155 0.968327522277832
28 156 0.11877114325761795
28 157 0.9628857374191284
28 158 0.08771830052137375
28 159 0.9674549102783203
28 160 0.40622568130493164
28 161 0.10015662014484406
28 162 0.9528349041938782
28 163 0.36000585556030273
28 164 0.9467494487762451
28 165 0.9451902508735657
28 166 0.9715172052383423
28 167 0.9384045600891113
28 168 0.9598782062530518
28 169 0.9710677266120911
28 170 0.10580974072217941
28 171 0.9444528222084045
28 172 0.9139642119407654
28 173 0.9667893052101135
28 174 0.9271769523620605
28 175 0.9675437211990356
28 176 0.9620936512947083
28 177 0.956159234046936
28 179 0.9487745761871338
28 180 0.9577937722206116
28 181 0.9634660482406616
28 182 0.3212626278400421
28 183 0.9641715884208679
28 184 0.9669597148895264
28 185 0.07542596012353897
28 186 0.961801290512085
28 187 0.9657508730888367
28 188 0.4882154166698456
28 189 0.9183348417282104
28 190 0.966262936592102
28 191 0.9679509997367859
28 192 0.10222192108631134
28 193 0.9719815254211426
28 194 0.10192082822322845
28 195 0.9619209170341492
28 196 0.9567043781280518
28 197 0.07797182351350784
28 198 0.22905227541923523
28 199 0.9410459399223328
28 200 0.9084782004356384
28 201 0.9495457410812378
28 202 0.951013445854187
28 204 0.11816976964473724
28 205 0.9361562728881836
28 206 0.9357664585113525
28 208 0.9642593860626221
28 209 0.9587909579277039
28 210 0.9190014600753784
28 211 0.5874272584915161
28 212 0.43488845229148865
28 213 0.14413781464099884
28 214 0.96037757396698
28 215 0.17263352870941162
28 216 0.9703344106674194
28 217 0.9616217017173767
28 218 0.9379433989524841
28 219 0.9625046849250793
28 220 0.9642149806022644
28 221 0.8911672830581665
28 222 0.9663761258125305
28 223 0.9688661694526672
28 224 0.234015554189682
28 225 0.9723847508430481
28 226 0.12930163741111755
28 227 0.9444088935852051
28 228 0.9296181201934814
28 229 0.9609642624855042
28 230 0.1319679319858551
28 231 0.6053452491760254
28 232 0.6927225589752197
28 233 0.14090318977832794
28 234 0.9625473618507385
28 235 0.8393582105636597
28 236 0.9674988389015198
28 237 0.958076000213623
28 238 0.9637182950973511
28 239 0.9473941326141357
28 240 0.9714803695678711
28 241 0.9581172466278076
28 242 0.07155533879995346
28 243 0.9615970849990845
28 244 0.943730354309082
28 245 0.9455890655517578
28 246 0.9427947402000427
28 247 0.964509904384613
28 248 0.952287495136261
28 249 0.949915885925293
28 250 0.9572030305862427
28 251 0.08000130206346512
28 252 0.9538831114768982
28 253 0.10222192108631134
28 254 0.9560675024986267
28 255 0.857347846031189
29 30 0.9375266432762146
29 32 0.9392638802528381
29 33 0.24152866005897522
29 34 0.9259775876998901
29 35 0.9404203295707703
29 36 0.9191926717758179
29 37 0.9313223361968994
29 38 0.926381528377533
29 39 0.9438320994377136
29 40 0.21590790152549744
29 41 0.18753929436206818
29 42 0.9306421279907227
29 43 0.06254399567842484
29 44 0.9415959119796753
29 45 0.5133863687515259
29 46 0.263397753238678
29 47 0.939965009689331
29 48 0.934814989566803
29 49 0.146901935338974
29 50 0.09360726922750473
29 51 0.908699631690979
29 52 0.09399650245904922
29 53 0.9453352689743042
29 54 0.9176750779151917
29 55 0.9317131042480469
29 56 0.9362730383872986
29 58 0.9446708559989929
29 59 0.11480414867401123
29 60 0.8703861236572266
29 61 0.09928550571203232
29 62 0.9106850624084473
29 63 0.20802678167819977
29 65 0.3304421603679657
29 66 0.9467861652374268
29 67 0.9433054327964783
29 68 0.9164297580718994
29 69 0.9046093821525574
29 70 0.9356924295425415
29 71 0.1610623598098755
29 72 0.9095823764801025
29 73 0.918405294418335
29 74 0.8264367580413818
29 75 0.21997709572315216
29 76 0.9388738870620728
29 77 0.1298099309206009
29 78 0.93288254737854
29 80 0.9460905194282532
29 81 0.701073169708252
29 82 0.5651429891586304
29 83 0.9258638620376587
29 84 0.26542970538139343
29 85 0.9453057050704956
29 86 0.5284599661827087
29 87 0.8500943183898926
29 88 0.932597279548645
29 89 0.32140812277793884
29 90 0.32398349046707153
29 91 0.9416109919548035
29 92 0.2091146856546402
29 93 0.9378286600112915
29 94 0.9375587105751038
29 95 0.9233208894729614
29 96 0.9367605447769165
29 97 0.9374703764915466
29 98 0.30505335330963135
29 99 0.9409980177879333
29 100 0.9482736587524414
29 101 0.9309404492378235
29 102 0.9400303959846497
29 103 0.1442584991455078
29 104 0.3314831852912903
29 105 0.9214580655097961
29 106 0.8187990784645081
29 107 0.9441842436790466
29 108 0.9401445984840393
29 109 0.09360726922750473
29 110 0.9317347407341003
29 111 0.934814989566803
29 112 0.949327826499939
29 113 0.9416686296463013
29 114 0.9376225471496582
29 115 0.9460000991821289
29 116 0.9458215236663818
29 117 0.13174964487552643
29 118 0.9322960376739502
29 119 0.06619033962488174
29 120 0.9504923820495605
29 121 0.9453352689743042
29 122 0.9436082243919373
29 123 0.9469488859176636
29 124 0.932597279548645
29 125 0.6970489025115967
29 126 0.9467861652374268
29 127 0.924689769744873
29 128 0.9406326413154602
29 129 0.9469708204269409
29 130 0.16782313585281372
29 131 0.9294739961624146
29 132 0.25730884075164795
29 133 0.3345015048980713
29 134 0.2039070427417755
29 135 0.9260704517364502
29 136 0.9420600533485413
29 137 0.935786247253418
29 138 0.9395661950111389
29 139 0.9095194339752197
29 140 0.1011074110865593
29 141 0.11658831685781479
29 142 0.9411213994026184
29 143 0.09928550571203232
29 144 0.1588568240404129
29 145 0.9423387050628662
29 146 0.9301552176475525
29 147 0.9352354407310486
29 148 0.9254832863807678
29 149 0.9451581835746765
29 150 0.9374332427978516
29 151 0.9352973699569702
29 152 0.9252769947052002
29 153 0.1501055806875229
29 154 0.15145264565944672
29 155 0.9403276443481445
29 156 0.14862151443958282
29 157 0.9429997205734253
29 158 0.07982854545116425
29 159 0.9428220391273499
29 160 0.3694162666797638
29 161 0.11963190138339996
29 162 0.9347436428070068
29 163 0.3598029315471649
29 164 0.9206674695014954
29 165 0.9244971871376038
29 166 0.9436984658241272
29 167 0.9116771221160889
29 168 0.935786247253418
29 169 0.933806836605072
29 170 0.12277328968048096
29 171 0.9246188402175903
29 172 0.8840554356575012
29 173 0.9462213516235352
29 174 0.9062080383300781
29 175 0.9493534564971924
29 176 0.9424550533294678
29 177 0.9351114630699158
29 179 0.9269684553146362
29 180 0.9336522221565247
29 181 0.9468671083450317
29 182 0.32891279458999634
29 183 0.9445825219154358
29 184 0.9476334452629089
29 186 0.9450591802597046
29 187 0.9430317878723145
29 188 0.49340546131134033
29 189 0.8980712294578552
29 190 0.9373761415481567
29 191 0.9422455430030823
29 192 0.09419050812721252
29 193 0.9430317878723145
29 194 0.08829433470964432
29 195 0.9388968348503113
29 196 0.932487964630127
29 197 0.0997856855392456
29 198 0.1981177031993866
29 199 0.9165369868278503
29 200 0.8964119553565979
29 201 0.9290936589241028
29 202 0.9369586110115051
29 204 0.11522260308265686
29 205 0.917356550693512
29 206 0.9111826419830322
29 208 0.9447600245475769
29 209 0.941033124923706
29 210 0.8927211761474609
29 211 0.5783524513244629
29 212 0.43188706040382385
29 213 0.15892168879508972
29 214 0.9362730383872986
29 215 0.16719067096710205
29 216 0.9476061463356018
29 217 0.9478973150253296
29 218 0.9199947118759155
29 219 0.9416990876197815
29 220 0.9436082243919373
29 221 0.871863603591919
29 222 0.9416686296463013
29 223 0.9451581835746765
29 224 0.2513711452484131
29 225 0.9485906362533569
29 226 0.1323806792497635
29 227 0.9158370494842529
29 228 0.9111847281455994
29 229 0.934814989566803
29 230 0.13511046767234802
29 231 0.5867063403129578
29 232 0.6813193559646606
29 233 0.11388827860355377
29 234 0.9385920166969299
29 235 0.8165618777275085
29 236 0.9471487998962402
29 237 0.9315240979194641
29 238 0.9441842436790466
29 239 0.9225343465805054
29 240 0.9489213228225708
29 241 0.9359063506126404
29 242 0.05232806131243706
29 243 0.9398423433303833
29 244 0.9171296954154968
29 245 0.9164004921913147
29 246 0.9326356649398804
29 247 0.9425923228263855
29 248 0.9406042098999023
29 249 0.9303928017616272
29 250 0.9351114630699158
29 252 0.9293777346611023
29 253 0.06279366463422775
29 254 0.9338549375534058
29 255 0.8375887274742126
30 32 0.9684440493583679
30 33 0.3054104149341583
30 34 0.9522412419319153
30 35 0.9705458879470825
30 36 0.9531969428062439
30 37 0.9672451019287109
30 38 0.948501467704773
30 39 0.9647308588027954
30 40 0.2060476839542389
30 41 0.18778163194656372
30 42 0.9614713191986084
30 43 0.08516974747180939
30 44 0.9545593857765198
30 45 0.5210740566253662
30 46 0.26750585436820984
30 47 0.96312016248703
30 48 0.9642303586006165
30 49 0.1852266788482666
30 50 0.07966900616884232
30 51 0.9309606552124023
30 52 0.12467575073242188
30 53 0.9711125493049622
30 54 0.9353163838386536
30 55 0.9635547399520874
30 56 0.9636573195457458
30 58 0.9664115309715271
30 59 0.17044085264205933
30 60 0.8808401226997375
30 61 0.0858430340886116
30 62 0.9348426461219788
30 63 0.2207392305135727
30 65 0.34224826097488403
30 66 0.9635879397392273
30 67 0.9701159596443176
30 68 0.9484289884567261
30 69 0.9157910943031311
30 70 0.9662370681762695
30 71 0.17755113542079926
30 72 0.9257861375808716
30 73 0.9501368999481201
30 74 0.8620436787605286
30 75 0.22762572765350342
30 76 0.9700459837913513
30 77 0.15783004462718964
30 78 0.9474475979804993
30 80 0.9727444052696228
30 81 0.6790022253990173
30 82 0.5955143570899963
30 83 0.9560733437538147
30 84 0.31873977184295654
30 85 0.962081253528595
30 86 0.5489921569824219
30 87 0.8707574009895325
30 88 0.9572281241416931
30 89 0.36287233233451843
30 90 0.3754199743270874
30 91 0.9615805149078369
30 92 0.22551144659519196
30 93 0.962081253528595
30 94 0.9578062295913696
30 95 0.9506813883781433
30 96 0.9641591310501099
30 97 0.9598551392555237
30 98 0.3219732940196991
30 99 0.9669467806816101
30 100 0.9598907232284546
30 101 0.9577317833900452
30 102 0.9742085337638855
30 103 0.1403179168701172
30 104 0.3193865716457367
30 105 0.9500646591186523
30 106 0.8322005271911621
30 107 0.9669467806816101
30 108 0.9642303586006165
30 109 0.09105028957128525
30 110 0.9402822852134705
30 111 0.9642303586006165
30 112 0.9668741822242737
30 113 0.9706138968467712
30 114 0.9560384154319763
30 115 0.970649242401123
30 116 0.9685142636299133
30 117 0.21833093464374542
30 118 0.9599272608757019
30 120 0.9588861465454102
30 121 0.968016505241394
30 122 0.9664115309715271
30 123 0.9646956920623779
30 124 0.9582719802856445
30 125 0.6691646575927734
30 126 0.9594255685806274
30 127 0.9549901485443115
30 128 0.9636934399604797
30 129 0.9706138968467712
30 130 0.19044534862041473
30 131 0.9593513607978821
30 132 0.36985844373703003
30 133 0.3448304533958435
30 134 0.22989071905612946
30 135 0.9522765874862671
30 136 0.9690129160881042
30 137 0.9745730757713318
30 138 0.9626561403274536
30 139 0.9319148063659668
30 140 0.1475183367729187
30 141 0.2010335922241211
30 142 0.9652321338653564
30 143 0.0858430340886116
30 144 0.16095568239688873
30 145 0.9583086371421814
30 146 0.9620094895362854
30 147 0.956687331199646
30 148 0.9506813883781433
30 149 0.9658758640289307
30 150 0.9647308588027954
30 151 0.9517694115638733
30 152 0.9586750864982605
30 153 0.16425594687461853
30 154 0.22320538759231567
30 155 0.9674093723297119
30 156 0.12484879791736603
30 157 0.9588861465454102
30 158 0.0970599353313446
30 159 0.9727100729942322
30 160 0.4259551167488098
30 161 0.11636403203010559
30 162 0.9603596925735474
30 163 0.364201158285141
30 164 0.9543787837028503
30 165 0.9528199434280396
30 166 0.9716118574142456
30 167 0.9451140761375427
30 168 0.9621184468269348
30 169 0.9554969072341919
30 170 0.12644429504871368
30 171 0.9521413445472717
30 172 0.9156310558319092
30 173 0.9658758640289307
30 174 0.9319148063659668
30 175 0.9738078713417053
30 176 0.9674093723297119
30 177 0.9615431427955627
30 179 0.9469403624534607
30 180 0.9662699699401855
30 181 0.9615431427955627
30 182 0.3227846920490265
30 183 0.9653400182723999
30 184 0.9701523780822754
30 185 0.06438227742910385
30 186 0.9598907232284546
30 187 0.9669100642204285
30 188 0.47158101201057434
30 189 0.9231478571891785
30 190 0.9538363218307495
30 191 0.9763016104698181
30 192 0.10179731994867325
30 193 0.9679441452026367
30 194 0.11711247265338898
30 195 0.962081253528595
30 196 0.9610422849655151
30 197 0.0970599353313446
30 198 0.25956305861473083
30 199 0.9466888904571533
30 200 0.9112604856491089
30 201 0.9550261497497559
30 202 0.9502130150794983
30 204 0.18492402136325836
30 205 0.9301071763038635
30 206 0.9435412287712097
30 208 0.9695468544960022
30 209 0.9610422849655151
30 210 0.9206317067146301
30 211 0.5711823105812073
30 212 0.4763902723789215
30 213 0.18218424916267395
30 214 0.9636573195457458
30 215 0.20444120466709137
30 216 0.9652671217918396
30 217 0.9523887038230896
30 218 0.9446375370025635
30 219 0.9657681584358215
30 220 0.9695122838020325
30 221 0.8840869665145874
30 222 0.9695824384689331
30 223 0.970012366771698
30 224 0.2292231172323227
30 225 0.9621184468269348
30 226 0.12071677297353745
30 227 0.9521100521087646
30 228 0.9385551810264587
30 229 0.9652671217918396
30 230 0.144561767578125
30 231 0.6076534390449524
30 232 0.6998428702354431
30 233 0.1403179168701172
30 234 0.9647668600082397
30 235 0.839438796043396
30 236 0.9706856608390808
30 237 0.962447464466095
30 238 0.9669467806816101
30 239 0.9549901485443115
30 240 0.9684786796569824
30 241 0.9593513607978821
30 242 0.10179731994867325
30 243 0.9658758640289307
30 244 0.9419319033622742
30 245 0.9395211338996887
30 246 0.9452223777770996
30 247 0.9615431427955627
30 248 0.9556428790092468
30 249 0.9512255191802979
30 250 0.9625826478004456
30 251 0.09105028957128525
30 252 0.9572281241416931
30 253 0.10179731994867325
30 254 0.9614713191986084
30 255 0.849049985408783
31 49 0.16439899802207947
31 52 0.25819888710975647
31 90 0.08512565493583679
31 134 0.1400279998779297
31 160 0.07392212748527527
31 212 0.0672672763466835
32 33 0.2814801037311554
32 34 0.9528656601905823
32 35 0.9700728058815002
32 36 0.9506646990776062
32 37 0.961591362953186
32 38 0.9480828642845154
32 39 0.9653061628341675
32 40 0.23737862706184387
32 41 0.18213355541229248
32 42 0.9620605111122131
32 43 0.08503766357898712
32 44 0.9582985639572144
32 45 0.51435387134552
32 46 0.26709097623825073
32 47 0.9668132662773132
32 48 0.9648053646087646
32 49 0.19550737738609314
32 50 0.09090908616781235
32 51 0.9327220916748047
32 52 0.12448239326477051
32 53 0.9696065187454224
32 54 0.9359979629516602
32 55 0.9610204100608826
32 56 0.9631996750831604
32 58 0.9690408110618591
32 59 0.1584402322769165
32 60 0.8908663392066956
32 61 0.09642364829778671
32 62 0.9419073462486267
32 63 0.2158053070306778
32 65 0.3179458677768707
32 66 0.9652105569839478
32 67 0.970670223236084
32 68 0.9469581842422485
32 69 0.9241443276405334
32 70 0.9657759666442871
32 71 0.1824897825717926
32 72 0.9254290461540222
32 73 0.949713945388794
32 74 0.8488513827323914
32 75 0.2136363536119461
32 76 0.96854168176651
32 77 0.12606823444366455
32 78 0.9565009474754333
32 80 0.9722636342048645
32 81 0.6779491901397705
32 82 0.5793448686599731
32 83 0.9587728977203369
32 84 0.3150630295276642
32 85 0.9626638889312744
32 86 0.5446494221687317
32 87 0.869407057762146
32 88 0.9630393385887146
32 89 0.3511616289615631
32 90 0.3693656623363495
32 91 0.9663101434707642
32 92 0.1986721009016037
32 93 0.9626638889312744
32 94 0.9636051654815674
32 95 0.9513070583343506
32 96 0.9668132662773132
32 97 0.9604499936103821
32 98 0.3088671565055847
32 99 0.9706045985221863
32 100 0.9604833126068115
32 101 0.9572893381118774
32 102 0.9696065187454224
32 103 0.14010031521320343
32 104 0.32192832231521606
32 105 0.9475384950637817
32 106 0.8428140878677368
32 107 0.96854168176651
32 108 0.9648053646087646
32 109 0.07954545319080353
32 110 0.9398849606513977
32 111 0.9668757319450378
32 112 0.9674419164657593
32 113 0.9711683392524719
32 114 0.9535091519355774
32 115 0.9712016582489014
32 116 0.9701051115989685
32 117 0.21799233555793762
32 118 0.9625967144966125
32 119 0.06428243219852448
32 120 0.964675784111023
32 121 0.9737281203269958
32 122 0.9690408110618591
32 123 0.9631996750831604
32 124 0.9651238322257996
32 125 0.6916732788085938
32 126 0.9610546827316284
32 127 0.9535091519355774
32 128 0.9653061628341675
32 129 0.9701384902000427
32 130 0.14668715000152588
32 131 0.9651517271995544
32 132 0.3637317717075348
32 133 0.3609551787376404
32 134 0.2205328643321991
32 135 0.950799822807312
32 136 0.975761890411377
32 137 0.9637352228164673
32 138 0.9673776030540466
32 139 0.944405198097229
32 140 0.140275776386261
32 141 0.16984154284000397
32 142 0.9658077955245972
32 143 0.07499617338180542
32 144 0.1607060730457306
32 145 0.9609870910644531
32 146 0.9615572094917297
32 147 0.9583321213722229
32 148 0.962857186794281
32 149 0.9674755930900574
32 150 0.9673776030540466
32 151 0.9555378556251526
32 152 0.956142246723175
32 153 0.17007532715797424
32 154 0.22731643915176392
32 155 0.969008207321167
32 156 0.15089836716651917
32 157 0.9615572094917297
32 158 0.10660036653280258
32 159 0.9712016582489014
32 160 0.38015154004096985
32 161 0.12448239326477051
32 162 0.9578281044960022
32 163 0.3579545319080353
32 164 0.9518492817878723
32 165 0.9513422846794128
32 166 0.9742288589477539
32 167 0.9415302276611328
32 168 0.9668440222740173
32 169 0.9529678821563721
32 170 0.13326197862625122
32 171 0.9485567808151245
32 172 0.9207567572593689
32 173 0.9674755930900574
32 174 0.9358294010162354
32 175 0.9733244776725769
32 176 0.9700413346290588
32 177 0.968355119228363
32 179 0.9507303237915039
32 180 0.9678803086280823
32 181 0.9642035365104675
32 182 0.3422486186027527
32 183 0.9721074104309082
32 184 0.9737893342971802
32 185 0.08570990711450577
32 186 0.9604833126068115
32 187 0.9757358431816101
32 188 0.47918328642845154
32 189 0.9260233044624329
32 190 0.9576071500778198
32 191 0.9747875928878784
32 192 0.10163945704698563
32 193 0.9685081243515015
32 194 0.1325216293334961
32 195 0.9626638889312744
32 196 0.9678506255149841
32 197 0.10660036653280258
32 198 0.2630872130393982
32 199 0.9505190849304199
32 200 0.914211094379425
32 201 0.9545906782150269
32 202 0.9518845081329346
32 204 0.1678520292043686
32 205 0.9362149238586426
32 206 0.9420779943466187
32 208 0.9701051115989685
32 209 0.9626638889312744
32 210 0.9246430397033691
32 211 0.5961407423019409
32 212 0.4583550691604614
32 213 0.17638954520225525
32 214 0.9642365574836731
32 215 0.20876333117485046
32 216 0.9679110050201416
32 217 0.9540500640869141
32 218 0.9474020600318909
32 219 0.9694491028785706
32 220 0.9680087566375732
32 221 0.9018320441246033
32 222 0.9701384902000427
32 223 0.9674755930900574
32 224 0.25175440311431885
32 225 0.9668440222740173
32 226 0.12052956223487854
32 227 0.9495784044265747
32 228 0.9456188082695007
32 229 0.974122166633606
32 230 0.11809437721967697
32 231 0.6083161234855652
32 232 0.700183629989624
32 233 0.14010031521320343
32 234 0.9674093723297119
32 235 0.8511958122253418
32 236 0.9722636342048645
32 237 0.9578281044960022
32 238 0.9726674556732178
32 239 0.9566490650177002
32 240 0.9680087566375732
32 241 0.9589048027992249
32 242 0.10163945704698563
32 243 0.9685081243515015
32 244 0.9457665681838989
32 245 0.9402009844779968
32 246 0.9469234943389893
32 247 0.9621278047561646
32 248 0.9583321213722229
32 249 0.9539481997489929
32 250 0.9642035365104675
32 251 0.09090908616781235
32 252 0.9609548449516296
32 253 0.09147550910711288
32 254 0.9672608375549316
32 255 0.8666506409645081
33 34 0.26239702105522156
33 35 0.30462223291397095
33 36 0.28375446796417236
33 37 0.27957698702812195
33 38 0.31060370802879333
33 39 0.2822098731994629
33 40 0.2694966793060303
33 42 0.29013681411743164
33 44 0.2776615619659424
33 45 0.07670903205871582
33 46 0.10982143878936768
33 47 0.2860153913497925
33 48 0.28877928853034973
33 49 0.06855911761522293
33 51 0.30844077467918396
33 52 0.05383818969130516
33 53 0.28409823775291443
33 54 0.2904714345932007
33 55 0.2968841791152954
33 56 0.2993190884590149
33 58 0.30796974897384644
33 59 0.34262415766716003
33 60 0.2549756169319153
33 62 0.25547027587890625
33 63 0.19362051784992218
33 66 0.24602144956588745
33 67 0.29716232419013977
33 68 0.27364543080329895
33 69 0.2007838934659958
33 70 0.2927451729774475
33 71 0.2029530107975006
33 72 0.3183765113353729
33 73 0.3032900393009186
33 74 0.24611744284629822
33 76 0.30111953616142273
33 77 0.14312563836574554
33 78 0.2730582058429718
33 79 0.07372097671031952
33 80 0.30004000663757324
33 81 0.2128141224384308
33 82 0.32419541478157043
33 83 0.27810192108154297
33 84 0.1135530173778534
33 85 0.29947492480278015
33 86 0.24914886057376862
33 87 0.2618144452571869
33 88 0.2907463312149048
33 89 0.1265634447336197
33 90 0.21299909055233002
33 91 0.2825034260749817
33 92 0.21481241285800934
33 93 0.28938028216362
33 94 0.2531588673591614
33 95 0.3065341114997864
33 96 0.27928560972213745
33 97 0.29397258162498474
33 98 0.31692105531692505
33 99 0.30111953616142273
33 100 0.27003613114356995
33 101 0.27060404419898987
33 102 0.304152250289917
33 104 0.1576220840215683
33 105 0.31077030301094055
33 106 0.21237580478191376
33 107 0.2877364456653595
33 108 0.28877928853034973
33 109 0.2948839068412781
33 110 0.30969002842903137
33 111 0.2719897925853729
33 112 0.2916836738586426
33 113 0.2806117832660675
33 114 0.30555737018585205
33 115 0.28032413125038147
33 116 0.27755627036094666
33 117 0.10760319977998734
33 118 0.30347269773483276
33 119 0.05212860554456711
33 120 0.25289392471313477
33 121 0.2907829284667969
33 122 0.29792723059654236
33 123 0.2993190884590149
33 124 0.28398481011390686
33 125 0.11934023350477219
33 126 0.27972301840782166
33 127 0.30555737018585205
33 128 0.2956484258174896
33 129 0.30399608612060547
33 130 0.10573610663414001
33 131 0.287063866853714
33 132 0.3332386612892151
33 133 0.0810580626130104
33 134 0.23358286917209625
33 135 0.2382882833480835
33 136 0.2843906581401825
33 137 0.2890792787075043
33 138 0.2822098731994629
33 139 0.25035643577575684
33 141 0.2170286774635315
33 142 0.2924406826496124
33 143 0.06950480490922928
33 145 0.28030943870544434
33 146 0.3102165460586548
33 147 0.26383891701698303
33 148 0.2826925814151764
33 149 0.30477938055992126
33 150 0.29228878021240234
33 151 0.23135676980018616
33 152 0.2986088991165161
33 153 0.05910827964544296
33 154 0.2746995985507965
33 155 0.3015857934951782
33 156 0.063844233751297
33 157 0.2630096673965454
33 158 0.06286945939064026
33 159 0.29701006412506104
33 160 0.2543281614780426
33 162 0.30088865756988525
33 164 0.28254184126853943
33 165 0.29259824752807617
33 166 0.2708681523799896
33 167 0.29544368386268616
33 168 0.24538125097751617
33 169 0.2887350618839264
33 170 0.11375393718481064
33 171 0.2974293828010559
33 172 0.2618652880191803
33 173 0.29138249158859253
33 174 0.22601622343063354
33 175 0.29640331864356995
33 176 0.26472532749176025
33 177 0.3029976785182953
33 179 0.2865575850009918
33 180 0.2857178747653961
33 181 0.3029976785182953
33 182 0.28679126501083374
33 183 0.29823485016822815
33 184 0.26350319385528564
33 186 0.2902888357639313
33 187 0.28803324699401855
33 188 0.2568036615848541
33 189 0.30736181139945984
33 190 0.2179798185825348
33 191 0.3005012571811676
33 193 0.2980809211730957
33 194 0.15171651542186737
33 195 0.296110063791275
33 196 0.29947492480278015
33 198 0.05094818025827408
33 199 0.25435709953308105
33 200 0.3184848129749298
33 201 0.2814934253692627
33 202 0.26863911747932434
33 204 0.38112586736679077
33 205 0.2484036386013031
33 206 0.309017539024353
33 208 0.2842443585395813
33 209 0.27928560972213745
33 210 0.29992860555648804
33 211 0.0894203633069992
33 212 0.3085763454437256
33 213 0.10727977007627487
33 214 0.29595595598220825
33 215 0.06019292399287224
33 216 0.29213717579841614
33 217 0.28164246678352356
33 218 0.2778146266937256
33 219 0.28892913460731506
33 220 0.30796974897384644
33 221 0.24802985787391663
33 222 0.30399608612060547
33 223 0.3014301359653473
33 224 0.09898443520069122
33 225 0.2789951264858246
33 227 0.30801692605018616
33 228 0.2556104362010956
33 229 0.28206348419189453
33 230 0.063844233751297
33 231 0.3540322482585907
33 232 0.2451602667570114
33 233 0.16742770373821259
33 234 0.30876657366752625
33 235 0.10012152045965195
33 236 0.303373783826828
33 237 0.3042694330215454
33 238 0.27769914269447327
33 239 0.2885819673538208
33 240 0.2845372259616852
33 241 0.3039499819278717
33 242 0.19781413674354553
33 243 0.2813348174095154
33 244 0.28857290744781494
33 245 0.2841813862323761
33 246 0.29106172919273376
33 247 0.28279784321784973
33 248 0.29766443371772766
33 249 0.28935006260871887
33 250 0.27606454491615295
33 251 0.22116293013095856
33 252 0.27722325921058655
33 253 0.16484512388706207
33 254 0.2968841791152954
33 255 0.20326365530490875
34 35 0.9508333802223206
34 36 0.9367678761482239
34 37 0.9440974593162537
34 38 0.9331204891204834
34 39 0.9469098448753357
34 40 0.20921529829502106
34 41 0.1634301096200943
34 42 0.9445214867591858
34 43 0.08647909015417099
34 44 0.9480022192001343
34 45 0.4930106997489929
34 46 0.2754439115524292
34 47 0.9515530467033386
34 48 0.9474713206291199
34 49 0.1612064689397812
34 50 0.08089377731084824
34 51 0.9191960692405701
34 52 0.10127393156290054
34 53 0.954605758190155
34 54 0.9247602820396423
34 55 0.9434637427330017
34 56 0.9457858800888062
34 58 0.9518828988075256
34 59 0.14919058978557587
34 60 0.8584672808647156
34 61 0.0980580672621727
34 62 0.9199909567832947
34 63 0.2054550051689148
34 65 0.3082260191440582
34 66 0.9519867300987244
34 67 0.9536261558532715
34 68 0.93190997838974
34 69 0.905573844909668
34 70 0.950498104095459
34 71 0.19088542461395264
34 72 0.9049186706542969
34 73 0.9316239356994629
34 74 0.8258649110794067
34 75 0.2311250865459442
34 76 0.9513925313949585
34 77 0.12820513546466827
34 78 0.9384709596633911
34 80 0.9573883414268494
34 81 0.6746139526367188
34 82 0.5857195258140564
34 83 0.9399363398551941
34 84 0.27185750007629395
34 85 0.9473333358764648
34 86 0.5645330548286438
34 87 0.8477931022644043
34 88 0.9433260560035706
34 89 0.29476070404052734
34 90 0.32832545042037964
34 91 0.9457858800888062
34 92 0.18857036530971527
34 93 0.9452233910560608
34 94 0.9587736129760742
34 95 0.9343301057815552
34 96 0.9473333358764648
34 97 0.9502459764480591
34 98 0.30128204822540283
34 99 0.9545393586158752
34 100 0.9513658881187439
34 101 0.9395804405212402
34 102 0.9556536078453064
34 103 0.14247506856918335
34 104 0.2841455936431885
34 105 0.935762345790863
34 106 0.8462048172950745
34 107 0.9555883407592773
34 108 0.9485240578651428
34 109 0.06933752447366714
34 110 0.9256099462509155
34 111 0.9527350068092346
34 112 0.9491537809371948
34 113 0.9551628828048706
34 114 0.9356105327606201
34 115 0.9583687782287598
34 116 0.9561450481414795
34 117 0.2168680876493454
34 118 0.9440274238586426
34 119 0.0653720498085022
34 120 0.9524844884872437
34 121 0.9535578489303589
34 122 0.9508333802223206
34 123 0.9468402862548828
34 124 0.9454458355903625
34 125 0.6854382753372192
34 126 0.9445906281471252
34 127 0.936674952507019
34 128 0.9511229991912842
34 129 0.953068196773529
34 130 0.18784818053245544
34 131 0.946570873260498
34 132 0.35295525193214417
34 133 0.3783680498600006
34 134 0.20138618350028992
34 135 0.9455715417861938
34 136 0.9608330726623535
34 137 0.9516172409057617
34 138 0.9479631185531616
34 139 0.9244386553764343
34 140 0.1355208158493042
34 141 0.17795437574386597
34 142 0.9568864107131958
34 143 0.07626738399267197
34 144 0.15689291059970856
34 145 0.944453239440918
34 146 0.9450845718383789
34 147 0.940640926361084
34 148 0.9514150023460388
34 149 0.9544739127159119
34 150 0.9490163922309875
34 151 0.952534556388855
34 152 0.9414979219436646
34 153 0.16678109765052795
34 154 0.17224396765232086
34 155 0.9560173153877258
34 156 0.1200961172580719
34 157 0.9450845718383789
34 158 0.08869685977697372
34 159 0.9541837573051453
34 160 0.4035087823867798
34 161 0.1181529238820076
34 162 0.9412062168121338
34 163 0.36402198672294617
34 164 0.9359663724899292
34 165 0.9376012086868286
34 166 0.9550966620445251
34 167 0.9241012334823608
34 168 0.9516172409057617
34 169 0.9382369518280029
34 170 0.09985744208097458
34 171 0.9335525035858154
34 172 0.9097374677658081
34 173 0.9544739127159119
34 174 0.9211682081222534
34 175 0.9616314768791199
34 176 0.9549667835235596
34 177 0.9467715620994568
34 179 0.9497331976890564
34 180 0.950563371181488
34 181 0.9457160830497742
34 182 0.3074440360069275
34 183 0.9518150687217712
34 184 0.9547410011291504
34 185 0.0980580672621727
34 186 0.9513658881187439
34 187 0.9534239172935486
34 188 0.48942434787750244
34 189 0.9154391884803772
34 190 0.9450081586837769
34 191 0.9578132629394531
34 192 0.10336227715015411
34 193 0.9544739127159119
34 194 0.13476791977882385
34 195 0.9452233910560608
34 196 0.9452233910560608
34 197 0.08869685977697372
34 198 0.2675466239452362
34 199 0.9353796243667603
34 200 0.9075185060501099
34 201 0.9409996271133423
34 202 0.9360361695289612
34 204 0.13655774295330048
34 205 0.9136936068534851
34 206 0.9246764183044434
34 208 0.9582418203353882
34 209 0.9462783336639404
34 210 0.897172212600708
34 211 0.5466722846031189
34 212 0.42654773592948914
34 213 0.16816818714141846
34 214 0.9510578513145447
34 215 0.21701978147029877
34 216 0.9485240578651428
34 217 0.9521362781524658
34 218 0.9258257150650024
34 219 0.9532296061515808
34 220 0.9508333802223206
34 221 0.8862428665161133
34 222 0.953068196773529
34 223 0.9513238072395325
34 224 0.22498878836631775
34 225 0.9547786712646484
34 226 0.12257258594036102
34 227 0.943141758441925
34 228 0.9204957485198975
34 229 0.9495768547058105
34 230 0.10675209760665894
34 231 0.6104660034179688
34 232 0.7033507227897644
34 233 0.1349763721227646
34 234 0.9480324387550354
34 235 0.8318198323249817
34 236 0.9584335088729858
34 237 0.9412062168121338
34 238 0.9534904360771179
34 239 0.9388037323951721
34 240 0.9508333802223206
34 241 0.9412768483161926
34 242 0.08268982172012329
34 243 0.9523739218711853
34 244 0.9241012334823608
34 245 0.9257152080535889
34 246 0.931841254234314
34 247 0.950993537902832
34 248 0.940640926361084
34 249 0.9402353167533875
34 250 0.9531044960021973
34 251 0.08089377731084824
34 252 0.9475657343864441
34 253 0.06201736256480217
34 254 0.9466368556022644
34 255 0.8344480991363525
35 36 0.9549484848976135
35 37 0.9699357748031616
35 38 0.9544631838798523
35 39 0.9663798213005066
35 40 0.23318155109882355
35 41 0.19264838099479675
35 42 0.9610681533813477
35 43 0.06067853793501854
35 44 0.957310140132904
35 45 0.5098860263824463
35 46 0.26305752992630005
35 47 0.9637435078620911
35 48 0.9710491895675659
35 49 0.195305734872818
35 50 0.09081532061100006
35 51 0.9338947534561157
35 52 0.12435399740934372
35 53 0.9706650376319885
35 54 0.9414222836494446
35 55 0.9641851186752319
35 56 0.9663492441177368
35 58 0.9721649289131165
35 59 0.175863116979599
35 60 0.8842572569847107
35 61 0.08562150597572327
35 62 0.9377461671829224
35 63 0.22475646436214447
35 65 0.3473018407821655
35 66 0.9621391892433167
35 67 0.9809801578521729
35 68 0.9491417407989502
35 69 0.9188518524169922
35 70 0.965816080570221
35 71 0.19792740046977997
35 72 0.9471015334129333
35 73 0.9550312757492065
35 74 0.8467915654182434
35 75 0.22703830897808075
35 76 0.9716641902923584
35 77 0.15112581849098206
35 78 0.9492073059082031
35 80 0.9763942956924438
35 81 0.6903579831123352
35 82 0.5939775109291077
35 83 0.9598729014396667
35 84 0.31791722774505615
35 85 0.9637435078620911
35 86 0.580708920955658
35 87 0.8857883810997009
35 88 0.9610048532485962
35 89 0.37028828263282776
35 90 0.37718436121940613
35 91 0.9725637435913086
35 92 0.2293398529291153
35 93 0.9668523073196411
35 94 0.9605321288108826
35 95 0.9576683044433594
35 96 0.9668523073196411
35 97 0.9594593644142151
35 98 0.314845472574234
35 99 0.9757857918739319
35 100 0.9646902680397034
35 101 0.9604688286781311
35 102 0.975811779499054
35 103 0.1399558037519455
35 104 0.33979982137680054
35 105 0.9507681727409363
35 106 0.8359988331794739
35 107 0.969603419303894
35 108 0.9689809083938599
35 109 0.09081532061100006
35 110 0.9452738761901855
35 111 0.9689809083938599
35 112 0.9695417284965515
35 113 0.9711955189704895
35 114 0.9619358777999878
35 115 0.9732831120491028
35 116 0.9711642265319824
35 117 0.17516079545021057
35 118 0.9647191166877747
35 120 0.9616038203239441
35 121 0.9716944098472595
35 122 0.9752577543258667
35 123 0.967384934425354
35 124 0.9610048532485962
35 125 0.6733183264732361
35 126 0.9631770849227905
35 127 0.959844708442688
35 128 0.9653451442718506
35 129 0.973253071308136
35 130 0.16281761229038239
35 131 0.9620760679244995
35 132 0.3661302924156189
35 133 0.31620344519615173
35 134 0.2292974591255188
35 135 0.952964186668396
35 136 0.969603419303894
35 137 0.9689523577690125
35 138 0.9653451442718506
35 139 0.9380767941474915
35 140 0.14713764190673828
35 141 0.2005148082971573
35 142 0.9658467173576355
35 143 0.09632419049739838
35 144 0.16054031252861023
35 145 0.9620760679244995
35 146 0.9636806845664978
35 147 0.9583853483200073
35 148 0.9513747692108154
35 149 0.9716349840164185
35 150 0.9674144983291626
35 151 0.9524566531181335
35 152 0.9582911729812622
35 153 0.16383205354213715
35 154 0.23153455555438995
35 155 0.9680087566375732
35 156 0.14418870210647583
35 157 0.9616038203239441
35 158 0.10649040341377258
35 159 0.9753386378288269
35 160 0.4319763481616974
35 161 0.11606372892856598
35 162 0.9672518968582153
35 163 0.33771947026252747
35 164 0.9540125727653503
35 165 0.9545522928237915
35 166 0.9711642265319824
35 167 0.9458490610122681
35 168 0.9648115634918213
35 169 0.9561694860458374
35 170 0.14713764190673828
35 171 0.9507369995117188
35 172 0.9132681488990784
35 173 0.9685406684875488
35 174 0.930580735206604
35 175 0.9743717908859253
35 176 0.9690408110618591
35 177 0.9632090330123901
35 179 0.9497496485710144
35 180 0.9699875712394714
35 181 0.9735773205757141
35 182 0.3589904010295868
35 183 0.9690408110618591
35 184 0.9727848768234253
35 185 0.07491881400346756
35 186 0.9615716934204102
35 187 0.9685406684875488
35 188 0.4641202390193939
35 189 0.9261438250541687
35 190 0.9513747692108154
35 191 0.971725583076477
35 192 0.050767309963703156
35 193 0.9706035852432251
35 194 0.11681024730205536
35 195 0.9689249396324158
35 196 0.9637435078620911
35 197 0.10649040341377258
35 198 0.21182170510292053
35 199 0.9463630318641663
35 200 0.9132681488990784
35 201 0.9567395448684692
35 202 0.952997088432312
35 204 0.1844467967748642
35 205 0.9341717958450317
35 206 0.9432210922241211
35 208 0.9701343774795532
35 209 0.964779794216156
35 210 0.924776017665863
35 211 0.595525860786438
35 212 0.47732070088386536
35 213 0.18722058832645416
35 214 0.967384934425354
35 215 0.20854800939559937
35 216 0.9689809083938599
35 217 0.9551560282707214
35 218 0.9538189172744751
35 219 0.9653451442718506
35 220 0.9752577543258667
35 221 0.8862987160682678
35 222 0.974281907081604
35 223 0.9716349840164185
35 224 0.262926310300827
35 225 0.9648115634918213
35 226 0.12040524184703827
35 227 0.946491003036499
35 228 0.9457072019577026
35 229 0.9679467678070068
35 230 0.15729676187038422
35 231 0.630136251449585
35 232 0.7037351131439209
35 233 0.1399558037519455
35 234 0.9664115309715271
35 235 0.8396444320678711
35 236 0.9733142256736755
35 237 0.9610048532485962
35 238 0.9716641902923584
35 239 0.957753598690033
35 240 0.9731959104537964
35 241 0.961035966873169
35 242 0.10153461992740631
35 243 0.9685406684875488
35 244 0.9437330365180969
35 245 0.939231276512146
35 246 0.9480559825897217
35 247 0.9652827382087708
35 248 0.9594271183013916
35 249 0.9519158601760864
35 250 0.9632090330123901
35 251 0.09081532061100006
35 252 0.9599636793136597
35 253 0.10153461992740631
35 254 0.9641851186752319
35 255 0.8480400443077087
36 37 0.9556136131286621
36 38 0.935052216053009
36 39 0.9478460550308228
36 40 0.21392545104026794
36 41 0.19128252565860748
36 42 0.9465023279190063
36 43 0.06196971982717514
36 44 0.9361452460289001
36 45 0.49459853768348694
36 46 0.2571413218975067
36 47 0.9429758787155151
36 48 0.950522780418396
36 49 0.19407078623771667
36 50 0.0927477777004242
36 51 0.9123461842536926
36 52 0.11853344738483429
36 53 0.9576801657676697
36 54 0.9146871566772461
36 55 0.9422580003738403
36 56 0.9498896598815918
36 58 0.9507369995117188
36 59 0.17361845076084137
36 60 0.8670433759689331
36 61 0.07651301473379135
36 62 0.9196965098381042
36 63 0.22485455870628357
36 65 0.33650270104408264
36 66 0.9402128458023071
36 67 0.9577475786209106
36 68 0.9306079745292664
36 69 0.8951953649520874
36 70 0.9525009393692017
36 71 0.20213910937309265
36 72 0.9210378527641296
36 73 0.9335525035858154
36 74 0.8382008671760559
36 75 0.23186944425106049
36 76 0.9491949677467346
36 77 0.16077253222465515
36 78 0.9382727742195129
36 80 0.9531318545341492
36 81 0.6842238306999207
36 82 0.5927907228469849
36 83 0.9418967366218567
36 84 0.3149416744709015
36 85 0.9482675790786743
36 86 0.5467603802680969
36 87 0.8587581515312195
36 88 0.9367941617965698
36 89 0.35542070865631104
36 90 0.37962767481803894
36 91 0.9477741122245789
36 92 0.1711607575416565
36 93 0.9461508989334106
36 94 0.9416899681091309
36 95 0.9341254830360413
36 96 0.9450926184654236
36 97 0.9426786303520203
36 98 0.32797595858573914
36 99 0.9491949677467346
36 100 0.9448749423027039
36 101 0.9383509755134583
36 102 0.9618850946426392
36 103 0.1278882473707199
36 104 0.28506070375442505
36 105 0.9419983625411987
36 106 0.8039939403533936
36 107 0.9502472877502441
36 108 0.9452421069145203
36 109 0.08115430176258087
36 110 0.9285909533500671
36 111 0.9547473192214966
36 112 0.9511561989784241
36 113 0.9508841633796692
36 114 0.9428951144218445
36 115 0.9530583024024963
36 116 0.9518619179725647
36 117 0.20306210219860077
36 118 0.9438861012458801
36 120 0.9428255558013916
36 121 0.9492702484130859
36 122 0.9496841430664062
36 123 0.9498896598815918
36 124 0.9367941617965698
36 125 0.6651246547698975
36 126 0.9433928728103638
36 127 0.9396916627883911
36 128 0.9467893838882446
36 129 0.9550870060920715
36 130 0.16628219187259674
36 131 0.9528059959411621
36 132 0.3597574830055237
36 133 0.2917718291282654
36 134 0.21121816337108612
36 135 0.9314860701560974
36 136 0.9618228077888489
36 137 0.9493958353996277
36 138 0.9457327127456665
36 139 0.928509533405304
36 140 0.1502685844898224
36 141 0.18902912735939026
36 142 0.9515103101730347
36 143 0.08744344860315323
36 144 0.15739819407463074
36 145 0.9411216974258423
36 146 0.9470677375793457
36 147 0.9383509755134583
36 148 0.9426954388618469
36 149 0.9512275457382202
36 150 0.9510161280632019
36 151 0.9363404512405396
36 152 0.9487991333007812
36 153 0.16112126410007477
36 154 0.2364613562822342
36 155 0.947502851486206
36 156 0.1204828992486
36 157 0.9407044053077698
36 158 0.1087564080953598
36 159 0.9562071561813354
36 160 0.42177635431289673
36 161 0.06773339956998825
36 162 0.9410474896430969
36 163 0.32171887159347534
36 164 0.9379100799560547
36 165 0.9309899210929871
36 166 0.9539655447006226
36 167 0.923835813999176
36 168 0.9483385682106018
36 169 0.9391219019889832
36 170 0.12164599448442459
36 171 0.9365591406822205
36 172 0.8937461972236633
36 173 0.9470139145851135
36 174 0.909917414188385
36 175 0.9542537927627563
36 176 0.949610710144043
36 177 0.950879693031311
36 179 0.9291867017745972
36 180 0.9515103101730347
36 181 0.9477030038833618
36 182 0.35499030351638794
36 183 0.9527726173400879
36 184 0.9515213370323181
36 185 0.07651301473379135
36 186 0.9406283497810364
36 187 0.9533343315124512
36 188 0.47824734449386597
36 189 0.907401978969574
36 190 0.937339186668396
36 191 0.951446533203125
36 192 0.0933256521821022
36 193 0.9501741528511047
36 194 0.12724889814853668
36 195 0.9461508989334106
36 196 0.9461508989334106
36 197 0.09886946529150009
36 198 0.2243412584066391
36 199 0.9351488351821899
36 200 0.8948591947555542
36 201 0.9333631992340088
36 202 0.9315640926361084
36 204 0.18837162852287292
36 205 0.9287407398223877
36 206 0.9276544451713562
36 208 0.9487066268920898
36 209 0.9419175982475281
36 210 0.9255874752998352
36 211 0.5976511836051941
36 212 0.4786544442176819
36 213 0.17433345317840576
36 214 0.9456585645675659
36 215 0.19405363500118256
36 216 0.950522780418396
36 217 0.9359919428825378
36 218 0.933122456073761
36 219 0.9457327127456665
36 220 0.9602128267288208
36 221 0.8718888163566589
36 222 0.9508841633796692
36 223 0.9575479626655579
36 224 0.24127984046936035
36 225 0.9430524110794067
36 226 0.10657169669866562
36 227 0.9246507287025452
36 228 0.9202011227607727
36 229 0.9526350498199463
36 230 0.1204828992486
36 231 0.5944193601608276
36 232 0.6823378801345825
36 233 0.1278882473707199
36 234 0.9447522163391113
36 235 0.8223870992660522
36 236 0.9520833492279053
36 237 0.9474274516105652
36 238 0.9491949677467346
36 239 0.934352457523346
36 240 0.9528427124023438
36 241 0.9453705549240112
36 242 0.10369516909122467
36 243 0.948067307472229
36 244 0.9259968996047974
36 245 0.9319665431976318
36 246 0.9229953289031982
36 247 0.942408561706543
36 248 0.9394148588180542
36 249 0.935768723487854
36 250 0.942408561706543
36 251 0.0927477777004242
36 252 0.9410474896430969
36 253 0.10369516909122467
36 254 0.9507467150688171
36 255 0.835929274559021
37 38 0.9445564150810242
37 39 0.9630433320999146
37 40 0.21872980892658234
37 41 0.19385120272636414
37 42 0.9587048292160034
37 43 0.08548034727573395
37 44 0.9506950974464417
37 45 0.51505047082901
37 46 0.26469993591308594
37 47 0.9582903981208801
37 48 0.9687872529029846
37 49 0.19121365249156952
37 50 0.07995954155921936
37 51 0.9279117584228516
37 52 0.11678838729858398
37 53 0.9663678407669067
37 54 0.9322975873947144
37 55 0.9607957601547241
37 56 0.9692560434341431
37 58 0.9626742005348206
37 59 0.17696112394332886
37 60 0.8737460970878601
37 61 0.06461706012487411
37 62 0.9329026341438293
37 63 0.2123132348060608
37 65 0.34050944447517395
37 66 0.956658124923706
37 67 0.9695149660110474
37 68 0.9497676491737366
37 69 0.9136726260185242
37 70 0.9624614119529724
37 71 0.18868090212345123
37 72 0.931330680847168
37 73 0.9504336714744568
37 74 0.8496951460838318
37 75 0.22845584154129028
37 76 0.9683992862701416
37 77 0.158405601978302
37 78 0.942440927028656
37 80 0.9700931310653687
37 81 0.6726850867271423
37 82 0.5840635299682617
37 83 0.9553560018539429
37 84 0.31990212202072144
37 85 0.9582903981208801
37 86 0.5738060474395752
37 87 0.8785691261291504
37 88 0.9533851146697998
37 89 0.3726001977920532
37 90 0.3712884783744812
37 91 0.9661293625831604
37 92 0.22189590334892273
37 93 0.960375964641571
37 94 0.9539769887924194
37 95 0.9530928134918213
37 96 0.9614186882972717
37 97 0.9528842568397522
37 98 0.3104749917984009
37 99 0.9652888774871826
37 100 0.9571150541305542
37 101 0.961224377155304
37 102 0.9715466499328613
37 103 0.14082962274551392
37 104 0.32970988750457764
37 105 0.9450629949569702
37 106 0.8328421711921692
37 107 0.9652888774871826
37 108 0.963584303855896
37 109 0.06853675097227097
37 110 0.9351806044578552
37 111 0.963584303855896
37 112 0.961049497127533
37 113 0.9679421186447144
37 114 0.952160120010376
37 115 0.9679840207099915
37 116 0.9637559056282043
37 117 0.20007261633872986
37 118 0.9582032561302185
37 120 0.9550684094429016
37 121 0.9663678407669067
37 122 0.9688984155654907
37 123 0.9609183073043823
37 124 0.9523374438285828
37 125 0.6612498760223389
37 126 0.9577024579048157
37 127 0.9532122015953064
37 128 0.9609610438346863
37 129 0.9648363590240479
37 130 0.16383416950702667
37 131 0.960756778717041
37 132 0.37120726704597473
37 133 0.3181776702404022
37 134 0.2035844773054123
37 135 0.9504747986793518
37 136 0.9642520546913147
37 137 0.9635437726974487
37 138 0.9599199295043945
37 139 0.9342357516288757
37 140 0.148056298494339
37 141 0.2017667293548584
37 142 0.9614604115486145
37 143 0.09692560136318207
37 144 0.16154266893863678
37 145 0.9534308314323425
37 146 0.9602930545806885
37 147 0.9559832811355591
37 148 0.945704460144043
37 149 0.9631708264350891
37 150 0.962002158164978
37 151 0.9468055367469788
37 152 0.9537587761878967
37 153 0.15264347195625305
37 154 0.2329801470041275
37 155 0.961591362953186
37 156 0.13849399983882904
37 157 0.9571583271026611
37 158 0.10715528577566147
37 159 0.9721207022666931
37 160 0.4298968017101288
37 161 0.09176230430603027
37 162 0.962814211845398
37 163 0.3226938545703888
37 164 0.9546944499015808
37 165 0.9478598833084106
37 166 0.9689373970031738
37 167 0.9453669190406799
37 168 0.9625020623207092
37 169 0.9484546780586243
37 170 0.1410059928894043
37 171 0.9429003000259399
37 172 0.9080039262771606
37 173 0.9621329307556152
37 174 0.9299255609512329
37 175 0.9680705666542053
37 176 0.961591362953186
37 177 0.9598332047462463
37 179 0.9429934024810791
37 180 0.9687521457672119
37 181 0.9608765244483948
37 182 0.3497640788555145
37 183 0.961591362953186
37 184 0.9685221314430237
37 185 0.08615608513355255
37 186 0.9560690522193909
37 187 0.9631708264350891
37 188 0.4607352614402771
37 189 0.9200200438499451
37 190 0.9467599391937256
37 191 0.9664108753204346
37 192 0.09195169806480408
37 193 0.9652466773986816
37 194 0.12537550926208496
37 195 0.9593331217765808
37 196 0.9582903981208801
37 197 0.09741389006376266
37 198 0.24077405035495758
37 199 0.9448153972625732
37 200 0.9058106541633606
37 201 0.951151967048645
37 202 0.9463017582893372
37 204 0.18559838831424713
37 205 0.9302464723587036
37 206 0.9395339488983154
37 208 0.9647921919822693
37 209 0.9572476744651794
37 210 0.9163346886634827
37 211 0.5836567282676697
37 212 0.46943432092666626
37 213 0.18284861743450165
37 214 0.9609183073043823
37 215 0.22384007275104523
37 216 0.9656654596328735
37 217 0.9495525360107422
37 218 0.9502081871032715
37 219 0.9599199295043945
37 220 0.9678610563278198
37 221 0.878268301486969
37 222 0.9648363590240479
37 223 0.964208722114563
37 224 0.25689926743507385
37 225 0.9583353996276855
37 226 0.09692559391260147
37 227 0.9396734833717346
37 228 0.9398370385169983
37 229 0.9625437259674072
37 230 0.15827883780002594
37 231 0.6018023490905762
37 232 0.6980946660041809
37 233 0.11859337240457535
37 234 0.962044894695282
37 235 0.8389200568199158
37 236 0.9669937491416931
37 237 0.9544328451156616
37 238 0.9652888774871826
37 239 0.952160120010376
37 240 0.965786337852478
37 241 0.9544773697853088
37 242 0.10216855257749557
37 243 0.9652466773986816
37 244 0.9389792680740356
37 245 0.9375775456428528
37 246 0.9401801824569702
37 247 0.9577466249465942
37 248 0.9517903327941895
37 249 0.9504747986793518
37 250 0.9567033052444458
37 251 0.09138233214616776
37 252 0.9523374438285828
37 253 0.10216855257749557
37 254 0.9555683732032776
37 255 0.8378844261169434
38 39 0.9452659487724304
38 40 0.253879576921463
38 41 0.19097474217414856
38 42 0.9428606629371643
38 43 0.07424400746822357
38 44 0.9410187602043152
38 45 0.4536561667919159
38 46 0.23756881058216095
38 47 0.9446285963058472
38 48 0.9458300471305847
38 49 0.1937585324048996
38 50 0.09259855002164841
38 51 0.9184961318969727
38 52 0.12679578363895416
38 53 0.9519410729408264
38 54 0.9219023585319519
38 55 0.9428606629371643
38 56 0.9536417126655579
38 58 0.9565654397010803
38 59 0.16736188530921936
38 60 0.8691293597221375
38 61 0.07638990134000778
38 62 0.9301415681838989
38 63 0.22916971147060394
38 65 0.32385459542274475
38 66 0.9418749213218689
38 67 0.9530611634254456
38 68 0.9301847815513611
38 69 0.9014979600906372
38 70 0.9467418193817139
38 71 0.20181384682655334
38 72 0.9239504337310791
38 73 0.9309803247451782
38 74 0.8344370722770691
38 75 0.19445694983005524
38 76 0.9508196115493774
38 77 0.15409329533576965
38 78 0.9367631077766418
38 80 0.9547388553619385
38 81 0.69500333070755
38 82 0.567680299282074
38 83 0.9414463043212891
38 84 0.30146855115890503
38 85 0.9488551616668701
38 86 0.567218005657196
38 87 0.8562019467353821
38 88 0.9395333528518677
38 89 0.33497732877731323
38 90 0.38459065556526184
38 91 0.9473052024841309
38 92 0.2338431030511856
38 93 0.9509683847427368
38 94 0.9401747584342957
38 95 0.9347614645957947
38 96 0.947798490524292
38 97 0.9475283026695251
38 98 0.3210276961326599
38 99 0.9529209136962891
38 100 0.9507742524147034
38 101 0.9379032850265503
38 102 0.9592878818511963
38 103 0.12017174810171127
38 104 0.3340980112552643
38 105 0.9436998963356018
38 106 0.8124005794525146
38 107 0.9518702626228333
38 108 0.9458300471305847
38 109 0.09259855002164841
38 110 0.942224383354187
38 111 0.9489933848381042
38 112 0.9485729336738586
38 113 0.9525012969970703
38 114 0.9509730339050293
38 115 0.9546686410903931
38 116 0.9513804316520691
38 117 0.159292072057724
38 118 0.9487204551696777
38 120 0.943426251411438
38 121 0.9508914947509766
38 122 0.9513096213340759
38 123 0.9578660726547241
38 124 0.9395333528518677
38 125 0.6460665464401245
38 126 0.9524577856063843
38 127 0.9381796717643738
38 128 0.9473759531974792
38 129 0.9587953090667725
38 130 0.17708230018615723
38 131 0.9427889585494995
38 132 0.35069409012794495
38 133 0.3167559504508972
38 134 0.23379987478256226
38 135 0.9321252107620239
38 136 0.9529209136962891
38 137 0.9489237666130066
38 138 0.9484309554100037
38 139 0.9128209948539734
38 140 0.10001785308122635
38 141 0.17299789190292358
38 142 0.9457571506500244
38 143 0.09821558743715286
38 144 0.1440495401620865
38 145 0.9438494443893433
38 146 0.9455439448356628
38 147 0.9379032850265503
38 148 0.9326224327087402
38 149 0.9581106901168823
38 150 0.9537058472633362
38 151 0.9326971173286438
38 152 0.9398136734962463
38 153 0.12992700934410095
38 154 0.23154088854789734
38 155 0.9491351842880249
38 156 0.12028904259204865
38 157 0.943426251411438
38 158 0.09871038049459457
38 159 0.9578123688697815
38 160 0.4259378910064697
38 161 0.1098896786570549
38 162 0.9448414444923401
38 163 0.34145715832710266
38 164 0.9310562610626221
38 165 0.9380390048027039
38 166 0.9513804316520691
38 167 0.9277432560920715
38 168 0.944701611995697
38 169 0.9376108646392822
38 170 0.15002678334712982
38 171 0.9329051375389099
38 172 0.8945305943489075
38 173 0.949696958065033
38 174 0.9150047898292542
38 175 0.9548099637031555
38 176 0.9512396454811096
38 177 0.9430065751075745
38 179 0.9362615346908569
38 180 0.9489237666130066
38 181 0.9493497610092163
38 182 0.35151407122612
38 183 0.9533441662788391
38 184 0.9531325101852417
38 185 0.0545642152428627
38 186 0.9486544132232666
38 187 0.9518003463745117
38 188 0.4711115062236786
38 189 0.9136194586753845
38 190 0.9347614645957947
38 191 0.9520127177238464
38 192 0.10352832823991776
38 193 0.9539037942886353
38 194 0.11910389363765717
38 195 0.9520249962806702
38 196 0.9435719847679138
38 197 0.10858141630887985
38 198 0.19198311865329742
38 199 0.9217711687088013
38 200 0.9034203290939331
38 201 0.9371863603591919
38 202 0.9364720582962036
38 204 0.18236948549747467
38 205 0.9129641056060791
38 206 0.929396390914917
38 208 0.9524306058883667
38 209 0.9446285963058472
38 210 0.9108018279075623
38 211 0.5615902543067932
38 212 0.47788432240486145
38 213 0.17405296862125397
38 214 0.9441369771957397
38 215 0.1842905879020691
38 216 0.9489933848381042
38 217 0.937682569026947
38 218 0.9251589179039001
38 219 0.9463209509849548
38 220 0.9586678743362427
38 221 0.8762128353118896
38 222 0.9587953090667725
38 223 0.9602140784263611
38 224 0.25254765152931213
38 225 0.9457571506500244
38 226 0.11458485573530197
38 227 0.9382086396217346
38 228 0.9208898544311523
38 229 0.9468845129013062
38 230 0.14701993763446808
38 231 0.6212560534477234
38 232 0.6550943851470947
38 233 0.14270395040512085
38 234 0.9506093263626099
38 235 0.8259008526802063
38 236 0.9557856917381287
38 237 0.949087917804718
38 238 0.9497690200805664
38 239 0.9381796717643738
38 240 0.9565654397010803
38 241 0.9512729644775391
38 242 0.0931754931807518
38 243 0.9486452341079712
38 244 0.9212706685066223
38 245 0.9282905459403992
38 246 0.9279618263244629
38 247 0.9472353458404541
38 248 0.9421520233154297
38 249 0.9417457580566406
38 250 0.9504069089889526
38 251 0.09259855002164841
38 252 0.9395333528518677
38 253 0.10352832823991776
38 254 0.9460388422012329
38 255 0.8369929194450378
39 40 0.23799405992031097
39 41 0.1933472901582718
39 42 0.9614264965057373
39 43 0.08525814861059189
39 44 0.9534569382667542
39 45 0.5235906839370728
39 46 0.26401185989379883
39 47 0.960999608039856
39 48 0.9641931653022766
39 49 0.18012124300003052
39 50 0.09114479273557663
39 51 0.9308556318283081
39 52 0.12480514496564865
39 53 0.967988133430481
39 54 0.9373558759689331
39 55 0.9603837728500366
39 56 0.9604994654655457
39 58 0.9653451442718506
39 59 0.1647343933582306
39 60 0.8851808905601501
39 61 0.08593212813138962
39 62 0.9400811791419983
39 63 0.21176132559776306
39 65 0.3485618233680725
39 66 0.9604213833808899
39 67 0.9690588712692261
39 68 0.9451843500137329
39 69 0.9243628978729248
39 70 0.9630797505378723
39 71 0.1725078970193863
39 72 0.9213401079177856
39 73 0.9521762728691101
39 74 0.8415431976318359
39 75 0.22786197066307068
39 76 0.9669162631034851
39 77 0.1579938381910324
39 78 0.9473759531974792
39 80 0.9696322083473206
39 81 0.684092104434967
39 82 0.5706566572189331
39 83 0.9560173749923706
39 84 0.31907057762145996
39 85 0.9641197323799133
39 86 0.553062379360199
39 87 0.8670369386672974
39 88 0.956131637096405
39 89 0.35486629605293274
39 90 0.36483702063560486
39 91 0.9667364954948425
39 92 0.20803996920585632
39 93 0.9620397090911865
39 94 0.9567137360572815
39 95 0.9474570751190186
39 96 0.9682799577713013
39 97 0.9556293487548828
39 98 0.3159876763820648
39 99 0.9658820629119873
39 100 0.9629735946655273
39 101 0.9660441875457764
39 102 0.9669550657272339
39 103 0.14046356081962585
39 104 0.3288528323173523
39 105 0.9447174072265625
39 106 0.8426123261451721
39 107 0.9669162631034851
39 108 0.9631552696228027
39 109 0.09114479273557663
39 110 0.9380675554275513
39 111 0.9641931653022766
39 112 0.9647688865661621
39 113 0.9674910306930542
39 114 0.9507343769073486
39 115 0.9695937633514404
39 116 0.9664187431335449
39 117 0.18529877066612244
39 118 0.9577968716621399
39 119 0.06444909423589706
39 120 0.961965799331665
39 121 0.9700543284416199
39 122 0.9663798213005066
39 123 0.9625784754753113
39 124 0.9571766257286072
39 125 0.684613823890686
39 126 0.9645881056785583
39 127 0.9538825154304504
39 128 0.9646936058998108
39 129 0.9674910306930542
39 130 0.17974911630153656
39 131 0.9572155475616455
39 132 0.350755900144577
39 133 0.35910725593566895
39 134 0.21659228205680847
39 135 0.9501084685325623
39 136 0.9658820629119873
39 137 0.9631170034408569
39 138 0.9615784287452698
39 139 0.9328820109367371
39 140 0.13360749185085297
39 141 0.17544196546077728
39 142 0.9620780944824219
39 143 0.08593212813138962
39 144 0.15467782318592072
39 145 0.9561716914176941
39 146 0.9577968716621399
39 147 0.9545437097549438
39 148 0.9485098123550415
39 149 0.9648079872131348
39 150 0.9626168012619019
39 151 0.9559120535850525
39 152 0.9544259905815125
39 153 0.16442641615867615
39 154 0.22790579497814178
39 155 0.9642704129219055
39 156 0.1578674167394638
39 157 0.9609235525131226
39 158 0.10687673836946487
39 159 0.9685623049736023
39 160 0.4144866466522217
39 161 0.09984411299228668
39 162 0.956131637096405
39 163 0.35318607091903687
39 164 0.9522127509117126
39 165 0.948550820350647
39 166 0.9746875166893005
39 167 0.9460949897766113
39 168 0.9631170034408569
39 169 0.9512388706207275
39 170 0.13360749185085297
39 171 0.9457327127456665
39 172 0.9133000373840332
39 173 0.965843141078949
39 174 0.9307325482368469
39 175 0.9707010388374329
39 176 0.9663418531417847
39 177 0.959419310092926
39 179 0.9458142518997192
39 180 0.9631170034408569
39 181 0.959419310092926
39 182 0.3602927625179291
39 183 0.9642704129219055
39 184 0.9721902012825012
39 185 0.0966736450791359
39 186 0.9567137360572815
39 187 0.965843141078949
39 188 0.47415927052497864
39 189 0.9219468235969543
39 190 0.9569316506385803
39 191 0.9680268168449402
39 192 0.09171267598867416
39 193 0.966878354549408
39 194 0.1172340139746666
39 195 0.9630797505378723
39 196 0.9599595665931702
39 197 0.09716066718101501
39 198 0.2598324418067932
39 199 0.948733925819397
39 200 0.9133000373840332
39 201 0.9528725743293762
39 202 0.9543524384498596
39 204 0.16267764568328857
39 205 0.9321539402008057
39 206 0.9392142295837402
39 208 0.9664187431335449
39 209 0.9630797505378723
39 210 0.9139527678489685
39 211 0.583867073059082
39 212 0.4682140648365021
39 213 0.17684687674045563
39 214 0.9625784754753113
39 215 0.2093045860528946
39 216 0.9673068523406982
39 217 0.9533771872520447
39 218 0.9445578455924988
39 219 0.9636552333831787
39 220 0.9653451442718506
39 221 0.8895140886306763
39 222 0.9674910306930542
39 223 0.9648079872131348
39 224 0.27152886986732483
39 225 0.9620780944824219
39 226 0.12889818847179413
39 227 0.942520022392273
39 228 0.9395293593406677
39 229 0.9621174335479736
39 230 0.14471180737018585
39 231 0.5986287593841553
39 232 0.7048584818840027
39 233 0.11828510463237762
39 234 0.9626561403274536
39 235 0.8403100967407227
39 236 0.9716930389404297
39 237 0.9571766257286072
39 238 0.9679503440856934
39 239 0.9507343769073486
39 240 0.9653451442718506
39 241 0.9582594037055969
39 242 0.10190297663211823
39 243 0.9679136276245117
39 244 0.9386621713638306
39 245 0.9394251108169556
39 246 0.9462034106254578
39 247 0.9625411033630371
39 248 0.9545437097549438
39 249 0.9501084685325623
39 250 0.959419310092926
39 251 0.09114479273557663
39 252 0.9582215547561646
39 253 0.10190297663211823
39 254 0.9582982063293457
39 255 0.844004213809967
40 42 0.2429719865322113
40 43 0.09304842352867126
40 44 0.22787608206272125
40 47 0.24631115794181824
40 48 0.25769317150115967
40 49 0.10118058323860168
40 51 0.2700521647930145
40 53 0.25255247950553894
40 54 0.244961217045784
40 55 0.23102253675460815
40 56 0.24618297815322876
40 58 0.24108602106571198
40 59 0.17978663742542267
40 60 0.18760307133197784
40 62 0.2486339658498764
40 63 0.1582604944705963
40 65 0.056899067014455795
40 66 0.19497017562389374
40 67 0.24046705663204193
40 68 0.250387042760849
40 69 0.2412148267030716
40 70 0.23439288139343262
40 71 0.15974462032318115
40 72 0.239579439163208
40 73 0.241402268409729
40 74 0.18615221977233887
40 76 0.26071280241012573
40 77 0.2414022833108902
40 78 0.22970058023929596
40 80 0.25190606713294983
40 81 0.251259446144104
40 82 0.23354968428611755
40 83 0.2322416603565216
40 84 0.1218787431716919
40 85 0.25822946429252625
40 86 0.22730402648448944
40 87 0.167803555727005
40 88 0.25146543979644775
40 89 0.1707741767168045
40 90 0.10478243976831436
40 91 0.24618297815322876
40 92 0.21980291604995728
40 93 0.23042011260986328
40 94 0.23114359378814697
40 95 0.2573583424091339
40 96 0.19863802194595337
40 97 0.23138627409934998
40 98 0.16898159682750702
40 99 0.2528124153614044
40 100 0.21520264446735382
40 101 0.24361056089401245
40 102 0.24466021358966827
40 104 0.11631052941083908
40 105 0.26207974553108215
40 106 0.23706509172916412
40 107 0.2528124153614044
40 108 0.2537286579608917
40 109 0.08703883737325668
40 110 0.26000797748565674
40 111 0.24579963088035583
40 112 0.24541804194450378
40 113 0.25636687874794006
40 114 0.24852146208286285
40 115 0.25216400623321533
40 116 0.24873416125774384
40 117 0.16333965957164764
40 118 0.250806987285614
40 119 0.06154574826359749
40 120 0.22692061960697174
40 121 0.25255247950553894
40 122 0.24899046123027802
40 123 0.24221228063106537
40 124 0.24348244071006775
40 125 0.12399140000343323
40 126 0.25067591667175293
40 127 0.24852146208286285
40 128 0.25386032462120056
40 129 0.26031097769737244
40 130 0.1872563511133194
40 131 0.23923948407173157
40 132 0.12760181725025177
40 133 0.14886879920959473
40 134 0.08618128299713135
40 135 0.23310662806034088
40 136 0.22911125421524048
40 137 0.22224321961402893
40 138 0.24989375472068787
40 139 0.22579321265220642
40 140 0.053721535950899124
40 141 0.15768331289291382
40 142 0.2381177395582199
40 143 0.08206099271774292
40 145 0.25518879294395447
40 146 0.25876912474632263
40 147 0.25559139251708984
40 148 0.23323097825050354
40 149 0.25307315587997437
40 150 0.24592719972133636
40 151 0.20486389100551605
40 152 0.22435206174850464
40 154 0.11948803067207336
40 155 0.23737862706184387
40 156 0.17588162422180176
40 157 0.26275017857551575
40 158 0.07422696053981781
40 159 0.25610408186912537
40 160 0.15468613803386688
40 162 0.22751636803150177
40 164 0.2572211027145386
40 165 0.25306713581085205
40 166 0.21714888513088226
40 167 0.2595841586589813
40 168 0.2381177395582199
40 169 0.2486533373594284
40 170 0.2148861438035965
40 171 0.2542887330055237
40 172 0.2256118655204773
40 173 0.2491188943386078
40 174 0.24221454560756683
40 175 0.25164884328842163
40 176 0.23342232406139374
40 177 0.26233887672424316
40 179 0.25374364852905273
40 180 0.22621186077594757
40 181 0.2504144012928009
40 182 0.17476166784763336
40 183 0.24924755096435547
40 184 0.2559729814529419
40 186 0.23512883484363556
40 187 0.25307315587997437
40 188 0.11968255788087845
40 189 0.27216553688049316
40 190 0.1889975219964981
40 191 0.2246987223625183
40 192 0.07784989476203918
40 193 0.2451646327972412
40 194 0.08956221491098404
40 195 0.2502839267253876
40 196 0.2622022032737732
40 197 0.07422696053981781
40 198 0.07519009709358215
40 199 0.17044466733932495
40 200 0.2590358555316925
40 201 0.2482583224773407
40 202 0.2649769186973572
40 204 0.19284731149673462
40 205 0.119789719581604
40 206 0.2675509452819824
40 208 0.24478600919246674
40 209 0.24631115794181824
40 210 0.2582929730415344
40 211 0.13856633007526398
40 212 0.07452026754617691
40 214 0.24221228063106537
40 216 0.24183513224124908
40 217 0.23637093603610992
40 218 0.25916242599487305
40 219 0.23006092011928558
40 220 0.2529427111148834
40 221 0.24977272748947144
40 222 0.24453456699848175
40 223 0.25702744722366333
40 224 0.20451579988002777
40 225 0.23414912819862366
40 227 0.2383999079465866
40 228 0.23245757818222046
40 229 0.2339061051607132
40 230 0.10050378739833832
40 231 0.30734479427337646
40 232 0.1693003624677658
40 233 0.08471737056970596
40 234 0.2535971403121948
40 235 0.1727665513753891
40 236 0.25977811217308044
40 237 0.25545698404312134
40 238 0.2528124153614044
40 239 0.24451304972171783
40 240 0.2529427111148834
40 241 0.25120145082473755
40 242 0.11677483469247818
40 243 0.25702744722366333
40 244 0.25552815198898315
40 245 0.16775968670845032
40 246 0.23044274747371674
40 247 0.23451508581638336
40 248 0.25958502292633057
40 249 0.2371257096529007
40 250 0.254389226436615
40 251 0.08703883737325668
40 252 0.23949091136455536
40 253 0.07784989476203918
40 254 0.2509382665157318
40 255 0.17659175395965576
41 42 0.18336902558803558
41 43 0.0629940778017044
41 44 0.09202238917350769
41 45 0.15328483283519745
41 47 0.1828908771276474
41 48 0.193246990442276
41 49 0.08219949156045914
41 51 0.1828261762857437
41 52 0.21516574919223785
41 53 0.19235117733478546
41 54 0.14372758567333221
41 55 0.19415543973445892
41 56 0.19354839622974396
41 58 0.16589166224002838
41 59 0.18257416784763336
41 60 0.17131295800209045
41 62 0.18764208257198334
41 65 0.2773500978946686
41 66 0.17240218818187714
41 67 0.19215379655361176
41 68 0.18591730296611786
41 69 0.1970900595188141
41 70 0.16675345599651337
41 72 0.20134679973125458
41 73 0.18522079288959503
41 74 0.14139463007450104
41 75 0.1414213627576828
41 76 0.19254916906356812
41 77 0.1961161345243454
41 78 0.19097474217414856
41 80 0.17587058246135712
41 81 0.1890038251876831
41 82 0.06148872897028923
41 83 0.18433667719364166
41 84 0.33004918694496155
41 85 0.19364917278289795
41 86 0.17198972404003143
41 87 0.13752007484436035
41 88 0.18375426530838013
41 89 0.216777503490448
41 90 0.07093805074691772
41 91 0.19354839622974396
41 93 0.1828908771276474
41 94 0.18886113166809082
41 95 0.19601145386695862
41 96 0.18827001750469208
41 97 0.1836577206850052
41 98 0.17977313697338104
41 99 0.18720057606697083
41 100 0.18886113166809082
41 101 0.19466570019721985
41 102 0.19235117733478546
41 103 0.11470786482095718
41 105 0.19107717275619507
41 106 0.1419753134250641
41 107 0.16580623388290405
41 108 0.17714306712150574
41 110 0.1815270334482193
41 111 0.193246990442276
41 112 0.18758735060691833
41 113 0.18691204488277435
41 114 0.18995945155620575
41 115 0.1920553296804428
41 116 0.19245009124279022
41 118 0.19405387341976166
41 120 0.19405387341976166
41 121 0.19235117733478546
41 122 0.19264838099479675
41 123 0.1827957034111023
41 124 0.17294518649578094
41 126 0.19395247101783752
41 127 0.1953868716955185
41 128 0.16112273931503296
41 129 0.19225239753723145
41 131 0.19435906410217285
41 132 0.15837587416172028
41 135 0.17413951456546783
41 136 0.18185199797153473
41 137 0.17732711136341095
41 138 0.1933472901582718
41 139 0.16120068728923798
41 140 0.10910893231630325
41 142 0.16658002138137817
41 145 0.16736474633216858
41 146 0.1671019345521927
41 147 0.18925830721855164
41 148 0.15789811313152313
41 149 0.19274777173995972
41 150 0.18797652423381805
41 151 0.19036363065242767
41 152 0.1898588091135025
41 153 0.0629940778017044
41 154 0.16178755462169647
41 155 0.10713738948106766
41 156 0.23814482986927032
41 157 0.18866346776485443
41 158 0.15075565874576569
41 159 0.1920553296804428
41 162 0.16754065454006195
41 164 0.1904650777578354
41 165 0.1577298790216446
41 166 0.19245009124279022
41 167 0.19221486151218414
41 168 0.1934477686882019
41 169 0.10860586911439896
41 171 0.16395646333694458
41 172 0.12445478141307831
41 173 0.1873936504125595
41 174 0.17787663638591766
41 175 0.1916629672050476
41 176 0.18749041855335236
41 177 0.17760424315929413
41 178 0.1178511306643486
41 179 0.1145235002040863
41 180 0.1934477686882019
41 181 0.19375009834766388
41 182 0.20704986155033112
41 183 0.17141981422901154
41 184 0.1919570118188858
41 186 0.1510889083147049
41 187 0.17668543756008148
41 188 0.05401697754859924
41 189 0.15633919835090637
41 190 0.1687876433134079
41 191 0.16546575725078583
41 192 0.05270462855696678
41 193 0.17668543756008148
41 195 0.19364917278289795
41 196 0.19364917278289795
41 199 0.19781415164470673
41 200 0.15273995697498322
41 201 0.18433667719364166
41 202 0.1902623325586319
41 205 0.1789749413728714
41 206 0.19759947061538696
41 208 0.15502923727035522
41 209 0.1828908771276474
41 210 0.18050599098205566
41 211 0.2680281400680542
41 212 0.10090091824531555
41 213 0.3144140839576721
41 214 0.15591397881507874
41 215 0.07216878235340118
41 216 0.18787901103496552
41 217 0.16273613274097443
41 218 0.19190256297588348
41 219 0.1826057732105255
41 220 0.19264838099479675
41 221 0.11078764498233795
41 222 0.19225239753723145
41 223 0.1873936504125595
41 224 0.39559388160705566
41 225 0.17195357382297516
41 227 0.14224863052368164
41 228 0.1987888664007187
41 229 0.193246990442276
41 231 0.09155229479074478
41 232 0.08873564749956131
41 234 0.1555905044078827
41 235 0.19083517789840698
41 236 0.1598823517560959
41 237 0.17834971845149994
41 238 0.19254916906356812
41 239 0.16824980080127716
41 240 0.19264838099479675
41 241 0.18896017968654633
41 242 0.10540925711393356
41 243 0.19274777173995972
41 244 0.1482800394296646
41 245 0.1828261762857437
41 246 0.19706586003303528
41 247 0.18836814165115356
41 248 0.18925830721855164
41 249 0.17413951456546783
41 250 0.1668403595685959
41 251 0.1178511306643486
41 252 0.1945633441209793
41 254 0.1617961972951889
41 255 0.1900589019060135
42 43 0.08561450242996216
42 44 0.9511362314224243
42 45 0.5039543509483337
42 46 0.24996590614318848
42 47 0.95561683177948
42 48 0.9588432908058167
42 49 0.1915137618780136
42 50 0.05720359832048416
42 51 0.928292453289032
42 52 0.12532679736614227
42 53 0.9637349247932434
42 54 0.9283943772315979
42 55 0.9560209512710571
42 56 0.959294855594635
42 58 0.9621071219444275
42 59 0.17723886668682098
42 60 0.8636479377746582
42 61 0.09707771986722946
42 62 0.9332951903343201
42 63 0.22651468217372894
42 65 0.3230941593647003
42 66 0.95711350440979
42 67 0.9637823104858398
42 68 0.9470115900039673
42 69 0.9140133261680603
42 70 0.9597944021224976
42 71 0.19947576522827148
42 72 0.9197615385055542
42 73 0.9466368556022644
42 74 0.8474478721618652
42 75 0.21050924062728882
42 76 0.9626500606536865
42 77 0.15865422785282135
42 78 0.9428606629371643
42 80 0.9674766659736633
42 81 0.6796122193336487
42 82 0.5679253935813904
42 83 0.9568553566932678
42 84 0.32360824942588806
42 85 0.95561683177948
42 86 0.553616464138031
42 87 0.8660174608230591
42 88 0.950684130191803
42 89 0.36476728320121765
42 90 0.3801349997520447
42 91 0.9561633467674255
42 92 0.2089095115661621
42 93 0.9639719724655151
42 94 0.9533788561820984
42 95 0.9450744986534119
42 96 0.960838794708252
42 97 0.9543797969818115
42 98 0.3173084557056427
42 99 0.9616116285324097
42 100 0.9523311853408813
42 101 0.9574836492538452
42 102 0.9637349247932434
42 103 0.1187795028090477
42 104 0.31799671053886414
42 105 0.942306399345398
42 106 0.8329508304595947
42 107 0.9616116285324097
42 108 0.9578010439872742
42 109 0.09152575582265854
42 110 0.9323762655258179
42 111 0.9598855376243591
42 112 0.9594359993934631
42 113 0.9632400870323181
42 114 0.9473318457603455
42 115 0.9643242359161377
42 116 0.9631926417350769
42 117 0.2194710522890091
42 118 0.9576139450073242
42 120 0.9544742703437805
42 121 0.9626975655555725
42 122 0.9610681533813477
42 123 0.9561633467674255
42 124 0.950684130191803
42 125 0.675622284412384
42 126 0.9550215005874634
42 127 0.9483855962753296
42 128 0.957255482673645
42 129 0.9632400870323181
42 130 0.19143983721733093
42 131 0.959119975566864
42 132 0.3661990761756897
42 133 0.34663116931915283
42 134 0.22655999660491943
42 135 0.9445706009864807
42 136 0.9657654762268066
42 137 0.9608827829360962
42 138 0.9593409299850464
42 139 0.9303057789802551
42 140 0.14828866720199585
42 141 0.20208337903022766
42 142 0.9587961435317993
42 143 0.09707771986722946
42 144 0.15532435476779938
42 145 0.9528307318687439
42 146 0.9555208086967468
42 147 0.9543339610099792
42 148 0.9450744986534119
42 149 0.9605243802070618
42 150 0.9603837728500366
42 151 0.948291540145874
42 152 0.9520960450172424
42 153 0.17122900485992432
42 154 0.22885838150978088
42 155 0.9620605111122131
42 156 0.15852725505828857
42 157 0.9544742703437805
42 158 0.08781010657548904
42 159 0.9674316048622131
42 160 0.4162191152572632
42 161 0.12532679736614227
42 162 0.9538321495056152
42 163 0.3346410393714905
42 164 0.9519665241241455
42 165 0.9461795091629028
42 166 0.9642305374145508
42 167 0.9393866658210754
42 168 0.9577528834342957
42 169 0.9467803239822388
42 170 0.1341659277677536
42 171 0.9433190822601318
42 172 0.9083306193351746
42 173 0.9605243802070618
42 174 0.9281473159790039
42 175 0.9675226211547852
42 176 0.9662207365036011
42 177 0.9634295105934143
42 179 0.942355751991272
42 180 0.9577528834342957
42 181 0.9561149477958679
42 182 0.35892727971076965
42 183 0.9631005525588989
42 184 0.9669363498687744
42 185 0.09707771986722946
42 186 0.9523311853408813
42 187 0.966761589050293
42 188 0.4635559320449829
42 189 0.9225480556488037
42 190 0.9450744986534119
42 191 0.9648186564445496
42 192 0.0920960083603859
42 193 0.9605243802070618
42 194 0.1255722939968109
42 195 0.95561683177948
42 196 0.960838794708252
42 197 0.10732346028089523
42 198 0.2609184682369232
42 199 0.9420307874679565
42 200 0.9050356149673462
42 201 0.9505395293235779
42 202 0.946731448173523
42 204 0.18588967621326447
42 205 0.927362859249115
42 206 0.9367457628250122
42 208 0.9642305374145508
42 209 0.9587500095367432
42 210 0.9155824780464172
42 211 0.570695698261261
42 212 0.47452452778816223
42 213 0.166486918926239
42 214 0.9582510590553284
42 215 0.21485009789466858
42 216 0.9598855376243591
42 217 0.9478831887245178
42 218 0.941054105758667
42 219 0.957255482673645
42 220 0.9610681533813477
42 221 0.8807789087295532
42 222 0.9663506746292114
42 223 0.9605243802070618
42 224 0.2611427903175354
42 225 0.9567095637321472
42 226 0.12943695485591888
42 227 0.9379615187644958
42 228 0.9359515309333801
42 229 0.9609277248382568
42 230 0.12550073862075806
42 231 0.5946671962738037
42 232 0.6934475302696228
42 233 0.13362693786621094
42 234 0.9604296684265137
42 235 0.8438223600387573
42 236 0.9654071927070618
42 237 0.9548814296722412
42 238 0.9616116285324097
42 239 0.9494393467903137
42 240 0.9610681533813477
42 241 0.9517825245857239
42 242 0.10232890397310257
42 243 0.9657220244407654
42 244 0.9351215958595276
42 245 0.9272168278694153
42 246 0.9395301342010498
42 247 0.9571599364280701
42 248 0.9543339610099792
42 249 0.9498534202575684
42 250 0.9550700187683105
42 251 0.08008503168821335
42 252 0.9517335295677185
42 253 0.08186312019824982
42 254 0.9549738168716431
42 255 0.8272959589958191
43 44 0.07365428656339645
43 45 0.06952346861362457
43 47 0.08539125323295593
43 48 0.08521391451358795
43 51 0.08794774860143661
43 53 0.08481889218091965
43 54 0.07521773874759674
43 55 0.0733838602900505
43 56 0.07315441220998764
43 60 0.06698298454284668
43 62 0.08760957419872284
43 65 0.10482847690582275
43 66 0.08552499115467072
43 68 0.08680428564548492
43 69 0.08939164876937866
43 70 0.08539125323295593
43 71 0.0613139346241951
43 72 0.05073462799191475
43 73 0.07412493228912354
43 74 0.06970715522766113
43 75 0.053452249616384506
43 76 0.07277674227952957
43 77 0.07412493228912354
43 78 0.08661800622940063
43 80 0.08460179716348648
43 81 0.06857926398515701
43 83 0.08606629818677902
43 84 0.18712028861045837
43 85 0.08539125323295593
43 86 0.10264106839895248
43 88 0.0857943668961525
43 89 0.06554735451936722
43 91 0.07315441220998764
43 93 0.06099375709891319
43 94 0.08565936237573624
43 95 0.08643292635679245
43 96 0.08539125323295593
43 97 0.08574929088354111
43 99 0.0849061980843544
43 100 0.07342230528593063
43 101 0.08583950251340866
43 102 0.08481889218091965
43 105 0.08666446805000305
43 106 0.08399210125207901
43 107 0.07277674227952957
43 108 0.08521391451358795
43 110 0.062373433262109756
43 111 0.07304049283266068
43 113 0.08477533608675003
43 114 0.06154108792543411
43 115 0.08468843251466751
43 116 0.08486250787973404
43 117 0.11145563423633575
43 118 0.08556970953941345
43 120 0.08556970953941345
43 121 0.08481889218091965
43 122 0.08494995534420013
43 124 0.0857943668961525
43 126 0.07330713421106339
43 127 0.07384929805994034
43 128 0.08525814861059189
43 129 0.08477533608675003
43 130 0.06388765573501587
43 131 0.08570428937673569
43 132 0.09795346856117249
43 133 0.06530231237411499
43 135 0.08638684451580048
43 136 0.0849061980843544
43 137 0.07311637699604034
43 138 0.08525814861059189
43 139 0.06302911043167114
43 142 0.0853024423122406
43 145 0.07346081733703613
43 146 0.07334546744823456
43 147 0.08583950251340866
43 148 0.07408536970615387
43 149 0.07285180687904358
43 150 0.07307840883731842
43 151 0.08634082973003387
43 152 0.08611186593770981
43 154 0.052414245903491974
43 155 0.06074119359254837
43 156 0.07715167850255966
43 157 0.08556970953941345
43 159 0.08468843251466751
43 163 0.06681530922651291
43 164 0.08638684451580048
43 165 0.06167202442884445
43 166 0.07273928821086884
43 167 0.08718046545982361
43 168 0.0853024423122406
43 169 0.07388848066329956
43 171 0.0867576077580452
43 172 0.07697369903326035
43 173 0.08499377965927124
43 174 0.08824075013399124
43 175 0.08451543003320694
43 176 0.07288942486047745
43 177 0.08543576300144196
43 179 0.07420425117015839
43 180 0.0853024423122406
43 181 0.07323065400123596
43 183 0.07288942486047745
43 184 0.08464508503675461
43 186 0.07342230528593063
43 187 0.08499377965927124
43 189 0.08863600343465805
43 190 0.08643292635679245
43 191 0.08473184704780579
43 192 0.11952286213636398
43 193 0.08499377965927124
43 195 0.08539125323295593
43 196 0.08539125323295593
43 198 0.13852712512016296
43 199 0.08722783625125885
43 200 0.0513157993555069
43 201 0.08606629818677902
43 202 0.08629488945007324
43 206 0.08713317662477493
43 208 0.08486250787973404
43 209 0.08539125323295593
43 210 0.06396079808473587
43 213 0.06482037156820297
43 216 0.07304049283266068
43 217 0.0738101676106453
43 218 0.08703882992267609
43 219 0.08525814861059189
43 220 0.07281424105167389
43 221 0.05289321392774582
43 222 0.08477533608675003
43 223 0.08499377965927124
43 224 0.08971225470304489
43 225 0.0853024423122406
43 227 0.0744437426328659
43 228 0.07513512670993805
43 229 0.08521391451358795
43 234 0.0730026438832283
43 235 0.08376260846853256
43 236 0.08460179716348648
43 237 0.0857943668961525
43 238 0.0849061980843544
43 239 0.07384929805994034
43 240 0.07281424105167389
43 241 0.08570428937673569
43 243 0.08499377965927124
43 244 0.06227176636457443
43 245 0.07538378238677979
43 247 0.07323065400123596
43 248 0.07357671856880188
43 249 0.08638684451580048
43 250 0.07323065400123596
43 252 0.0857943668961525
43 254 0.061153218150138855
43 255 0.06951823830604553
44 45 0.49585461616516113
44 46 0.26989367604255676
44 47 0.95389723777771
44 48 0.9540082812309265
44 49 0.18154065310955048
44 50 0.09186303615570068
44 51 0.9252356290817261
44 52 0.08385910093784332
44 53 0.9589568376541138
44 54 0.9382790923118591
44 55 0.9490342736244202
44 56 0.9534008502960205
44 58 0.9666955471038818
44 59 0.14231359958648682
44 60 0.8760400414466858
44 61 0.09743546694517136
44 62 0.9249044060707092
44 63 0.2041505128145218
44 65 0.28525054454803467
44 66 0.962740421295166
44 67 0.9610931277275085
44 68 0.9387801289558411
44 69 0.9118948578834534
44 70 0.9559937119483948
44 71 0.18967345356941223
44 72 0.9133418798446655
44 73 0.9405710697174072
44 74 0.8337990641593933
44 75 0.18831922113895416
44 76 0.9578592777252197
44 77 0.13376067578792572
44 78 0.939955472946167
44 80 0.9658492803573608
44 81 0.6806434392929077
44 82 0.5820006728172302
44 83 0.94453364610672
44 84 0.21546192467212677
44 85 0.9518007636070251
44 86 0.5574206709861755
44 87 0.877364993095398
44 88 0.9499748945236206
44 89 0.3126029074192047
44 90 0.351123571395874
44 91 0.9523531198501587
44 92 0.22752444446086884
44 93 0.9570419788360596
44 94 0.9558407068252563
44 95 0.9390079975128174
44 96 0.9549455046653748
44 97 0.9515810608863831
44 98 0.28344520926475525
44 99 0.9599438905715942
44 100 0.9547891616821289
44 101 0.9462597370147705
44 102 0.9589568376541138
44 103 0.13411937654018402
44 104 0.34065109491348267
44 105 0.9362041354179382
44 106 0.8396291136741638
44 107 0.9672397971153259
44 108 0.9571464657783508
44 109 0.09186303615570068
44 110 0.9368842244148254
44 111 0.9550543427467346
44 112 0.9587938785552979
44 113 0.9636678099632263
44 114 0.9476500749588013
44 115 0.9606006145477295
44 116 0.9615334272384644
44 117 0.18675898015499115
44 118 0.9506386518478394
44 119 0.06495697796344757
44 120 0.9537899494171143
44 121 0.9599980115890503
44 122 0.9583529233932495
44 123 0.9617823958396912
44 124 0.960506796836853
44 125 0.6989313364028931
44 126 0.9501417875289917
44 127 0.9434194564819336
44 128 0.9586899280548096
44 129 0.9595050811767578
44 130 0.19214533269405365
44 131 0.9489774703979492
44 132 0.30301710963249207
44 133 0.3675485849380493
44 134 0.22284701466560364
44 135 0.9438096880912781
44 136 0.9609861373901367
44 137 0.9570937156677246
44 138 0.9534569382667542
44 139 0.92290198802948
44 140 0.1204855814576149
44 141 0.17682451009750366
44 142 0.9539523124694824
44 143 0.09743546694517136
44 144 0.16239243745803833
44 145 0.9584462642669678
44 146 0.9506386518478394
44 147 0.9473134875297546
44 148 0.9496182799339294
44 149 0.956760585308075
44 150 0.9545035362243652
44 151 0.9454267621040344
44 152 0.9450337886810303
44 153 0.15344643592834473
44 154 0.15763846039772034
44 155 0.9750009179115295
44 156 0.11270394176244736
44 157 0.9495882391929626
44 159 0.9606006145477295
44 160 0.4249555766582489
44 161 0.1257886439561844
44 162 0.9541876316070557
44 163 0.36171069741249084
44 164 0.9395678043365479
44 165 0.9528460502624512
44 166 0.9594499468803406
44 167 0.9300060272216797
44 168 0.9539523124694824
44 169 0.9566185474395752
44 170 0.13466036319732666
44 171 0.9425353407859802
44 172 0.9127804040908813
44 173 0.9588472843170166
44 174 0.9272348284721375
44 175 0.9627882242202759
44 176 0.9624741673469543
44 177 0.9512481689453125
44 179 0.9522048830986023
44 180 0.9529051184654236
44 181 0.9512481689453125
44 182 0.3170199990272522
44 183 0.9614302515983582
44 184 0.9611480236053467
44 185 0.08660930395126343
44 186 0.9674075245857239
44 187 0.9640640616416931
44 188 0.4905273914337158
44 189 0.9183313846588135
44 190 0.9464351534843445
44 191 0.9662938714027405
44 192 0.09243540465831757
44 193 0.9609339833259583
44 194 0.13391223549842834
44 195 0.9518007636070251
44 196 0.9528489708900452
44 197 0.09792633354663849
44 198 0.24600850045681
44 199 0.9305113554000854
44 200 0.9182924032211304
44 201 0.9487597942352295
44 202 0.9438643455505371
44 204 0.16961339116096497
44 205 0.9242409467697144
44 206 0.9305711984634399
44 208 0.9709091782569885
44 209 0.9559937119483948
44 210 0.9035673141479492
44 211 0.5432012677192688
44 212 0.4566105902194977
44 213 0.15596042573451996
44 214 0.9575915932655334
44 215 0.21564185619354248
44 216 0.9581925272941589
44 217 0.9566617012023926
44 218 0.9338374137878418
44 219 0.9565966725349426
44 220 0.957310140132904
44 221 0.8953874707221985
44 222 0.9615864157676697
44 223 0.9578039050102234
44 224 0.20043335855007172
44 225 0.9623295068740845
44 226 0.12991395592689514
44 227 0.9424842596054077
44 228 0.926487922668457
44 229 0.9550543427467346
44 230 0.14585216343402863
44 231 0.6163213849067688
44 232 0.7046489715576172
44 233 0.14157046377658844
44 234 0.9618780016899109
44 235 0.8289376497268677
44 236 0.9679263234138489
44 237 0.9478685259819031
44 238 0.9599438905715942
44 239 0.9487076997756958
44 240 0.9583529233932495
44 241 0.9489774703979492
44 243 0.956760585308075
44 244 0.941778302192688
44 245 0.9273948669433594
44 246 0.9440592527389526
44 247 0.9554433226585388
44 248 0.9525821805000305
44 249 0.9491119384765625
44 250 0.9606872200965881
44 252 0.9489216804504395
44 253 0.09243540465831757
44 254 0.9532381892204285
44 255 0.8375130891799927
45 46 0.1650538295507431
45 47 0.5204503536224365
45 48 0.5035712122917175
45 51 0.4830401837825775
45 52 0.07915595173835754
45 53 0.5110649466514587
45 54 0.4880771338939667
45 55 0.5218110084533691
45 56 0.48655572533607483
45 58 0.49216794967651367
45 60 0.4781072437763214
45 61 0.10218989104032516
45 62 0.5075768232345581
45 63 0.07883220165967941
45 65 0.20406511425971985
45 66 0.5232474207878113
45 67 0.5125041604042053
45 68 0.5169927477836609
45 69 0.5116866230964661
45 70 0.5085769891738892
45 72 0.4506058394908905
45 73 0.489002525806427
45 74 0.45005813241004944
45 75 0.07803989946842194
45 76 0.5056880116462708
45 77 0.0841725617647171
45 78 0.4837660789489746
45 80 0.5077962875366211
45 81 0.31428200006484985
45 82 0.24559614062309265
45 83 0.48467379808425903
45 84 0.20641346275806427
45 85 0.5204503536224365
45 86 0.2763996124267578
45 87 0.4619213044643402
45 88 0.5010365843772888
45 89 0.33494529128074646
45 90 0.15136227011680603
45 91 0.5182016491889954
45 92 0.05053269863128662
45 93 0.5085769891738892
45 94 0.5141439437866211
45 95 0.48874151706695557
45 96 0.5184714794158936
45 97 0.49282461404800415
45 98 0.11423419415950775
45 99 0.4978174567222595
45 100 0.49826309084892273
45 101 0.509257435798645
45 102 0.5051680207252502
45 103 0.09846466034650803
45 104 0.13904693722724915
45 105 0.45992469787597656
45 106 0.4450937807559967
45 107 0.5076557397842407
45 108 0.505545973777771
45 110 0.48972606658935547
45 111 0.5134451389312744
45 112 0.5106762647628784
45 113 0.5186610221862793
45 114 0.47320759296417236
45 115 0.5122414827346802
45 116 0.5073944926261902
45 117 0.09944271296262741
45 118 0.47592824697494507
45 120 0.5155889391899109
45 121 0.5090993046760559
45 122 0.5079173445701599
45 123 0.5043565630912781
45 124 0.5109778046607971
45 125 0.41268372535705566
45 126 0.5153195261955261
45 127 0.5171340107917786
45 128 0.5117357969284058
45 129 0.4950855076313019
45 131 0.4985244572162628
45 132 0.1271212100982666
45 133 0.16949495673179626
45 134 0.06009967625141144
45 135 0.502494752407074
45 136 0.49191442131996155
45 137 0.5199090838432312
45 138 0.4939534664154053
45 139 0.4785146117210388
45 140 0.1471777707338333
45 141 0.0981808751821518
45 142 0.5080479979515076
45 144 0.1226278692483902
45 145 0.5024967789649963
45 146 0.4739452302455902
45 147 0.5132359862327576
45 148 0.5027627944946289
45 149 0.4845430552959442
45 150 0.4939534664154053
45 151 0.5222361087799072
45 152 0.4949084520339966
45 153 0.08111071586608887
45 154 0.10203255712985992
45 155 0.4985882639884949
45 156 0.12515655159950256
45 157 0.495758593082428
45 159 0.5142041444778442
45 160 0.16316844522953033
45 161 0.07915595173835754
45 162 0.497060090303421
45 163 0.19509975612163544
45 164 0.5064986944198608
45 165 0.4962243437767029
45 166 0.5191943049430847
45 167 0.5071110725402832
45 168 0.5238627791404724
45 169 0.4914381206035614
45 170 0.06689898669719696
45 171 0.4724823534488678
45 172 0.4932279884815216
45 173 0.5062096118927002
45 174 0.5030537843704224
45 175 0.5209880471229553
45 176 0.5104124546051025
45 177 0.4870627820491791
45 179 0.4594320058822632
45 180 0.5060712099075317
45 181 0.5147818326950073
45 182 0.14145903289318085
45 183 0.4907054305076599
45 184 0.5159025192260742
45 186 0.49429285526275635
45 187 0.5042399168014526
45 188 0.23846352100372314
45 189 0.46422529220581055
45 190 0.5187870860099792
45 191 0.5164313912391663
45 193 0.5101490020751953
45 195 0.4828513264656067
45 196 0.5026403069496155
45 197 0.09243423491716385
45 198 0.23970206081867218
45 199 0.5255797505378723
45 200 0.4328751564025879
45 201 0.5046192407608032
45 202 0.4819614589214325
45 205 0.5143901705741882
45 206 0.5169323682785034
45 208 0.5132943987846375
45 209 0.5184714794158936
45 210 0.4710618257522583
45 211 0.34511104226112366
45 212 0.1319814920425415
45 213 0.17875930666923523
45 214 0.5083122849464417
45 215 0.15929827094078064
45 216 0.5035712122917175
45 217 0.5128688216209412
45 218 0.502252995967865
45 219 0.49988093972206116
45 220 0.5216980576515198
45 221 0.38826364278793335
45 222 0.4990147650241852
45 223 0.4963611662387848
45 224 0.12370263040065765
45 225 0.521885871887207
45 227 0.46292752027511597
45 228 0.48144686222076416
45 229 0.5173947215080261
45 230 0.07509392499923706
45 231 0.13166047632694244
45 232 0.4107752740383148
45 234 0.5191003084182739
45 235 0.473318487405777
45 236 0.49995389580726624
45 237 0.4851306974887848
45 238 0.5017527937889099
45 239 0.4831908643245697
45 240 0.5138233304023743
45 241 0.47866290807724
45 243 0.5199974179267883
45 244 0.5151925683021545
45 245 0.46265873312950134
45 246 0.5195639729499817
45 247 0.5167617201805115
45 248 0.4853859841823578
45 249 0.5125045776367188
45 250 0.483102947473526
45 252 0.4851306974887848
45 254 0.4940340220928192
45 255 0.38794076442718506
46 47 0.26442402601242065
46 48 0.271414190530777
46 51 0.2606688141822815
46 53 0.25139516592025757
46 54 0.2329205721616745
46 55 0.2613280117511749
46 56 0.2680619955062866
46 58 0.24802567064762115
46 59 0.10684345662593842
46 60 0.253053218126297
46 62 0.21703468263149261
46 63 0.06688065081834793
46 65 0.11902503669261932
46 66 0.2724050283432007
46 67 0.2698787748813629
46 68 0.24575971066951752
46 69 0.21749496459960938
46 70 0.2682015299797058
46 71 0.056959740817546844
46 72 0.23173098266124725
46 73 0.2754439115524292
46 74 0.1640508621931076
46 75 0.18207331001758575
46 76 0.2629220187664032
46 78 0.25672757625579834
46 79 0.08276058733463287
46 80 0.2732071280479431
46 81 0.06370912492275238
46 82 0.3577793538570404
46 83 0.23986294865608215
46 85 0.27197903394699097
46 86 0.20977447926998138
46 87 0.21414020657539368
46 88 0.26567235589027405
46 89 0.16238006949424744
46 91 0.26428645849227905
46 92 0.19292204082012177
46 93 0.249314084649086
46 94 0.26525428891181946
46 95 0.2523554563522339
46 96 0.25309157371520996
46 97 0.24277283251285553
46 98 0.12624511122703552
46 99 0.2516539394855499
46 100 0.2576756179332733
46 101 0.2734067738056183
46 102 0.24389083683490753
46 103 0.2416597306728363
46 104 0.24330566823482513
46 105 0.23769623041152954
46 106 0.20807312428951263
46 107 0.2666780650615692
46 108 0.2751838266849518
46 110 0.2704053223133087
46 111 0.2751838266849518
46 112 0.2634652256965637
46 113 0.25126609206199646
46 114 0.25536271929740906
46 115 0.2659941017627716
46 116 0.2702949643135071
46 117 0.13805420696735382
46 118 0.24983514845371246
46 119 0.11704114079475403
46 120 0.26876208186149597
46 121 0.262651652097702
46 122 0.26305752992630005
46 123 0.2567354440689087
46 124 0.27326300740242004
46 125 0.3054599165916443
46 126 0.257271409034729
46 127 0.27823105454444885
46 128 0.275326669216156
46 129 0.2662670314311981
46 131 0.2540194094181061
46 132 0.07077570259571075
46 133 0.20221631228923798
46 135 0.26750701665878296
46 136 0.25916603207588196
46 137 0.25282835960388184
46 138 0.25269708037376404
46 139 0.26153722405433655
46 141 0.11244949698448181
46 142 0.267922580242157
46 144 0.11704115569591522
46 145 0.2312714159488678
46 146 0.25740593671798706
46 147 0.2696094512939453
46 148 0.2561790347099304
46 149 0.25567343831062317
46 150 0.24515388906002045
46 151 0.25972557067871094
46 152 0.2628461718559265
46 153 0.13271217048168182
46 154 0.09738411754369736
46 155 0.27085283398628235
46 157 0.26876208186149597
46 159 0.2472621202468872
46 160 0.16438667476177216
46 162 0.25428637862205505
46 163 0.21724654734134674
46 164 0.2751500904560089
46 165 0.2711840271949768
46 166 0.2702949643135071
46 167 0.25839465856552124
46 168 0.267922580242157
46 169 0.27456530928611755
46 170 0.153242826461792
46 171 0.22259995341300964
46 172 0.24233077466487885
46 173 0.25567343831062317
46 174 0.24201951920986176
46 175 0.2729281783103943
46 176 0.25580546259880066
46 177 0.26456189155578613
46 178 0.08276058733463287
46 179 0.24893073737621307
46 180 0.24150769412517548
46 181 0.26456189155578613
46 182 0.11424294859170914
46 183 0.25204360485076904
46 184 0.2733469009399414
46 186 0.26525428891181946
46 187 0.2443937212228775
46 188 0.2048395723104477
46 189 0.22349847853183746
46 190 0.2523554563522339
46 191 0.2736271023750305
46 193 0.2744729518890381
46 194 0.05677329748868942
46 195 0.27197903394699097
46 196 0.26442402601242065
46 198 0.08579310774803162
46 199 0.2508176267147064
46 200 0.270139217376709
46 201 0.25128498673439026
46 202 0.21759529411792755
46 204 0.16299398243427277
46 205 0.23173098266124725
46 206 0.26210904121398926
46 208 0.2702949643135071
46 209 0.2682015299797058
46 210 0.20202337205410004
46 211 0.15685158967971802
46 212 0.10234951227903366
46 213 0.22079630196094513
46 214 0.2718375325202942
46 215 0.18582777678966522
46 216 0.25633561611175537
46 217 0.2780836224555969
46 218 0.24257338047027588
46 219 0.26401185989379883
46 220 0.2592996060848236
46 221 0.22521132230758667
46 222 0.2625167965888977
46 223 0.26695314049720764
46 224 0.08334136754274368
46 225 0.2603754997253418
46 226 0.058520570397377014
46 227 0.26510241627693176
46 228 0.26756447553634644
46 229 0.25256597995758057
46 231 0.1811874359846115
46 232 0.3427288234233856
46 234 0.244899719953537
46 235 0.18156656622886658
46 236 0.26572197675704956
46 237 0.22012852132320404
46 238 0.2666780650615692
46 239 0.259174108505249
46 240 0.2743314504623413
46 241 0.26918476819992065
46 243 0.2631932199001312
46 244 0.2738212049007416
46 245 0.26455938816070557
46 246 0.2806219160556793
46 247 0.25700297951698303
46 248 0.2582175135612488
46 249 0.24457785487174988
46 250 0.25700297951698303
46 252 0.26187703013420105
46 254 0.25375327467918396
46 255 0.228187695145607
47 48 0.9605010151863098
47 49 0.15387268364429474
47 50 0.09128709137439728
47 51 0.9344546794891357
47 52 0.09999999403953552
47 53 0.965360701084137
47 54 0.932396411895752
47 55 0.9566612839698792
47 56 0.9588757753372192
47 58 0.9637435078620911
47 59 0.1767767071723938
47 60 0.8762673139572144
47 61 0.09682458639144897
47 62 0.9372739791870117
47 63 0.20287056267261505
47 65 0.325235515832901
47 66 0.9650508165359497
47 67 0.9674709439277649
47 68 0.9413655400276184
47 69 0.9181728363037109
47 70 0.9593750238418579
47 71 0.1832485795021057
47 72 0.9184463024139404
47 73 0.9462783336639404
47 74 0.8321428894996643
47 75 0.21908901631832123
47 76 0.9642828702926636
47 77 0.15824052691459656
47 78 0.9488551616668701
47 80 0.9680500030517578
47 81 0.6939442753791809
47 82 0.5698465704917908
47 83 0.9501606822013855
47 84 0.2908075749874115
47 85 0.9604166746139526
47 86 0.5714551210403442
47 87 0.8533385396003723
47 88 0.9628573060035706
47 89 0.3386288583278656
47 90 0.332437664270401
47 91 0.959916889667511
47 92 0.21279805898666382
47 93 0.9604166746139526
47 94 0.9592523574829102
47 95 0.945773184299469
47 96 0.9614583253860474
47 97 0.955029308795929
47 98 0.31964588165283203
47 99 0.9642828702926636
47 100 0.9602972865104675
47 101 0.9528926610946655
47 102 0.965360701084137
47 103 0.1406828761100769
47 104 0.33241596817970276
47 105 0.9430208206176758
47 106 0.8367556929588318
47 107 0.9694616198539734
47 108 0.9605010151863098
47 109 0.09128709137439728
47 110 0.9437930583953857
47 111 0.9625800251960754
47 112 0.9641993641853333
47 113 0.9669333696365356
47 114 0.9522187113761902
47 115 0.970074474811554
47 116 0.9648219347000122
47 117 0.21889875829219818
47 118 0.9561607241630554
47 119 0.06454972177743912
47 120 0.9655553698539734
47 121 0.9736381769180298
47 122 0.964779794216156
47 123 0.9588757753372192
47 124 0.9534381031990051
47 125 0.6975048184394836
47 126 0.9567043781280518
47 127 0.9543207883834839
47 128 0.9641197323799133
47 129 0.9658991694450378
47 130 0.17457431554794312
47 131 0.9555734992027283
47 132 0.3513035178184509
47 133 0.3736084997653961
47 134 0.2214498519897461
47 135 0.9494842290878296
47 136 0.9663543701171875
47 137 0.9594177603721619
47 138 0.9599595665931702
47 139 0.9278799891471863
47 140 0.1479019969701767
47 141 0.20155644416809082
47 142 0.9646207094192505
47 143 0.08606629818677902
47 144 0.1613743007183075
47 145 0.9555734992027283
47 146 0.9572045803070068
47 147 0.9539398550987244
47 148 0.9489363431930542
47 149 0.9632037878036499
47 150 0.9651597738265991
47 151 0.9521383047103882
47 152 0.9506637454032898
47 153 0.15858376026153564
47 154 0.22826161980628967
47 155 0.9657759666442871
47 156 0.1515258252620697
47 157 0.9572045803070068
47 158 0.09731236845254898
47 159 0.966975212097168
47 160 0.40797629952430725
47 161 0.125
47 162 0.9544847011566162
47 163 0.36229562759399414
47 164 0.9463227987289429
47 165 0.9479252696037292
47 166 0.9648219347000122
47 167 0.9380006194114685
47 168 0.9614989161491394
47 169 0.9516724944114685
47 170 0.13381609320640564
47 171 0.9429758787155151
47 172 0.913630485534668
47 173 0.9652774333953857
47 174 0.9246507287025452
47 175 0.9691237211227417
47 176 0.9626638889312744
47 177 0.9577906131744385
47 179 0.9451788067817688
47 180 0.9594177603721619
47 181 0.9588328003883362
47 182 0.3408077359199524
47 183 0.9626638889312744
47 184 0.9685452580451965
47 185 0.09682458639144897
47 186 0.964477002620697
47 187 0.9642406702041626
47 188 0.4958202838897705
47 189 0.9233862161636353
47 190 0.9478819966316223
47 191 0.9685045480728149
47 192 0.10206206887960434
47 193 0.9673510789871216
47 194 0.1252448707818985
47 195 0.9583333134651184
47 196 0.9583333134651184
47 197 0.09731236845254898
47 198 0.26418110728263855
47 199 0.9427666664123535
47 200 0.9245852828025818
47 201 0.9501606822013855
47 202 0.949526309967041
47 204 0.16854996979236603
47 205 0.9249446988105774
47 206 0.9428064227104187
47 208 0.9648219347000122
47 209 0.9593750238418579
47 210 0.9099180102348328
47 211 0.5899689793586731
47 212 0.4494057297706604
47 213 0.1881931573152542
47 214 0.9609580039978027
47 215 0.22360680997371674
47 216 0.9605010151863098
47 217 0.9601178765296936
47 218 0.939661979675293
47 219 0.9682799577713013
47 220 0.9637435078620911
47 221 0.8852571249008179
47 222 0.9658991694450378
47 223 0.9632037878036499
47 224 0.26812246441841125
47 225 0.9687830209732056
47 226 0.12909944355487823
47 227 0.9450510144233704
47 228 0.9313724040985107
47 229 0.9615405201911926
47 230 0.15811389684677124
47 231 0.6205159425735474
47 232 0.6987991333007812
47 233 0.12587414681911469
47 234 0.9610422849655151
47 235 0.8344694375991821
47 236 0.9721781611442566
47 237 0.9534381031990051
47 238 0.9663543701171875
47 239 0.9490657448768616
47 240 0.965816080570221
47 241 0.9545280337333679
47 242 0.10206206887960434
47 243 0.9694247245788574
47 244 0.9401276707649231
47 245 0.9333818554878235
47 246 0.9487407803535461
47 247 0.9609172344207764
47 248 0.9539398550987244
47 249 0.9536994695663452
47 250 0.9588328003883362
47 251 0.09128709137439728
47 252 0.9597176313400269
47 253 0.09185586124658585
47 254 0.95561683177948
47 255 0.8512582182884216
48 49 0.19591259956359863
48 50 0.07971031218767166
48 51 0.9314433932304382
48 52 0.12474039196968079
48 53 0.9685184359550476
48 54 0.9336647391319275
48 55 0.9619699716567993
48 56 0.9641570448875427
48 58 0.9658784866333008
48 59 0.1764095574617386
48 60 0.8744474053382874
48 61 0.08588755130767822
48 62 0.9374604225158691
48 63 0.21625258028507233
48 65 0.3454033434391022
48 66 0.9599231481552124
48 67 0.9695875644683838
48 68 0.9468073844909668
48 69 0.9206186532974243
48 70 0.9605010151863098
48 71 0.18809279799461365
48 72 0.9251853823661804
48 73 0.9569460153579712
48 74 0.8399186730384827
48 75 0.22774375975131989
48 76 0.9715825915336609
48 77 0.16422836482524872
48 78 0.9468845129013062
48 80 0.972218930721283
48 81 0.6735103130340576
48 82 0.5992181301116943
48 83 0.9565691351890564
48 84 0.32528313994407654
48 85 0.9605010151863098
48 86 0.5807640552520752
48 87 0.8654317259788513
48 88 0.9598132371902466
48 89 0.3714388310909271
48 90 0.3701311945915222
48 91 0.9620791673660278
48 92 0.23447653651237488
48 93 0.9615405201911926
48 94 0.9572601318359375
48 95 0.9553830623626709
48 96 0.9615405201911926
48 97 0.9561774730682373
48 98 0.3189820349216461
48 99 0.9684817790985107
48 100 0.958302915096283
48 101 0.962408185005188
48 102 0.9685184359550476
48 103 0.14039067924022675
48 104 0.32563889026641846
48 105 0.9484473466873169
48 106 0.8338249921798706
48 107 0.9674481749534607
48 108 0.9657676219940186
48 109 0.06832312792539597
48 110 0.9375808835029602
48 111 0.9709543585777283
48 112 0.9642683863639832
48 113 0.9721491932868958
48 114 0.9523388147354126
48 115 0.9701216220855713
48 116 0.9690165519714355
48 117 0.21844415366649628
48 118 0.9604250192642212
48 119 0.06441566348075867
48 120 0.9593833684921265
48 121 0.9705835580825806
48 122 0.9669126868247986
48 123 0.961040198802948
48 124 0.9566799998283386
48 125 0.6621381640434265
48 126 0.9588820338249207
48 127 0.9575830101966858
48 128 0.9652311205863953
48 129 0.9721491932868958
48 130 0.1850999891757965
48 131 0.9640220999717712
48 132 0.37283259630203247
48 133 0.3589209318161011
48 134 0.22098992764949799
48 135 0.9538220763206482
48 136 0.9664146304130554
48 137 0.9626173377037048
48 138 0.9641931653022766
48 139 0.9366948008537292
48 140 0.14759483933448792
48 141 0.20113784074783325
48 142 0.9626173377037048
48 143 0.08588755130767822
48 144 0.13527289032936096
48 145 0.9577622413635254
48 146 0.9604250192642212
48 147 0.962408185005188
48 148 0.9480177760124207
48 149 0.9653420448303223
48 150 0.9631552696228027
48 151 0.9491097331047058
48 152 0.9528825283050537
48 153 0.16434112191200256
48 154 0.23225396871566772
48 155 0.9648053646087646
48 156 0.15778550505638123
48 157 0.9625083804130554
48 158 0.10682129114866257
48 159 0.9701216220855713
48 160 0.42379510402679443
48 161 0.09979230910539627
48 162 0.9556355476379395
48 163 0.3387688398361206
48 164 0.9590802192687988
48 165 0.9512118101119995
48 166 0.9679834842681885
48 167 0.9498493075370789
48 168 0.9698862433433533
48 169 0.9507453441619873
48 170 0.14759483933448792
48 171 0.9441859722137451
48 172 0.9128262400627136
48 173 0.9653420448303223
48 174 0.9323980212211609
48 175 0.9712263345718384
48 176 0.9648053646087646
48 177 0.9620417952537537
48 179 0.9463774561882019
48 180 0.9646941423416138
48 181 0.9610016942024231
48 182 0.35438987612724304
48 183 0.9648053646087646
48 184 0.9727163314819336
48 185 0.096623495221138
48 186 0.958302915096283
48 187 0.9653420448303223
48 188 0.46765008568763733
48 189 0.9279424548149109
48 190 0.9480177760124207
48 191 0.9695875644683838
48 192 0.08148008584976196
48 193 0.9653420448303223
48 194 0.1327963024377823
48 195 0.9605010151863098
48 196 0.9656984806060791
48 197 0.10682129114866257
48 198 0.25969764590263367
48 199 0.9461179375648499
48 200 0.9095465540885925
48 201 0.9544737339019775
48 202 0.9517562389373779
48 204 0.18501989543437958
48 205 0.9230237007141113
48 206 0.9461519122123718
48 208 0.9669504165649414
48 209 0.9605010151863098
48 210 0.9200190305709839
48 211 0.5904701352119446
48 212 0.4636380970478058
48 213 0.18780232965946198
48 214 0.9620791673660278
48 215 0.22314240038394928
48 216 0.9626556038856506
48 217 0.9518342614173889
48 218 0.9504252076148987
48 219 0.9631552696228027
48 220 0.9689809083938599
48 221 0.8822917342185974
48 222 0.9690532088279724
48 223 0.9653420448303223
48 224 0.2713880240917206
48 225 0.9615789651870728
48 226 0.11272741109132767
48 227 0.9430882930755615
48 228 0.9422431588172913
48 229 0.9636929035186768
48 230 0.15778550505638123
48 231 0.6192272305488586
48 232 0.7002058029174805
48 233 0.13300170004367828
48 234 0.9631934762001038
48 235 0.8458222150802612
48 236 0.970159113407135
48 237 0.9577244520187378
48 238 0.9695153832435608
48 239 0.9554853439331055
48 240 0.9658784866333008
48 241 0.9577622413635254
48 242 0.10185010731220245
48 243 0.9705153703689575
48 244 0.9413589835166931
48 245 0.9346552491188049
48 246 0.9425390362739563
48 247 0.9610016942024231
48 248 0.9550934433937073
48 249 0.9496155977249146
48 250 0.9599616527557373
48 251 0.09109750390052795
48 252 0.960857629776001
48 253 0.10185010731220245
48 254 0.9588432908058167
48 255 0.8388271927833557
49 50 0.05812381953001022
49 51 0.10929615050554276
49 52 0.5093716382980347
49 53 0.195004403591156
49 54 0.15813034772872925
49 55 0.19683358073234558
49 56 0.19091495871543884
49 58 0.195305734872818
49 60 0.16315509378910065
49 61 0.05479966476559639
49 62 0.201420396566391
49 65 0.07599346339702606
49 66 0.18068501353263855
49 67 0.1895393431186676
49 68 0.18878145515918732
49 69 0.1721903383731842
49 70 0.16979055106639862
49 72 0.20412413775920868
49 73 0.1934477686882019
49 74 0.2183021456003189
49 76 0.19520513713359833
49 78 0.17761197686195374
49 80 0.18399149179458618
49 81 0.20134681463241577
49 83 0.19787228107452393
49 84 0.32555851340293884
49 85 0.1804024577140808
49 86 0.05357356369495392
49 87 0.2064223289489746
49 88 0.17592307925224304
49 89 0.12829680740833282
49 90 0.4618208408355713
49 91 0.185611754655838
49 93 0.1963203251361847
49 94 0.11709750443696976
49 95 0.1987151950597763
49 96 0.15387268364429474
49 97 0.19181527197360992
49 98 0.06448258459568024
49 99 0.19520513713359833
49 100 0.17032364010810852
49 101 0.1920170783996582
49 102 0.195004403591156
49 105 0.19924750924110413
49 106 0.07915506511926651
49 107 0.18465350568294525
49 108 0.19591259956359863
49 110 0.14107534289360046
49 111 0.19591259956359863
49 112 0.18503502011299133
49 113 0.19490428268909454
49 114 0.19808200001716614
49 115 0.17365534603595734
49 116 0.1687391996383667
49 117 0.07271792739629745
49 118 0.1967305988073349
49 120 0.15951129794120789
49 121 0.195004403591156
49 122 0.195305734872818
49 123 0.19621814787387848
49 124 0.1919160932302475
49 126 0.17005647718906403
49 127 0.17131416499614716
49 128 0.15893051028251648
49 129 0.19490428268909454
49 130 0.055577006191015244
49 131 0.19704000651836395
49 132 0.17042291164398193
49 134 0.20718416571617126
49 135 0.15566670894622803
49 136 0.19520513713359833
49 137 0.18551526963710785
49 138 0.19601428508758545
49 139 0.1754564344882965
49 142 0.12721046805381775
49 145 0.19171461462974548
49 146 0.19141356647014618
49 147 0.16534803807735443
49 148 0.13963770866394043
49 149 0.1954064816236496
49 150 0.19601428508758545
49 151 0.144853875041008
49 152 0.17657412588596344
49 154 0.15958626568317413
49 155 0.1690874695777893
49 157 0.18609651923179626
49 158 0.09913631528615952
49 159 0.19470447301864624
49 160 0.12152723222970963
49 162 0.19724708795547485
49 164 0.182505801320076
49 165 0.19850344955921173
49 166 0.18983159959316254
49 167 0.20043383538722992
49 168 0.1961161345243454
49 169 0.14997944235801697
49 171 0.19946162402629852
49 172 0.18414214253425598
49 173 0.15315642952919006
49 174 0.20287148654460907
49 175 0.15229445695877075
49 176 0.19022341072559357
49 177 0.19642265141010284
49 179 0.18827547132968903
49 180 0.1961161345243454
49 181 0.1911139339208603
49 183 0.19550737738609314
49 184 0.17356644570827484
49 186 0.18629147112369537
49 187 0.1954064816236496
49 189 0.16522720456123352
49 190 0.1826031506061554
49 191 0.17900937795639038
49 193 0.16371895372867584
49 194 0.19936306774616241
49 195 0.1963203251361847
49 196 0.1963203251361847
49 197 0.29740893840789795
49 199 0.19512267410755157
49 200 0.15624181926250458
49 201 0.1818285882472992
49 202 0.19303573668003082
49 205 0.18205665051937103
49 206 0.18408255279064178
49 208 0.18455849587917328
49 209 0.16979055106639862
49 210 0.20587031543254852
49 211 0.07050168514251709
49 212 0.30964282155036926
49 214 0.17500537633895874
49 216 0.19591259956359863
49 218 0.19469986855983734
49 219 0.1748235523700714
49 220 0.195305734872818
49 221 0.20130573213100433
49 222 0.19490428268909454
49 223 0.1954064816236496
49 225 0.10600873082876205
49 227 0.19967646896839142
49 228 0.20153090357780457
49 229 0.19591259956359863
49 230 0.10067340731620789
49 233 0.07543142884969711
49 234 0.19581106305122375
49 235 0.21252752840518951
49 236 0.18399149179458618
49 237 0.19724708795547485
49 238 0.17410187423229218
49 239 0.19808200001716614
49 240 0.17419159412384033
49 241 0.18106380105018616
49 243 0.17428144812583923
49 244 0.18418245017528534
49 245 0.18580345809459686
49 246 0.19438455998897552
49 247 0.16987904906272888
49 248 0.18668325245380402
49 249 0.182505801320076
49 250 0.19642265141010284
49 252 0.1812540888786316
49 253 0.15596255660057068
49 254 0.19683358073234558
49 255 0.1935204714536667
50 51 0.08226758241653442
50 53 0.07934080809354782
50 54 0.08208637684583664
50 55 0.09152575582265854
50 56 0.06842968612909317
50 58 0.09081532061100006
50 60 0.10025093704462051
50 61 0.1178511306643486
50 62 0.08195126056671143
50 66 0.08000130206346512
50 67 0.09058216214179993
50 69 0.08361823856830597
50 70 0.09128709137439728
50 72 0.09491579979658127
50 73 0.08089377731084824
50 76 0.0794224739074707
50 78 0.09259855002164841
50 80 0.09044312685728073
50 81 0.1122625470161438
50 83 0.06900654733181
50 85 0.09128709137439728
50 86 0.07680954039096832
50 87 0.08878560364246368
50 88 0.09171804040670395
50 91 0.0912395790219307
50 93 0.09128709137439728
50 94 0.09157370775938034
50 95 0.06930050998926163
50 96 0.06846531480550766
50 97 0.08021111786365509
50 99 0.09076854586601257
50 100 0.09157370775938034
50 101 0.05735393241047859
50 102 0.09067521244287491
50 104 0.10022296011447906
50 105 0.0926482081413269
50 106 0.07856741547584534
50 107 0.09076854586601257
50 108 0.07971031218767166
50 110 0.09335200488567352
50 111 0.09109750390052795
50 112 0.09095608443021774
50 113 0.09062865376472473
50 114 0.09210626035928726
50 115 0.09053574502468109
50 116 0.07938160747289658
50 118 0.06860840320587158
50 120 0.0914778783917427
50 121 0.09067521244287491
50 122 0.09081532061100006
50 123 0.0912395790219307
50 124 0.09171804040670395
50 125 0.09712858498096466
50 126 0.08000130206346512
50 127 0.09210626035928726
50 128 0.05696549639105797
50 129 0.09062865376472473
50 131 0.06871630251407623
50 135 0.09235142171382904
50 136 0.09076854586601257
50 137 0.06839410960674286
50 138 0.06835859268903732
50 139 0.08254165947437286
50 142 0.06839410960674286
50 144 0.0707106813788414
50 145 0.09162174165248871
50 146 0.0914778783917427
50 148 0.08085059374570847
50 149 0.09086216986179352
50 150 0.09114479273557663
50 151 0.08076445013284683
50 152 0.08055028319358826
50 155 0.07954545319080353
50 157 0.05717367306351662
50 158 0.10660035163164139
50 159 0.0792187750339508
50 162 0.09171804040670395
50 163 0.09375
50 165 0.09230223298072815
50 166 0.09072183817625046
50 167 0.05824990198016167
50 168 0.09119214862585068
50 169 0.09215513616800308
50 170 0.07715167105197906
50 171 0.0927477777004242
50 172 0.09600307792425156
50 173 0.09086216986179352
50 174 0.09433332085609436
50 175 0.07905694842338562
50 176 0.07954545319080353
50 177 0.07991784065961838
50 179 0.09254896640777588
50 180 0.09119214862585068
50 181 0.09133467823266983
50 183 0.09090908616781235
50 184 0.09048940241336823
50 186 0.09157370775938034
50 187 0.09086216986179352
50 188 0.11458731442689896
50 189 0.0947558730840683
50 190 0.08085059374570847
50 191 0.07925939559936523
50 193 0.09086216986179352
50 195 0.05705443397164345
50 196 0.09128709137439728
50 200 0.09600307792425156
50 201 0.06900654733181
50 202 0.09225311875343323
50 205 0.08305132389068604
50 206 0.06986196339130402
50 208 0.07938160747289658
50 209 0.09128709137439728
50 210 0.0837617889046669
50 211 0.05685735121369362
50 214 0.0912395790219307
50 216 0.09109750390052795
50 217 0.09205746650695801
50 218 0.08141736686229706
50 219 0.09114479273557663
50 220 0.09081532061100006
50 221 0.09895414113998413
50 222 0.09062865376472473
50 223 0.09086216986179352
50 225 0.09119214862585068
50 227 0.09284766763448715
50 228 0.09370996803045273
50 229 0.09109750390052795
50 230 0.07216878980398178
50 231 0.12358929216861725
50 234 0.09105028957128525
50 236 0.09044312685728073
50 237 0.09171804040670395
50 238 0.09076854586601257
50 239 0.09210626035928726
50 240 0.09081532061100006
50 241 0.09162174165248871
50 243 0.07950439304113388
50 244 0.09319984167814255
50 245 0.09402009844779968
50 246 0.09289773553609848
50 247 0.09133467823266983
50 248 0.08029550313949585
50 249 0.09235142171382904
50 250 0.09133467823266983
50 252 0.09171804040670395
50 254 0.09152575582265854
50 255 0.10404538363218307
51 52 0.09441103786230087
51 53 0.9367164969444275
51 54 0.9173120260238647
51 55 0.9250654578208923
51 56 0.932896077632904
51 58 0.936029314994812
51 59 0.18206915259361267
51 60 0.8377004861831665
51 61 0.08864299952983856
51 62 0.9003919363021851
51 63 0.19944676756858826
51 65 0.3318994641304016
51 66 0.9262474775314331
51 67 0.938948929309845
51 68 0.916109025478363
51 69 0.8838903903961182
51 70 0.9290904402732849
51 71 0.19951963424682617
51 72 0.8912837505340576
51 73 0.9235421419143677
51 74 0.8006547093391418
51 75 0.2115452140569687
51 76 0.936613917350769
51 77 0.16949713230133057
51 78 0.9184961318969727
51 80 0.9396336674690247
51 81 0.6574217677116394
51 82 0.6184422373771667
51 83 0.9234591126441956
51 84 0.2797657549381256
51 85 0.9376732110977173
51 86 0.5885636210441589
51 87 0.8252229690551758
51 88 0.9280868768692017
51 89 0.35164928436279297
51 90 0.30560460686683655
51 91 0.932896077632904
51 92 0.23743301630020142
51 93 0.9301632642745972
51 94 0.9416935443878174
51 95 0.9252210855484009
51 96 0.9301632642745972
51 97 0.926521897315979
51 98 0.3292156159877777
51 99 0.936613917350769
51 100 0.9277026057243347
51 101 0.9328891634941101
51 102 0.9388478398323059
51 103 0.12201659381389618
51 104 0.32980403304100037
51 105 0.9178999066352844
51 106 0.8334904313087463
51 107 0.9387474656105042
51 108 0.9346552491188049
51 109 0.09402009844779968
51 110 0.9237756133079529
51 111 0.9346552491188049
51 112 0.9353421926498413
51 113 0.9362355470657349
51 114 0.920107901096344
51 115 0.9405958652496338
51 116 0.9393306374549866
51 117 0.2156500220298767
51 118 0.9288818836212158
51 119 0.06648225337266922
51 120 0.9321072101593018
51 121 0.9367164969444275
51 122 0.9349620342254639
51 123 0.93182373046875
51 124 0.9259309768676758
51 125 0.6559848189353943
51 126 0.9359182715415955
51 127 0.9255203008651733
51 128 0.9351403713226318
51 129 0.9373006224632263
51 130 0.19665715098381042
51 131 0.9260356426239014
51 132 0.3331051170825958
51 133 0.3704358637332916
51 134 0.20015159249305725
51 135 0.9268984198570251
51 136 0.936613917350769
51 137 0.9291958808898926
51 138 0.9319269061088562
51 139 0.8946834206581116
51 140 0.15232998132705688
51 141 0.2075907588005066
51 142 0.9388415217399597
51 143 0.09972337633371353
51 144 0.13296450674533844
51 145 0.9292660355567932
51 146 0.9321072101593018
51 147 0.9296536445617676
51 148 0.9241350889205933
51 149 0.9386478662490845
51 150 0.9319269061088562
51 151 0.9220656156539917
51 152 0.92286616563797
51 153 0.17589549720287323
51 154 0.21204687654972076
51 155 0.9369957447052002
51 156 0.1492769569158554
51 157 0.931032121181488
51 158 0.0902031883597374
51 159 0.938467800617218
51 160 0.4300195574760437
51 161 0.12015949934720993
51 162 0.9248530864715576
51 163 0.3466991186141968
51 164 0.9203863143920898
51 165 0.919896125793457
51 166 0.935065746307373
51 167 0.911316454410553
51 168 0.9313393235206604
51 169 0.9238454103469849
51 170 0.15232998132705688
51 171 0.9167063236236572
51 172 0.8777998089790344
51 173 0.9461228847503662
51 174 0.8935747742652893
51 175 0.9471690654754639
51 176 0.9359273314476013
51 177 0.9317215085029602
51 179 0.9158290028572083
51 180 0.9313393235206604
51 181 0.9285013675689697
51 182 0.3569104075431824
51 183 0.9348589777946472
51 184 0.9443683624267578
51 185 0.09972337633371353
51 186 0.9309313297271729
51 187 0.9365121126174927
51 188 0.4869627058506012
51 189 0.900918185710907
51 190 0.9143616557121277
51 191 0.938948929309845
51 192 0.10511766374111176
51 193 0.9418514370918274
51 194 0.08868373185396194
51 195 0.9301632642745972
51 196 0.9301632642745972
51 197 0.08018061518669128
51 198 0.25990718603134155
51 199 0.9063319563865662
51 200 0.8913390636444092
51 201 0.9299470782279968
51 202 0.9259119033813477
51 204 0.19095571339130402
51 205 0.8845908045768738
51 206 0.9130116105079651
51 208 0.9361319541931152
51 209 0.9344546794891357
51 210 0.8786574602127075
51 211 0.5523924827575684
51 212 0.4226115643978119
51 213 0.19382740557193756
51 214 0.93182373046875
51 215 0.2255033254623413
51 216 0.9303727149963379
51 217 0.9358490705490112
51 218 0.9109295010566711
51 219 0.9351403713226318
51 220 0.9349620342254639
51 221 0.8582643270492554
51 222 0.9362355470657349
51 223 0.9343764781951904
51 224 0.2682597041130066
51 225 0.9409849643707275
51 226 0.13296450674533844
51 227 0.9122377038002014
51 228 0.8997846245765686
51 229 0.9303727149963379
51 230 0.1289210170507431
51 231 0.6357733607292175
51 232 0.7182453274726868
51 233 0.12201659381389618
51 234 0.9331007599830627
51 235 0.8005183935165405
51 236 0.9449483156204224
51 237 0.9237751960754395
51 238 0.936613917350769
51 239 0.9222729206085205
51 240 0.9381639957427979
51 241 0.9292660355567932
51 242 0.09460590034723282
51 243 0.9343764781951904
51 244 0.9124118089675903
51 245 0.8972375988960266
51 246 0.9181885123252869
51 247 0.9403088688850403
51 248 0.9307321310043335
51 249 0.91930091381073
51 250 0.929574728012085
51 251 0.09402009844779968
51 252 0.9259309768676758
51 253 0.10511766374111176
51 254 0.9293680787086487
51 255 0.7948164343833923
52 53 0.12416214495897293
52 54 0.12845875322818756
52 55 0.12532679736614227
52 56 0.11660595238208771
52 58 0.12435399740934372
52 60 0.11897101998329163
52 62 0.12824729084968567
52 65 0.14322297275066376
52 66 0.1168493926525116
52 67 0.1157657578587532
52 68 0.12706845998764038
52 69 0.12213224917650223
52 70 0.09166666865348816
52 72 0.1299688071012497
52 73 0.10971342772245407
52 74 0.1428571492433548
52 76 0.12428995221853256
52 78 0.11834272742271423
52 80 0.1073317676782608
52 81 0.12883353233337402
52 83 0.1259881556034088
52 84 0.3323514759540558
52 85 0.125
52 87 0.13894249498844147
52 88 0.10884474217891693
52 89 0.08955473452806473
52 90 0.2857315242290497
52 91 0.11660595238208771
52 93 0.125
52 94 0.08359497785568237
52 95 0.12652485072612762
52 96 0.09999999403953552
52 97 0.1255241185426712
52 98 0.07595545053482056
52 99 0.12428995221853256
52 100 0.1170329600572586
52 101 0.12565617263317108
52 102 0.12416214495897293
52 105 0.12686379253864288
52 107 0.10771795362234116
52 108 0.12474039196968079
52 110 0.08521833270788193
52 111 0.12474039196968079
52 112 0.12454674392938614
52 113 0.12409839779138565
52 114 0.12612168490886688
52 115 0.10744168609380722
52 116 0.10766252875328064
52 118 0.12526123225688934
52 120 0.10855972766876221
52 121 0.12416214495897293
52 122 0.12435399740934372
52 123 0.12493494898080826
52 124 0.11721741408109665
52 126 0.1168493926525116
52 127 0.10930546373128891
52 128 0.09152377396821976
52 129 0.12409839779138565
52 131 0.125458225607872
52 132 0.13382990658283234
52 134 0.14462031424045563
52 135 0.0927354246377945
52 136 0.12428995221853256
52 137 0.12486998736858368
52 138 0.12480514496564865
52 139 0.08611415326595306
52 142 0.09989599138498306
52 145 0.125458225607872
52 146 0.11691047996282578
52 147 0.10890201479196548
52 148 0.08434990048408508
52 149 0.12441814690828323
52 150 0.12480514496564865
52 151 0.11796402931213379
52 152 0.11765120923519135
52 154 0.07161148637533188
52 155 0.09958591312170029
52 156 0.05270463228225708
52 157 0.12526123225688934
52 158 0.07784989476203918
52 159 0.12397117912769318
52 160 0.07634644210338593
52 162 0.12559008598327637
52 164 0.12645739316940308
52 165 0.10953802615404129
52 166 0.12422599643468857
52 167 0.12761913239955902
52 168 0.12486998736858368
52 169 0.08412574976682663
52 171 0.1270001232624054
52 172 0.12269377708435059
52 173 0.11612360179424286
52 174 0.129171222448349
52 175 0.1154700517654419
52 176 0.12448239326477051
52 177 0.1250651478767395
52 179 0.1013823077082634
52 180 0.12486998736858368
52 181 0.1250651478767395
52 183 0.12448239326477051
52 184 0.10738667845726013
52 186 0.10031396895647049
52 187 0.12441814690828323
52 189 0.09514987468719482
52 190 0.12652485072612762
52 191 0.1157657578587532
52 193 0.09953451156616211
52 194 0.06262243539094925
52 195 0.125
52 196 0.125
52 197 0.23354966938495636
52 199 0.1276884824037552
52 200 0.06134688854217529
52 201 0.11758894473314285
52 202 0.12632279098033905
52 205 0.1299688071012497
52 206 0.1275499016046524
52 208 0.1159442588686943
52 209 0.11666666716337204
52 210 0.13108062744140625
52 211 0.11072731018066406
52 212 0.17368337512016296
52 214 0.09161897003650665
52 216 0.12474039196968079
52 218 0.12741179764270782
52 219 0.09984411299228668
52 220 0.12435399740934372
52 221 0.09033235907554626
52 222 0.12409839779138565
52 223 0.12441814690828323
52 225 0.07492199540138245
52 227 0.12713691592216492
52 228 0.1283176690340042
52 229 0.12474039196968079
52 233 0.05923489108681679
52 234 0.12467575073242188
52 235 0.1430519074201584
52 236 0.09081919491291046
52 237 0.12559008598327637
52 238 0.09114596992731094
52 239 0.12612168490886688
52 240 0.0994831994175911
52 241 0.11709434539079666
52 243 0.09953451156616211
52 244 0.11911119520664215
52 245 0.12015949934720993
52 246 0.12720546126365662
52 247 0.1250651478767395
52 248 0.11727909743785858
52 249 0.11802689731121063
52 250 0.1250651478767395
52 252 0.11721741408109665
52 253 0.1632993072271347
52 254 0.12532679736614227
52 255 0.12347399443387985
53 54 0.9431596994400024
53 55 0.9637349247932434
53 56 0.9710631966590881
53 58 0.9706650376319885
53 59 0.12876732647418976
53 60 0.8863017559051514
53 61 0.09617558866739273
53 62 0.95116126537323
53 63 0.21525011956691742
53 65 0.34380218386650085
53 66 0.9648000597953796
53 67 0.9743331670761108
53 68 0.953988254070282
53 69 0.9239331483840942
53 70 0.9674301147460938
53 71 0.17681972682476044
53 72 0.9316547513008118
53 73 0.9525099992752075
53 74 0.8537625670433044
53 75 0.22668801248073578
53 76 0.9722226858139038
53 77 0.15089266002178192
53 78 0.9550896883010864
53 80 0.9748879075050354
53 81 0.6849302649497986
53 82 0.593061089515686
53 83 0.9583920240402222
53 84 0.3237752616405487
53 85 0.9726034998893738
53 86 0.5624012351036072
53 87 0.8752210140228271
53 88 0.9616013765335083
53 89 0.3641573190689087
53 90 0.36022838950157166
53 91 0.9689948558807373
53 92 0.20696812868118286
53 93 0.966395378112793
53 94 0.9652778506278992
53 95 0.956190824508667
53 96 0.965360701084137
53 97 0.9662913084030151
53 98 0.3049289286136627
53 99 0.9722226858139038
53 100 0.966315746307373
53 101 0.9610671997070312
53 102 0.9743062853813171
53 103 0.13973988592624664
53 104 0.29989537596702576
53 105 0.9587522149085999
53 106 0.8430205583572388
53 107 0.9722226858139038
53 108 0.9685184359550476
53 109 0.07934080809354782
53 110 0.9522801637649536
53 111 0.9685184359550476
53 112 0.9721695780754089
53 113 0.9727786779403687
53 114 0.9594078063964844
53 115 0.9779385328292847
53 116 0.971722424030304
53 117 0.20797798037528992
53 118 0.9632307291030884
53 119 0.06411705911159515
53 120 0.9663413166999817
53 121 0.972250759601593
53 122 0.9727237224578857
53 123 0.9710631966590881
53 124 0.9605617523193359
53 125 0.6766831278800964
53 126 0.9730905294418335
53 127 0.9573199152946472
53 128 0.969021201133728
53 129 0.9789420962333679
53 130 0.18424193561077118
53 131 0.9647456407546997
53 132 0.3517182469367981
53 133 0.34894880652427673
53 134 0.18854185938835144
53 135 0.9567276835441589
53 136 0.9763379096984863
53 137 0.9767599701881409
53 138 0.9721204042434692
53 139 0.9366295337677002
53 140 0.1469106376171112
53 141 0.16940459609031677
53 142 0.9736591577529907
53 143 0.09617558866739273
53 144 0.1282341182231903
53 145 0.9688995480537415
53 146 0.9632307291030884
53 147 0.9610671997070312
53 148 0.9572380781173706
53 149 0.9701359272003174
53 150 0.967988133430481
53 151 0.9604029059410095
53 152 0.9588994979858398
53 153 0.1635793000459671
53 154 0.2089487463235855
53 155 0.9696065187454224
53 156 0.14396624267101288
53 157 0.9746361374855042
53 158 0.10632611066102982
53 159 0.9789646863937378
53 160 0.4242003858089447
53 161 0.10760719329118729
53 162 0.9605617523193359
53 163 0.35136646032333374
53 164 0.9577744007110596
53 165 0.9541257619857788
53 166 0.9758355617523193
53 167 0.9517843127250671
53 168 0.9674574732780457
53 169 0.9672285914421082
53 170 0.09794042259454727
53 171 0.9503214359283447
53 172 0.9205641746520996
53 173 0.9752852320671082
53 174 0.9366295337677002
53 175 0.9759407639503479
53 176 0.9696065187454224
53 177 0.966899037361145
53 179 0.9535292983055115
53 180 0.9674574732780457
53 181 0.9689695239067078
53 182 0.33567866683006287
53 183 0.9696065187454224
53 184 0.9753866791725159
53 185 0.0854894146323204
53 186 0.9632019400596619
53 187 0.9721956849098206
53 188 0.4883407652378082
53 189 0.9279369711875916
53 190 0.9635218977928162
53 191 0.9743331670761108
53 192 0.10137796401977539
53 193 0.9721956849098206
53 194 0.11663001775741577
53 195 0.969499409198761
53 196 0.965360701084137
53 197 0.10632611066102982
53 198 0.2467440664768219
53 199 0.94807368516922
53 200 0.915123462677002
53 201 0.9583920240402222
53 202 0.9609375596046448
53 204 0.15067818760871887
53 205 0.9338063597679138
53 206 0.9481006860733032
53 208 0.971722424030304
53 209 0.966395378112793
53 210 0.9309444427490234
53 211 0.5911700129508972
53 212 0.4507063925266266
53 213 0.15394377708435059
53 214 0.9658924341201782
53 215 0.1758355051279068
53 216 0.972648561000824
53 217 0.9578561186790466
53 218 0.9491832852363586
53 219 0.967988133430481
53 220 0.974782407283783
53 221 0.8916608095169067
53 222 0.9727786779403687
53 223 0.9763152003288269
53 224 0.25871601700782776
53 225 0.9705583453178406
53 226 0.1282341182231903
53 227 0.9492402672767639
53 228 0.939999520778656
53 229 0.9705835580825806
53 230 0.14396624267101288
53 231 0.6083520650863647
53 232 0.6955375671386719
53 233 0.13973988592624664
53 234 0.968016505241394
53 235 0.8525583148002625
53 236 0.9759129881858826
53 237 0.971997082233429
53 238 0.9711939096450806
53 239 0.9562759399414062
53 240 0.9737530946731567
53 241 0.966822624206543
53 242 0.09124016761779785
53 243 0.9701359272003174
53 244 0.9496716260910034
53 245 0.9420447945594788
53 246 0.9476462006568909
53 247 0.9700047373771667
53 248 0.9621073603630066
53 249 0.9556809663772583
53 250 0.966899037361145
53 251 0.07934080809354782
53 252 0.9605617523193359
53 253 0.10137796401977539
53 254 0.9626975655555725
53 255 0.8561660051345825
54 55 0.9283943772315979
54 56 0.9361909627914429
54 58 0.9424871802330017
54 59 0.1332232803106308
54 60 0.8464357852935791
54 61 0.09950371831655502
54 62 0.9060968160629272
54 63 0.184792622923851
54 65 0.3250356614589691
54 66 0.9327846169471741
54 67 0.9443163871765137
54 68 0.9271495938301086
54 69 0.8920292258262634
54 70 0.9313259720802307
54 71 0.18293853104114532
54 72 0.9082423448562622
54 73 0.9236761927604675
54 74 0.8233594298362732
54 75 0.19700731337070465
54 76 0.9388085007667542
54 77 0.11058095097541809
54 78 0.92298823595047
54 80 0.9407457113265991
54 81 0.6514601111412048
54 82 0.5838661193847656
54 83 0.9235829710960388
54 84 0.27586543560028076
54 85 0.9345373511314392
54 86 0.5332242250442505
54 87 0.8602919578552246
54 88 0.9303447604179382
54 89 0.3163624405860901
54 90 0.3359892964363098
54 91 0.9372608661651611
54 92 0.21868619322776794
54 93 0.9345373511314392
54 94 0.9428408145904541
54 95 0.934018611907959
54 96 0.9356078505516052
54 97 0.9384558200836182
54 98 0.31548094749450684
54 99 0.9430661201477051
54 100 0.9374715685844421
54 101 0.9329864978790283
54 102 0.9389064311981201
54 103 0.11413859575986862
54 104 0.31967538595199585
54 105 0.91805100440979
54 106 0.8390251994132996
54 107 0.9377440810203552
54 108 0.9347330331802368
54 109 0.08208637684583664
54 110 0.9217408895492554
54 111 0.9347330331802368
54 112 0.9396815896034241
54 113 0.9426754117012024
54 114 0.9321225881576538
54 115 0.9417091012001038
54 116 0.9383254647254944
54 117 0.14181987941265106
54 118 0.942926824092865
54 120 0.9321995377540588
54 121 0.9399698376655579
54 122 0.9424871802330017
54 123 0.9383307695388794
54 124 0.9324958324432373
54 125 0.6545398831367493
54 126 0.9349288940429688
54 127 0.9224016666412354
54 128 0.9330806136131287
54 129 0.9458637237548828
54 130 0.18501117825508118
54 131 0.9347401261329651
54 132 0.33523666858673096
54 133 0.3295060992240906
54 134 0.21828848123550415
54 135 0.9270228147506714
54 136 0.9420017600059509
54 137 0.9367735981941223
54 138 0.9426999688148499
54 139 0.9037748575210571
54 140 0.10132962465286255
54 141 0.14340011775493622
54 142 0.9367735981941223
54 143 0.09950371831655502
54 144 0.11277088522911072
54 145 0.9336656332015991
54 146 0.9321995377540588
54 147 0.9297581315040588
54 148 0.9296844005584717
54 149 0.9397768974304199
54 150 0.9341493844985962
54 151 0.9276114106178284
54 152 0.922992467880249
54 153 0.1567036211490631
54 154 0.16558420658111572
54 155 0.9423943161964417
54 156 0.12186667323112488
54 157 0.934345006942749
54 158 0.0800039991736412
54 159 0.9448941349983215
54 160 0.4241687059402466
54 161 0.12845875322818756
54 162 0.9389491081237793
54 163 0.3400721251964569
54 164 0.9183589816093445
54 165 0.9254465699195862
54 166 0.9383254647254944
54 167 0.9169596433639526
54 168 0.934634804725647
54 169 0.935859203338623
54 170 0.10132962465286255
54 171 0.9223005175590515
54 172 0.8893757462501526
54 173 0.9483009576797485
54 174 0.901562511920929
54 175 0.9450828433036804
54 176 0.941328227519989
54 177 0.9318113923072815
54 179 0.9333468079566956
54 180 0.934634804725647
54 181 0.9360955357551575
54 182 0.3325788676738739
54 183 0.9423943161964417
54 184 0.9412270188331604
54 185 0.08844774961471558
54 186 0.9417669773101807
54 187 0.9429734349250793
54 188 0.4837401211261749
54 189 0.9033784866333008
54 190 0.9307679533958435
54 191 0.9400675296783447
54 192 0.09439751505851746
54 193 0.9440389275550842
54 194 0.10457718372344971
54 195 0.9409603476524353
54 196 0.933466911315918
54 197 0.09000449627637863
54 198 0.20665733516216278
54 199 0.9130837917327881
54 200 0.8837468028068542
54 201 0.9322145581245422
54 202 0.9379360675811768
54 204 0.15589237213134766
54 205 0.9060162305831909
54 206 0.9099082350730896
54 208 0.9425808787345886
54 209 0.9356078505516052
54 210 0.8879477381706238
54 211 0.565399706363678
54 212 0.4395296275615692
54 213 0.10807672888040543
54 214 0.9383307695388794
54 215 0.18670761585235596
54 216 0.9475522041320801
54 217 0.929469645023346
54 218 0.9176521301269531
54 219 0.9362870454788208
54 220 0.9403572678565979
54 221 0.8621758222579956
54 222 0.9394871592521667
54 223 0.9419079422950745
54 224 0.2086242437362671
54 225 0.9410510659217834
54 226 0.12437964230775833
54 227 0.9254713654518127
54 228 0.9054950475692749
54 229 0.9336647391319275
54 230 0.13540741801261902
54 231 0.6244349479675293
54 232 0.6754588484764099
54 233 0.13696631789207458
54 234 0.9406549334526062
54 235 0.815906286239624
54 236 0.9449880719184875
54 237 0.9378735423088074
54 238 0.9377440810203552
54 239 0.9267221093177795
54 240 0.9382273554801941
54 241 0.9336656332015991
54 242 0.09439751505851746
54 243 0.9355148673057556
54 244 0.9180525541305542
54 245 0.910696804523468
54 246 0.9172554612159729
54 247 0.9393087029457092
54 248 0.9329864978790283
54 249 0.9226909279823303
54 250 0.9393087029457092
54 251 0.09381300210952759
54 252 0.9303447604179382
54 253 0.08390890061855316
54 254 0.9326874613761902
54 255 0.8235682845115662
55 56 0.9603387117385864
55 58 0.9621071219444275
55 59 0.17723886668682098
55 60 0.86823570728302
55 61 0.09707771986722946
55 62 0.9332951903343201
55 63 0.22651468217372894
55 65 0.3111277222633362
55 66 0.9592055678367615
55 67 0.9648186564445496
55 68 0.9459499716758728
55 69 0.9107334017753601
55 70 0.95561683177948
55 71 0.1732289344072342
55 72 0.9175897240638733
55 73 0.9434637427330017
55 74 0.8450606465339661
55 75 0.18305151164531708
55 76 0.9636884927749634
55 77 0.15865422785282135
55 78 0.9418012499809265
55 80 0.9664419293403625
55 81 0.6561266779899597
55 82 0.5628089308738708
55 83 0.9515921473503113
55 84 0.3268122971057892
55 85 0.95561683177948
55 86 0.5571314692497253
55 87 0.8822697997093201
55 88 0.9538321495056152
55 89 0.3731849789619446
55 90 0.3801349997520447
55 91 0.9582510590553284
55 92 0.23557882010936737
55 93 0.9660607576370239
55 94 0.9523311853408813
55 95 0.9429602026939392
55 96 0.9597944021224976
55 97 0.9522823095321655
55 98 0.3077892065048218
55 99 0.9636884927749634
55 100 0.9523311853408813
55 101 0.9532841444015503
55 102 0.9626975655555725
55 103 0.13362693786621094
55 104 0.34245800971984863
55 105 0.9412464499473572
55 106 0.8281568288803101
55 107 0.9626500606536865
55 108 0.9598855376243591
55 109 0.06864431500434875
55 110 0.9323762655258179
55 111 0.963012158870697
55 112 0.9594359993934631
55 113 0.9673875570297241
55 114 0.9462780952453613
55 115 0.9643242359161377
55 116 0.962154746055603
55 117 0.20992882549762726
55 118 0.9576139450073242
55 119 0.06471847742795944
55 120 0.9534277319908142
55 121 0.9626975655555725
55 122 0.9610681533813477
55 123 0.9561633467674255
55 124 0.9559308290481567
55 125 0.6519162654876709
55 126 0.9539754390716553
55 127 0.9462780952453613
55 128 0.9582982063293457
55 129 0.9632400870323181
55 130 0.18050041794776917
55 131 0.9549272060394287
55 132 0.37458527088165283
55 133 0.3578128218650818
55 134 0.22202880680561066
55 135 0.9456271529197693
55 136 0.9616116285324097
55 137 0.9629693627357483
55 138 0.9603837728500366
55 139 0.9346227645874023
55 140 0.14828866720199585
55 141 0.20208337903022766
55 142 0.9567095637321472
55 143 0.08629130572080612
55 144 0.1617961972951889
55 145 0.9517825245857239
55 146 0.9544742703437805
55 147 0.9522342681884766
55 148 0.9440173506736755
55 149 0.9605243802070618
55 150 0.9582982063293457
55 151 0.9440675377845764
55 152 0.9468300342559814
55 153 0.1651136875152588
55 154 0.23334580659866333
55 155 0.9599803686141968
55 156 0.14531666040420532
55 157 0.9544742703437805
55 158 0.10732346028089523
55 159 0.9663957953453064
55 160 0.4210032522678375
55 161 0.12532679736614227
55 162 0.9559308290481567
55 163 0.3346410393714905
55 164 0.9445706009864807
55 165 0.9493475556373596
55 166 0.9631926417350769
55 167 0.9361878633499146
55 168 0.9587961435317993
55 169 0.9457259774208069
55 170 0.14828866720199585
55 171 0.9390746355056763
55 172 0.9226090908050537
55 173 0.9605243802070618
55 174 0.9400189518928528
55 175 0.9664889574050903
55 176 0.9610204100608826
55 177 0.9561149477958679
55 179 0.942355751991272
55 180 0.9671425819396973
55 181 0.9550700187683105
55 182 0.3474416434764862
55 183 0.9620605111122131
55 184 0.9659010767936707
55 185 0.09707771986722946
55 186 0.9533788561820984
55 187 0.9605243802070618
55 188 0.45936083793640137
55 189 0.9203799366950989
55 190 0.9461315870285034
55 191 0.9689639806747437
55 192 0.07163022458553314
55 193 0.9605243802070618
55 194 0.13342057168483734
55 195 0.95561683177948
55 196 0.9566612839698792
55 197 0.10732346028089523
55 198 0.2609184682369232
55 199 0.944164514541626
55 200 0.9039372205734253
55 201 0.9505395293235779
55 202 0.9446206092834473
55 204 0.18588967621326447
55 205 0.9317064881324768
55 206 0.934614360332489
55 208 0.9652685523033142
55 209 0.9577056169509888
55 210 0.9188680648803711
55 211 0.5637571811676025
55 212 0.47234782576560974
55 213 0.18868517875671387
55 214 0.9613826274871826
55 215 0.22419138252735138
55 216 0.9578010439872742
55 217 0.9468300342559814
55 218 0.9421186447143555
55 219 0.957255482673645
55 220 0.9621071219444275
55 221 0.8762505054473877
55 222 0.968424379825592
55 223 0.9605243802070618
55 224 0.24962179362773895
55 225 0.9567095637321472
55 226 0.10516752302646637
55 227 0.9453972578048706
55 228 0.9434563517570496
55 229 0.9609277248382568
55 230 0.15852725505828857
55 231 0.581739604473114
55 232 0.684833288192749
55 233 0.13362693786621094
55 234 0.9645963907241821
55 235 0.8486032485961914
55 236 0.9664419293403625
55 237 0.9527828097343445
55 238 0.9616116285324097
55 239 0.9557619690895081
55 240 0.9610681533813477
55 241 0.9517825245857239
55 242 0.10232890397310257
55 243 0.9626034498214722
55 244 0.9383203983306885
55 245 0.9293680787086487
55 246 0.9480326175689697
55 247 0.9571599364280701
55 248 0.9511843323707581
55 249 0.9519665241241455
55 250 0.9592497944831848
55 251 0.09152575582265854
55 252 0.950684130191803
55 253 0.0920960083603859
55 254 0.9528795480728149
55 255 0.8344380855560303
56 58 0.967384934425354
56 59 0.17668470740318298
56 60 0.8758113384246826
56 61 0.05376344174146652
56 62 0.9367861747741699
56 63 0.20737327635288239
56 65 0.33997756242752075
56 66 0.9572492837905884
56 67 0.9700667262077332
56 68 0.953575849533081
56 69 0.915515124797821
56 70 0.959916889667511
56 71 0.1988520622253418
56 72 0.9331234097480774
56 73 0.9531666040420532
56 74 0.8459880948066711
56 75 0.2189750075340271
56 76 0.9699922800064087
56 77 0.16448450088500977
56 78 0.9494174122810364
56 80 0.9737352728843689
56 81 0.673097550868988
56 82 0.603553056716919
56 83 0.9517649412155151
56 84 0.3225964605808258
56 85 0.9619991183280945
56 86 0.5851738452911377
56 87 0.8725677132606506
56 88 0.9539879560470581
56 89 0.3692210018634796
56 90 0.3707084655761719
56 91 0.9625390768051147
56 92 0.23484225571155548
56 93 0.9651225209236145
56 94 0.9566643834114075
56 95 0.9526578187942505
56 96 0.9588757753372192
56 97 0.9555777311325073
56 98 0.3226426839828491
56 99 0.9648162722587585
56 100 0.9577087163925171
56 101 0.9607694745063782
56 102 0.9689948558807373
56 103 0.12580862641334534
56 104 0.3413872718811035
56 105 0.9478132724761963
56 106 0.8315412402153015
56 107 0.9658514261245728
56 108 0.9651960134506226
56 109 0.0912395790219307
56 110 0.9454312324523926
56 111 0.9631180763244629
56 112 0.9636975526809692
56 113 0.9674636721611023
56 114 0.9569755792617798
56 115 0.9695696234703064
56 116 0.9653544425964355
56 117 0.19500386714935303
56 118 0.9619230031967163
56 120 0.9598363637924194
56 121 0.966926634311676
56 122 0.9663492441177368
56 123 0.9635796546936035
56 124 0.9539879560470581
56 125 0.6631709337234497
56 126 0.9624630212783813
56 127 0.9538241624832153
56 128 0.9646574854850769
56 129 0.9746989607810974
56 130 0.1853886842727661
56 131 0.961345911026001
56 132 0.36505410075187683
56 133 0.339974045753479
56 134 0.19423240423202515
56 135 0.9521499276161194
56 136 0.9658514261245728
56 137 0.966198742389679
56 138 0.9667364954948425
56 139 0.931700587272644
56 140 0.1337464600801468
56 141 0.18595527112483978
56 142 0.9620386362075806
56 143 0.09677419811487198
56 144 0.14193549752235413
56 145 0.9561212062835693
56 146 0.9619230031967163
56 147 0.9565830826759338
56 148 0.9473887085914612
56 149 0.9658114314079285
56 150 0.9615389704704285
56 151 0.9474319219589233
56 152 0.9543687701225281
56 153 0.17069363594055176
56 154 0.23261621594429016
56 155 0.9642365574836731
56 156 0.12510834634304047
56 157 0.96296626329422
56 158 0.10698790103197098
56 159 0.9767975211143494
56 160 0.4316098392009735
56 161 0.10827695578336716
56 162 0.9560800194740295
56 163 0.31933853030204773
56 164 0.9532032012939453
56 165 0.9484845995903015
56 166 0.9663891196250916
56 167 0.948141872882843
56 168 0.96099853515625
56 169 0.9522281885147095
56 170 0.14782503247261047
56 171 0.9424851536750793
56 172 0.9098702073097229
56 173 0.9637388586997986
56 174 0.9273970723152161
56 175 0.9706802368164062
56 176 0.9631996750831604
56 177 0.9604172110557556
56 179 0.9446869492530823
56 180 0.96099853515625
56 181 0.9604172110557556
56 182 0.3549426198005676
56 183 0.9631996750831604
56 184 0.9711373448371887
56 185 0.09677419811487198
56 186 0.9566643834114075
56 187 0.9637388586997986
56 188 0.4662884771823883
56 189 0.9239863753318787
56 190 0.9484425187110901
56 191 0.9680005311965942
56 192 0.10200896114110947
56 193 0.9647751450538635
56 194 0.10953222215175629
56 195 0.967204749584198
56 196 0.9609580039978027
56 197 0.10698790103197098
56 198 0.21675224602222443
56 199 0.9401490092277527
56 200 0.9120600819587708
56 201 0.9549129605293274
56 202 0.9511364102363586
56 204 0.18530845642089844
56 205 0.9244633316993713
56 206 0.9391287565231323
56 208 0.9653544425964355
56 209 0.9609580039978027
56 210 0.9192704558372498
56 211 0.5827450156211853
56 212 0.4752107858657837
56 213 0.18256299197673798
56 214 0.9594172835350037
56 215 0.20486624538898468
56 216 0.9631180763244629
56 217 0.9522689580917358
56 218 0.9487239122390747
56 219 0.9604994654655457
56 220 0.9684207439422607
56 221 0.8780249953269958
56 222 0.9695308804512024
56 223 0.9699565172195435
56 224 0.25266963243484497
56 225 0.9599584937095642
56 226 0.09677419066429138
56 227 0.9413824081420898
56 228 0.9362314343452454
56 229 0.961040198802948
56 230 0.15803158283233643
56 231 0.6121385097503662
56 232 0.6970041990280151
56 233 0.13320913910865784
56 234 0.9636573195457458
56 235 0.837609589099884
56 236 0.9706407189369202
56 237 0.9592181444168091
56 238 0.9658514261245728
56 239 0.9527737498283386
56 240 0.9715279340744019
56 241 0.9676156044006348
56 242 0.10200896114110947
56 243 0.9658114314079285
56 244 0.9428271651268005
56 245 0.9361129403114319
56 246 0.9418900609016418
56 247 0.9635422229766846
56 248 0.9576296806335449
56 249 0.9479368925094604
56 250 0.9583338499069214
56 251 0.0912395790219307
56 252 0.9539879560470581
56 253 0.10200896114110947
56 254 0.9561633467674255
56 255 0.8401355147361755
58 59 0.15827679634094238
58 60 0.8774290084838867
58 61 0.09632419049739838
58 62 0.938809335231781
58 63 0.22475646436214447
58 65 0.32058629393577576
58 66 0.9631770849227905
58 67 0.9768670201301575
58 68 0.9512485861778259
58 69 0.9188518524169922
58 70 0.964779794216156
58 71 0.19792740046977997
58 72 0.937404215335846
58 73 0.9529323577880859
58 74 0.8538974523544312
58 75 0.19071219861507416
58 76 0.9706338047981262
58 77 0.15112581849098206
58 78 0.9502584338188171
58 80 0.9733142256736755
58 81 0.6976402401924133
58 82 0.5905930399894714
58 83 0.9577839970588684
58 84 0.2893046736717224
58 85 0.9637435078620911
58 86 0.5685018301010132
58 87 0.8846364617347717
58 88 0.9589225649833679
58 89 0.34801530838012695
58 90 0.37718436121940613
58 91 0.9653134942054749
58 92 0.23375025391578674
58 93 0.9668523073196411
58 94 0.9605321288108826
58 95 0.9513747692108154
58 96 0.967888593673706
58 97 0.9594593644142151
58 98 0.32114240527153015
58 99 0.9737250208854675
58 100 0.9626112580299377
58 101 0.9583853483200073
58 102 0.9737530946731567
58 103 0.11785752326250076
58 104 0.3367658853530884
58 105 0.9497164487838745
58 106 0.8359988331794739
58 107 0.9706338047981262
58 108 0.9669126868247986
58 109 0.09081532061100006
58 110 0.9473933577537537
58 111 0.9669126868247986
58 112 0.9695417284965515
58 113 0.9711955189704895
58 114 0.9608902931213379
58 115 0.9722553491592407
58 116 0.9711642265319824
58 117 0.17989487946033478
58 118 0.9636806845664978
58 119 0.06421612948179245
58 120 0.9616038203239441
58 121 0.9706650376319885
58 122 0.9701030850410461
58 123 0.9725637435913086
58 124 0.9620460271835327
58 125 0.6777287125587463
58 126 0.9631770849227905
58 127 0.9556623697280884
58 128 0.9674144983291626
58 129 0.9711955189704895
58 130 0.18452663719654083
58 131 0.9599958658218384
58 132 0.3550354540348053
58 133 0.3439405858516693
58 134 0.2292974591255188
58 135 0.9540125727653503
58 136 0.9716641902923584
58 137 0.9668819308280945
58 138 0.9653451442718506
58 139 0.9337933659553528
58 140 0.11911141872406006
58 141 0.19537340104579926
58 142 0.9658467173576355
58 143 0.09632419049739838
58 144 0.16054031252861023
58 145 0.9662363529205322
58 146 0.962642252445221
58 147 0.9583853483200073
58 148 0.9545214772224426
58 149 0.9726664423942566
58 150 0.9663798213005066
58 151 0.9524566531181335
58 152 0.9572461247444153
58 153 0.16989991068840027
58 154 0.22708196938037872
58 155 0.9721367359161377
58 156 0.13108064234256744
58 157 0.9616038203239441
58 158 0.08712851256132126
58 159 0.9753386378288269
58 160 0.43434983491897583
58 161 0.10777346044778824
58 162 0.9672518968582153
58 163 0.32920554280281067
58 164 0.952964186668396
58 165 0.9545522928237915
58 166 0.9711642265319824
58 167 0.9426750540733337
58 168 0.9648115634918213
58 169 0.9582617878913879
58 170 0.14713764190673828
58 171 0.9507369995117188
58 172 0.9154477119445801
58 173 0.9685406684875488
58 174 0.9327225089073181
58 175 0.9743717908859253
58 176 0.9711048007011414
58 177 0.9632090330123901
58 179 0.9539520740509033
58 180 0.9658467173576355
58 181 0.9642459154129028
58 182 0.35614123940467834
58 183 0.9711048007011414
58 184 0.9727848768234253
58 185 0.09632419049739838
58 186 0.9646902680397034
58 187 0.9716349840164185
58 188 0.466201514005661
58 189 0.9315221309661865
58 190 0.9545214772224426
58 191 0.9727538824081421
58 192 0.0710742324590683
58 193 0.969572126865387
58 194 0.13238495588302612
58 195 0.964779794216156
58 196 0.9637435078620911
58 197 0.10649040341377258
58 198 0.23535744845867157
58 199 0.9421287178993225
58 200 0.9219866394996643
58 201 0.9598729014396667
58 202 0.9561388492584229
58 204 0.1844467967748642
58 205 0.9363267421722412
58 206 0.9432210922241211
58 208 0.9701343774795532
58 209 0.9668523073196411
58 210 0.922602653503418
58 211 0.571429431438446
58 212 0.47732070088386536
58 213 0.16519463062286377
58 214 0.967384934425354
58 215 0.2178167998790741
58 216 0.9689809083938599
58 217 0.9582911729812622
58 218 0.9443123936653137
58 219 0.9653451442718506
58 220 0.9701030850410461
58 221 0.8941619992256165
58 222 0.973253071308136
58 223 0.9706035852432251
58 224 0.25149470567703247
58 225 0.9658467173576355
58 226 0.1284322589635849
58 227 0.9496529698371887
58 228 0.9403882622718811
58 229 0.9658784866333008
58 230 0.15074273943901062
58 231 0.6317396759986877
58 232 0.6980368494987488
58 233 0.1399558037519455
58 234 0.9736466407775879
58 235 0.840830385684967
58 236 0.9733142256736755
58 237 0.9599636793136597
58 238 0.969603419303894
58 239 0.9567079544067383
58 240 0.9701030850410461
58 241 0.9599958658218384
58 242 0.08122768998146057
58 243 0.9685406684875488
58 244 0.9490230083465576
58 245 0.9413658380508423
58 246 0.9491105079650879
58 247 0.9683931469917297
58 248 0.9615105390548706
58 249 0.956109344959259
58 250 0.9632090330123901
58 251 0.0794634073972702
58 252 0.9589225649833679
58 253 0.10153461992740631
58 254 0.9652240872383118
58 255 0.8456777930259705
59 60 0.09706755727529526
59 62 0.08463889360427856
59 63 0.05216405540704727
59 65 0.10127393156290054
59 66 0.14164285361766815
59 67 0.17541161179542542
59 68 0.14975161850452423
59 69 0.11103497445583344
59 70 0.1590990275144577
59 71 0.23693956434726715
59 72 0.18380364775657654
59 73 0.17902871966362
59 74 0.05387480556964874
59 75 0.12909944355487823
59 76 0.1757725328207016
59 77 0.21483445167541504
59 78 0.15540747344493866
59 80 0.17514236271381378
59 81 0.18219813704490662
59 82 0.2020726054906845
59 83 0.1662958711385727
59 84 0.18077538907527924
59 85 0.1708841472864151
59 86 0.29748207330703735
59 87 0.09824718534946442
59 88 0.1539297103881836
59 89 0.12664952874183655
59 90 0.15541747212409973
59 91 0.17079521715641022
59 92 0.15047094225883484
59 93 0.1767767071723938
59 94 0.13595432043075562
59 95 0.17893315851688385
59 96 0.1708841472864151
59 97 0.15384884178638458
59 98 0.2685430943965912
59 99 0.16991344094276428
59 100 0.13004326820373535
59 101 0.17770466208457947
59 102 0.17559179663658142
59 104 0.08625819534063339
59 105 0.17941249907016754
59 106 0.12847812473773956
59 107 0.15233618021011353
59 108 0.17052924633026123
59 109 0.06454972177743912
59 110 0.17474953830242157
59 111 0.1764095574617386
59 112 0.17026449739933014
59 113 0.17550162971019745
59 114 0.1724175661802292
59 115 0.16363359987735748
59 116 0.17568209767341614
59 117 0.13459548354148865
59 118 0.17714613676071167
59 120 0.14171689748764038
59 121 0.1697387397289276
59 122 0.175863116979599
59 123 0.16490572690963745
59 124 0.1539297103881836
59 125 0.06687597930431366
59 126 0.12393750250339508
59 127 0.17836301028728485
59 128 0.1647343933582306
59 129 0.17550162971019745
59 130 0.09258200973272324
59 131 0.17742474377155304
59 132 0.22080810368061066
59 134 0.23008950054645538
59 135 0.1371089518070221
59 136 0.15233618021011353
59 137 0.1353878378868103
59 138 0.1588510125875473
59 139 0.15831893682479858
59 140 0.19920477271080017
59 141 0.35082319378852844
59 142 0.15893355011940002
59 143 0.06085805967450142
59 145 0.15376810729503632
59 146 0.17714613676071167
59 147 0.17178116738796234
59 148 0.14314651489257812
59 149 0.17595383524894714
59 150 0.17061775922775269
59 151 0.10724550485610962
59 152 0.1723262220621109
59 153 0.0690065547823906
59 154 0.3544587790966034
59 155 0.1584402322769165
59 156 0.22360680997371674
59 157 0.13581204414367676
59 158 0.11009637266397476
59 159 0.17532171308994293
59 160 0.18894779682159424
59 162 0.16577045619487762
59 163 0.06454972177743912
59 164 0.16691523790359497
59 165 0.17874249815940857
59 166 0.12883353233337402
59 167 0.16243264079093933
59 168 0.16481997072696686
59 169 0.1368175446987152
59 170 0.19920477271080017
59 171 0.16164477169513702
59 172 0.11154549568891525
59 173 0.140763059258461
59 174 0.11569461226463318
59 175 0.1749635487794876
59 176 0.17604470252990723
59 177 0.17097321152687073
59 178 0.12909944355487823
59 179 0.119480200111866
59 180 0.17659282684326172
59 181 0.17686884105205536
59 182 0.3078159689903259
59 183 0.17017653584480286
59 184 0.16354984045028687
59 186 0.13004326820373535
59 187 0.140763059258461
59 188 0.08284168690443039
59 189 0.1834939569234848
59 191 0.16956454515457153
59 193 0.15835843980312347
59 195 0.1767767071723938
59 196 0.1767767071723938
59 199 0.1625209003686905
59 200 0.18590915203094482
59 201 0.17817415297031403
59 202 0.13696300983428955
59 204 0.4767312705516815
59 205 0.10415539890527725
59 206 0.17437006533145905
59 208 0.163969948887825
59 209 0.1767767071723938
59 210 0.13594239950180054
59 211 0.09787003695964813
59 212 0.22106283903121948
59 213 0.34442338347435
59 214 0.15901623666286469
59 215 0.21081852912902832
59 216 0.14112764596939087
59 217 0.16044165194034576
59 218 0.1741812378168106
59 219 0.17061775922775269
59 220 0.175863116979599
59 221 0.08303700387477875
59 222 0.17550162971019745
59 223 0.17008869349956512
59 224 0.15167298913002014
59 225 0.12950141727924347
59 227 0.15582557022571564
59 228 0.16332170367240906
59 229 0.17052924633026123
59 230 0.14907120168209076
59 231 0.25528496503829956
59 232 0.21061091125011444
59 234 0.1528090387582779
59 235 0.07417885214090347
59 236 0.1634662002325058
59 237 0.1539297103881836
59 238 0.1757725328207016
59 239 0.16647213697433472
59 240 0.175863116979599
59 241 0.17151057720184326
59 242 0.28867512941360474
59 243 0.17595383524894714
59 244 0.1323525309562683
59 245 0.12137943506240845
59 246 0.1679026484489441
59 247 0.1650775820016861
59 248 0.17770466208457947
59 249 0.16095396876335144
59 250 0.15328632295131683
59 251 0.12909944355487823
59 252 0.17761120200157166
59 254 0.15360701084136963
59 255 0.060444898903369904
60 61 0.07088811695575714
60 62 0.8649948835372925
60 63 0.2076009213924408
60 65 0.28508201241493225
60 66 0.8753482103347778
60 67 0.8785816431045532
60 68 0.847740888595581
60 69 0.8694167733192444
60 70 0.8854189515113831
60 71 0.14374464750289917
60 72 0.8587647080421448
60 73 0.8596258163452148
60 74 0.7765800952911377
60 75 0.1954893320798874
60 76 0.8735646605491638
60 77 0.11121843010187149
60 78 0.874931275844574
60 79 0.05012546852231026
60 80 0.8828999400138855
60 81 0.6398945450782776
60 82 0.5361348986625671
60 83 0.8774294853210449
60 84 0.23864497244358063
60 85 0.8819870948791504
60 86 0.48511436581611633
60 87 0.7985325455665588
60 88 0.8700597882270813
60 89 0.3411462903022766
60 90 0.3349090814590454
60 91 0.8803847432136536
60 92 0.1509270966053009
60 93 0.8796992301940918
60 94 0.8732808232307434
60 95 0.8568511009216309
60 96 0.8762673139572144
60 97 0.8787926435470581
60 98 0.2884728014469147
60 99 0.8735646605491638
60 100 0.8870514035224915
60 101 0.8670676350593567
60 102 0.8851655125617981
60 103 0.1382342129945755
60 104 0.32151830196380615
60 105 0.8730785846710205
60 106 0.733823299407959
60 107 0.8815268278121948
60 108 0.8744474053382874
60 109 0.08771956712007523
60 110 0.8843902349472046
60 111 0.8778721690177917
60 112 0.878788948059082
60 113 0.8778968453407288
60 114 0.8841305375099182
60 115 0.8928804397583008
60 116 0.8742520809173584
60 117 0.1411004215478897
60 118 0.8723669052124023
60 119 0.05316608399152756
60 120 0.8849766254425049
60 121 0.8874380588531494
60 122 0.8797051310539246
60 123 0.8895316123962402
60 124 0.8804039359092712
60 125 0.6507716774940491
60 126 0.8833683729171753
60 127 0.8795136213302612
60 128 0.888607382774353
60 129 0.8881181478500366
60 130 0.08387595415115356
60 131 0.8760351538658142
60 132 0.28781864047050476
60 133 0.2510758340358734
60 134 0.16378431022167206
60 135 0.857551634311676
60 136 0.880389392375946
60 137 0.8764986395835876
60 138 0.8817543387413025
60 139 0.844037652015686
60 140 0.06961074471473694
60 141 0.06243151053786278
60 142 0.8753558993339539
60 143 0.09451749175786972
60 144 0.1275986135005951
60 145 0.8748869895935059
60 146 0.864342451095581
60 147 0.8670676350593567
60 148 0.8684301972389221
60 149 0.8869906067848206
60 150 0.8828965425491333
60 151 0.8732882738113403
60 152 0.8755868673324585
60 153 0.10047446936368942
60 154 0.20152348279953003
60 155 0.880613386631012
60 156 0.11575981974601746
60 157 0.881537675857544
60 158 0.09618107229471207
60 159 0.881534993648529
60 160 0.2724904417991638
60 161 0.07321293652057648
60 162 0.8689104318618774
60 163 0.3602767884731293
60 164 0.857551634311676
60 165 0.8582515120506287
60 166 0.8913050889968872
60 167 0.8537505865097046
60 168 0.8684993386268616
60 169 0.8834448456764221
60 170 0.08507980406284332
60 171 0.8589075207710266
60 172 0.8289012312889099
60 173 0.8778815865516663
60 174 0.838127076625824
60 175 0.8797340989112854
60 176 0.8749172687530518
60 177 0.8755795359611511
60 178 0.05012546852231026
60 179 0.8570663928985596
60 180 0.8810697197914124
60 181 0.8824467658996582
60 182 0.33338606357574463
60 183 0.8885878324508667
60 184 0.8799497485160828
60 186 0.8813136219978333
60 187 0.8824360966682434
60 188 0.4549044370651245
60 189 0.8264448046684265
60 190 0.8811671733856201
60 191 0.8819869756698608
60 192 0.10087556391954422
60 193 0.8938223719596863
60 194 0.10315736383199692
60 195 0.8865628838539124
60 196 0.8762673139572144
60 197 0.09618107229471207
60 198 0.14722616970539093
60 199 0.8612258434295654
60 200 0.8276982307434082
60 201 0.8566755056381226
60 202 0.8774479031562805
60 204 0.09872030466794968
60 205 0.8635223507881165
60 206 0.8602911829948425
60 208 0.8765258193016052
60 209 0.8762673139572144
60 210 0.8409193754196167
60 211 0.5795003175735474
60 212 0.4148552119731903
60 213 0.1580437570810318
60 214 0.8689512014389038
60 215 0.07162272930145264
60 216 0.8870047330856323
60 217 0.8767405152320862
60 218 0.8605256676673889
60 219 0.8783278465270996
60 220 0.8865333795547485
60 221 0.8308205008506775
60 222 0.8835753202438354
60 223 0.8904065489768982
60 224 0.22714754939079285
60 225 0.890211820602417
60 226 0.1151931881904602
60 227 0.8516880869865417
60 228 0.8513776659965515
60 229 0.8847216367721558
60 230 0.13746479153633118
60 231 0.5363075137138367
60 232 0.6164497137069702
60 233 0.1382342129945755
60 234 0.8785582184791565
60 235 0.7645472884178162
60 236 0.8817665576934814
60 237 0.8735078573226929
60 238 0.8792519569396973
60 239 0.8668172955513
60 240 0.8876713514328003
60 241 0.8875166177749634
60 242 0.10087556391954422
60 243 0.8744657039642334
60 244 0.8654298782348633
60 245 0.8624427318572998
60 246 0.8626245260238647
60 247 0.8732903599739075
60 248 0.877417266368866
60 249 0.8679672479629517
60 250 0.8698567748069763
60 251 0.08771956712007523
60 252 0.8735078573226929
60 253 0.10087556391954422
60 254 0.8728234767913818
60 255 0.8422747254371643
61 62 0.08830215781927109
61 66 0.09697623550891876
61 67 0.08540168404579163
61 68 0.09842680394649506
61 69 0.10136060416698456
61 70 0.07530800998210907
61 72 0.06711559742689133
61 73 0.07626738399267197
61 74 0.08606629818677902
61 76 0.08557740598917007
61 78 0.09821558743715286
61 80 0.07461176812648773
61 83 0.09759000688791275
61 85 0.08606629818677902
61 86 0.05431254208087921
61 87 0.09566613286733627
61 88 0.09728167206048965
61 91 0.05376344174146652
61 93 0.09682458639144897
61 94 0.09712859243154526
61 95 0.07622667402029037
61 96 0.08606629818677902
61 97 0.09723056107759476
61 99 0.08557740598917007
61 100 0.09712859243154526
61 102 0.0854894146323204
61 105 0.07643087208271027
61 106 0.09876542538404465
61 107 0.09627458453178406
61 108 0.07515160739421844
61 110 0.07701147347688675
61 111 0.07515160739421844
61 112 0.09647350013256073
61 113 0.09612619876861572
61 114 0.08683861047029495
61 115 0.0960276648402214
61 116 0.08553337305784225
61 118 0.09702693670988083
61 120 0.08624616265296936
61 121 0.07480323314666748
61 122 0.07491881400346756
61 123 0.08602150529623032
61 124 0.09728167206048965
61 125 0.09157370030879974
61 126 0.08620109409093857
61 127 0.05427413433790207
61 128 0.07519061118364334
61 129 0.09612619876861572
61 130 0.11268723011016846
61 131 0.09717953205108643
61 133 0.08638683706521988
61 135 0.09795347601175308
61 136 0.09627458453178406
61 137 0.08597678691148758
61 138 0.0966736450791359
61 139 0.06670373678207397
61 142 0.07522968202829361
61 145 0.09717953205108643
61 146 0.07546538859605789
61 147 0.09733285009860992
61 148 0.09800572693347931
61 149 0.09637388586997986
61 150 0.08593212813138962
61 151 0.08702337741851807
61 152 0.07594352960586548
61 155 0.09642364829778671
61 156 0.06804138422012329
61 157 0.08624616265296936
61 159 0.0853579193353653
61 162 0.09728167206048965
61 163 0.1767766922712326
61 164 0.08706975728273392
61 165 0.09790129959583282
61 166 0.08553337305784225
61 167 0.0659022405743599
61 168 0.09672388434410095
61 169 0.08688469231128693
61 171 0.0983738824725151
61 172 0.10182663798332214
61 173 0.09637388586997986
61 174 0.10005560517311096
61 175 0.0958314836025238
61 176 0.09642364829778671
61 177 0.09687504917383194
61 179 0.09816300123929977
61 180 0.09672388434410095
61 181 0.09687504917383194
61 183 0.09642364829778671
61 184 0.08531422168016434
61 186 0.09712859243154526
61 187 0.09637388586997986
61 188 0.06482037156820297
61 189 0.10050377994775772
61 190 0.09800572693347931
61 191 0.09607689827680588
61 192 0.10540925711393356
61 193 0.09637388586997986
61 194 0.08084520697593689
61 195 0.07530800998210907
61 196 0.08606629818677902
61 197 0.10050377994775772
61 198 0.12216944247484207
61 199 0.08791740238666534
61 200 0.09051256626844406
61 201 0.09759000688791275
61 202 0.09784920513629913
61 205 0.0894874706864357
61 206 0.08782198280096054
61 208 0.09622504562139511
61 209 0.09682458639144897
61 210 0.09025299549102783
61 214 0.09677419811487198
61 216 0.096623495221138
61 217 0.09764168411493301
61 218 0.05482930690050125
61 219 0.08593212813138962
61 220 0.06421612948179245
61 221 0.104956716299057
61 222 0.09612619876861572
61 223 0.0749574676156044
61 225 0.09672388434410095
61 227 0.09847982227802277
61 228 0.07730677723884583
61 229 0.096623495221138
61 234 0.09657341986894608
61 235 0.08618362993001938
61 236 0.09592941403388977
61 237 0.09728167206048965
61 238 0.09627458453178406
61 239 0.09769343584775925
61 240 0.08562150597572327
61 241 0.05398862808942795
61 243 0.09637388586997986
61 244 0.09885336458683014
61 245 0.07756262272596359
61 246 0.09853293001651764
61 247 0.09687504917383194
61 248 0.08651808649301529
61 249 0.08706975728273392
61 250 0.09687504917383194
61 252 0.08647259324789047
61 254 0.09707771986722946
61 255 0.09809491783380508
62 63 0.23179315030574799
62 65 0.3275619447231293
62 66 0.9355306625366211
62 67 0.940640926361084
62 68 0.924536943435669
62 69 0.9118179082870483
62 70 0.9372739791870117
62 71 0.14503556489944458
62 72 0.8967463970184326
62 73 0.9199909567832947
62 74 0.863531768321991
62 75 0.21073180437088013
62 76 0.9415137767791748
62 77 0.12338703125715256
62 78 0.9236370921134949
62 80 0.9423736929893494
62 81 0.6593999862670898
62 82 0.5288030505180359
62 83 0.9360659122467041
62 84 0.32131320238113403
62 85 0.936205267906189
62 86 0.5035710334777832
62 87 0.8434326648712158
62 88 0.9341821670532227
62 89 0.3589109778404236
62 90 0.3664429783821106
62 91 0.9378543496131897
62 92 0.21377773582935333
62 93 0.9383426904678345
62 94 0.932712197303772
62 95 0.9184181690216064
62 96 0.936205267906189
62 97 0.9369110465049744
62 98 0.23703297972679138
62 99 0.9404511451721191
62 100 0.9380726218223572
62 101 0.9260790348052979
62 102 0.9426687955856323
62 103 0.13674084842205048
62 104 0.30976244807243347
62 105 0.9295557737350464
62 106 0.8155685067176819
62 107 0.9425764083862305
62 108 0.9374604225158691
62 109 0.05853661522269249
62 110 0.9191306233406067
62 111 0.9374604225158691
62 112 0.9360051155090332
62 113 0.9464288353919983
62 114 0.9273532032966614
62 115 0.9454585909843445
62 116 0.9389051198959351
62 117 0.20505623519420624
62 118 0.9317360520362854
62 119 0.06622661650180817
62 120 0.9349488615989685
62 121 0.9416072368621826
62 122 0.9419989585876465
62 123 0.9378543496131897
62 124 0.9309608340263367
62 125 0.6367847919464111
62 126 0.9398123025894165
62 127 0.9230400323867798
62 128 0.9454164505004883
62 129 0.9432458281517029
62 130 0.12873494625091553
62 131 0.9289107918739319
62 132 0.3547087013721466
62 133 0.3404059112071991
62 134 0.14837729930877686
62 135 0.9265779852867126
62 136 0.9404511451721191
62 137 0.9395020008087158
62 138 0.9464834928512573
62 139 0.9022871255874634
62 140 0.11561466008424759
62 141 0.12725694477558136
62 142 0.9341639280319214
62 144 0.15894387662410736
62 145 0.9299834370613098
62 146 0.9338779449462891
62 147 0.9303763508796692
62 148 0.9281540513038635
62 149 0.9403574466705322
62 150 0.9379470944404602
62 151 0.9293262362480164
62 152 0.9268618822097778
62 153 0.08135174959897995
62 154 0.20204755663871765
62 155 0.9376500844955444
62 156 0.1216660663485527
62 157 0.9445875287055969
62 158 0.09984038025140762
62 159 0.9443986415863037
62 160 0.34269285202026367
62 161 0.09404801577329636
62 162 0.9309608340263367
62 163 0.29268306493759155
62 164 0.9254968166351318
62 165 0.9217619895935059
62 166 0.9516504406929016
62 167 0.924179196357727
62 168 0.9373667240142822
62 169 0.9289242029190063
62 170 0.1083887368440628
62 171 0.9186106324195862
62 172 0.8991511464118958
62 173 0.9424849152565002
62 174 0.9243749380111694
62 175 0.943527102470398
62 176 0.9365857839584351
62 177 0.9356239438056946
62 179 0.9263929724693298
62 180 0.9405696392059326
62 181 0.9334853291511536
62 182 0.28795644640922546
62 183 0.9376500844955444
62 184 0.9470933675765991
62 185 0.07726438343524933
62 186 0.9337842464447021
62 187 0.9414212107658386
62 188 0.42928341031074524
62 189 0.8930168151855469
62 190 0.9454622864723206
62 191 0.940640926361084
62 192 0.09424213320016861
62 193 0.9435486793518066
62 194 0.13652966916561127
62 195 0.9340677261352539
62 196 0.9340677261352539
62 197 0.10982441902160645
62 198 0.24677151441574097
62 199 0.9170393347740173
62 200 0.8811681270599365
62 201 0.9242170453071594
62 202 0.9299118518829346
62 204 0.11528575420379639
62 205 0.9000800251960754
62 206 0.9258589148521423
62 208 0.9389051198959351
62 209 0.936205267906189
62 210 0.9223489761352539
62 211 0.5520435571670532
62 212 0.4298963248729706
62 213 0.12493548542261124
62 214 0.9357179999351501
62 215 0.16250281035900116
62 216 0.9417263865470886
62 217 0.9236286878585815
62 218 0.9194096326828003
62 219 0.9411482214927673
62 220 0.9419989585876465
62 221 0.8734999299049377
62 222 0.9421848058700562
62 223 0.9467399716377258
62 224 0.25543874502182007
62 225 0.9384344220161438
62 226 0.09933992475271225
62 227 0.9195999503135681
62 228 0.9193638563156128
62 229 0.9427929520606995
62 230 0.14194375276565552
62 231 0.5589166879653931
62 232 0.6229261755943298
62 233 0.13674084842205048
62 234 0.9380404949188232
62 235 0.8426938056945801
62 236 0.9476679563522339
62 237 0.9438461661338806
62 238 0.9393885135650635
62 239 0.9327448606491089
62 240 0.9398726224899292
62 241 0.941782534122467
62 242 0.09424213320016861
62 243 0.939293622970581
62 244 0.9198147058486938
62 245 0.9202049374580383
62 246 0.9157455563545227
62 247 0.9334853291511536
62 248 0.9282276630401611
62 249 0.9265779852867126
62 250 0.9377624988555908
62 251 0.09365858137607574
62 252 0.9277395009994507
62 253 0.08377078175544739
62 254 0.9311521649360657
62 255 0.8587554097175598
63 66 0.20318830013275146
63 67 0.21960431337356567
63 68 0.22028857469558716
63 69 0.21237459778785706
63 70 0.2167026400566101
63 71 0.06952346116304398
63 72 0.2205227017402649
63 73 0.214793860912323
63 74 0.24766016006469727
63 76 0.206302672624588
63 77 0.0840497687458992
63 78 0.21046198904514313
63 80 0.2238353192806244
63 81 0.162003293633461
63 82 0.15811388194561005
63 83 0.2184157371520996
63 85 0.1982598602771759
63 86 0.08534828573465347
63 87 0.21524880826473236
63 88 0.2084607034921646
63 89 0.17342199385166168
63 90 0.1702512949705124
63 91 0.20737327635288239
63 92 0.21585232019424438
63 93 0.2167026400566101
63 94 0.18500682711601257
63 95 0.18667757511138916
63 96 0.207481250166893
63 97 0.21761125326156616
63 99 0.22464069724082947
63 100 0.20350751280784607
63 101 0.16222140192985535
63 102 0.21982990205287933
63 104 0.18898223340511322
63 105 0.22461315989494324
63 106 0.158730149269104
63 107 0.2200561761856079
63 108 0.22545482218265533
63 109 0.05050762742757797
63 110 0.21688947081565857
63 111 0.193246990442276
63 112 0.17457108199596405
63 113 0.21971701085567474
63 114 0.2232992798089981
63 115 0.2103462964296341
63 116 0.21994295716285706
63 117 0.06318940222263336
63 118 0.21715551614761353
63 120 0.18481320142745972
63 121 0.18777137994766235
63 122 0.2155827283859253
63 123 0.21658986806869507
63 124 0.21309317648410797
63 125 0.15698350965976715
63 126 0.18933454155921936
63 127 0.2232992798089981
63 128 0.2209683358669281
63 129 0.21971701085567474
63 131 0.19898666441440582
63 132 0.20979662239551544
63 134 0.10002000629901886
63 135 0.17724914848804474
63 136 0.206302672624588
63 137 0.2210831493139267
63 138 0.21176132559776306
63 139 0.23346306383609772
63 142 0.21647725999355316
63 144 0.22857144474983215
63 145 0.20824185013771057
63 146 0.22639617323875427
63 147 0.2224750816822052
63 148 0.22868002951145172
63 149 0.2248723953962326
63 150 0.20715782046318054
63 151 0.18647867441177368
63 152 0.21853138506412506
63 154 0.07924289256334305
63 155 0.22498852014541626
63 157 0.2217758297920227
63 159 0.22406452894210815
63 160 0.06336182355880737
63 162 0.2223580777645111
63 164 0.22855810821056366
63 165 0.21911244094371796
63 166 0.21994295716285706
63 167 0.19770672917366028
63 168 0.17502416670322418
63 169 0.21876324713230133
63 170 0.09352195262908936
63 171 0.2014322131872177
63 172 0.2085021585226059
63 173 0.21110470592975616
63 174 0.22393396496772766
63 175 0.21447999775409698
63 176 0.20662210881710052
63 177 0.226041778922081
63 179 0.21969813108444214
63 180 0.22568905353546143
63 181 0.21681559085845947
63 182 0.05070608854293823
63 183 0.22498852014541626
63 184 0.21480903029441833
63 186 0.2173830270767212
63 187 0.21569393575191498
63 188 0.12964074313640594
63 189 0.2201511412858963
63 190 0.20534534752368927
63 191 0.22417941689491272
63 193 0.2202831506729126
63 194 0.17323973774909973
63 195 0.21209195256233215
63 196 0.2167026400566101
63 198 0.05235833302140236
63 199 0.15071554481983185
63 200 0.2036532759666443
63 201 0.17659145593643188
63 202 0.19569842517375946
63 204 0.17407765984535217
63 205 0.20134681463241577
63 206 0.2305327206850052
63 208 0.21994295716285706
63 209 0.20287056267261505
63 210 0.23691411316394806
63 212 0.11531532555818558
63 214 0.22580645978450775
63 216 0.22085368633270264
63 217 0.21853138506412506
63 218 0.21148446202278137
63 219 0.20715782046318054
63 220 0.22475646436214447
63 221 0.22490723431110382
63 222 0.22429446876049042
63 223 0.2248723953962326
63 225 0.2072654664516449
63 227 0.22509673237800598
63 228 0.23192034661769867
63 229 0.22085368633270264
63 231 0.14267891645431519
63 232 0.14578001201152802
63 233 0.09832102805376053
63 234 0.22533796727657318
63 235 0.15829648077487946
63 236 0.2238353192806244
63 237 0.21772563457489014
63 238 0.2200561761856079
63 239 0.21399515867233276
63 240 0.22016958892345428
63 241 0.19898666441440582
63 243 0.21110470592975616
63 244 0.23065784573554993
63 245 0.1946980208158493
63 246 0.2205260694026947
63 247 0.18452391028404236
63 248 0.21320529282093048
63 249 0.2238936424255371
63 250 0.20758938789367676
63 251 0.05050762742757797
63 252 0.15287117660045624
63 254 0.22651468217372894
63 255 0.2102034091949463
65 66 0.33172187209129333
65 67 0.3434493839740753
65 68 0.33971697092056274
65 69 0.33734849095344543
65 70 0.34313836693763733
65 71 0.11997900158166885
65 72 0.32885652780532837
65 73 0.3475097119808197
65 74 0.2591654062271118
65 75 0.5491252541542053
65 76 0.34415605664253235
65 77 0.05439282953739166
65 78 0.3480679988861084
65 80 0.3310973048210144
65 81 0.26839157938957214
65 82 0.21439197659492493
65 83 0.3338213860988617
65 84 0.503465473651886
65 85 0.3491060137748718
65 86 0.3665473461151123
65 87 0.24874699115753174
65 88 0.3417603671550751
65 89 0.208427295088768
65 90 0.12591789662837982
65 91 0.33103078603744507
65 93 0.325235515832901
65 94 0.3292498290538788
65 95 0.3533646762371063
65 96 0.32821932435035706
65 97 0.33558812737464905
65 98 0.1178511306643486
65 99 0.3293217718601227
65 100 0.3472089171409607
65 101 0.350938618183136
65 102 0.34380218386650085
65 103 0.14846643805503845
65 105 0.34522637724876404
65 106 0.3081667721271515
65 107 0.3144874572753906
65 108 0.34242570400238037
65 110 0.3234384059906006
65 111 0.3454033434391022
65 112 0.34486714005470276
65 113 0.33770108222961426
65 114 0.3432069420814514
65 115 0.34623265266418457
65 116 0.32618698477745056
65 118 0.3348853588104248
65 120 0.3468455374240875
65 121 0.34083837270736694
65 122 0.33542826771736145
65 123 0.3280485272407532
65 124 0.2788044810295105
65 125 0.10582490265369415
65 126 0.34666427969932556
65 127 0.3341751992702484
65 128 0.30089524388313293
65 129 0.3465879559516907
65 130 0.23440362513065338
65 131 0.3443962633609772
65 132 0.16771580278873444
65 133 0.19167520105838776
65 135 0.3531762957572937
65 136 0.3411892056465149
65 137 0.3457621932029724
65 138 0.3366451561450958
65 139 0.24358712136745453
65 140 0.18156825006008148
65 142 0.33085867762565613
65 145 0.3324172794818878
65 146 0.3229251503944397
65 147 0.33594122529029846
65 148 0.28389981389045715
65 149 0.332631379365921
65 150 0.3277076780796051
65 151 0.34092020988464355
65 152 0.3490431010723114
65 153 0.06988565623760223
65 154 0.10256410390138626
65 155 0.31200292706489563
65 156 0.07548514008522034
65 157 0.34086546301841736
65 158 0.11149893701076508
65 159 0.343273401260376
65 160 0.29386642575263977
65 162 0.3357645571231842
65 163 0.2696596682071686
65 164 0.3531762957572937
65 165 0.28963130712509155
65 166 0.3350829780101776
65 167 0.3564208447933197
65 168 0.3457621932029724
65 169 0.3012184500694275
65 171 0.34559738636016846
65 172 0.2604505717754364
65 173 0.3415411412715912
65 174 0.2990879714488983
65 175 0.345525324344635
65 176 0.32388877868652344
65 177 0.3015221059322357
65 178 0.0653720498085022
65 179 0.2904055118560791
65 180 0.3189358413219452
65 181 0.33436113595962524
65 182 0.07383252680301666
65 183 0.30308857560157776
65 184 0.3401399254798889
65 186 0.3053043782711029
65 187 0.30590206384658813
65 188 0.06591910123825073
65 189 0.3252052366733551
65 190 0.338263601064682
65 191 0.31384167075157166
65 193 0.3385712206363678
65 195 0.3461221754550934
65 196 0.3312031328678131
65 199 0.34747058153152466
65 200 0.24162282049655914
65 201 0.3518657684326172
65 202 0.3528003394603729
65 205 0.3040371537208557
65 206 0.3501381576061249
65 208 0.3380483388900757
65 209 0.3491060137748718
65 210 0.2753484547138214
65 211 0.2676154673099518
65 212 0.16169041395187378
65 213 0.19026058912277222
65 214 0.33103078603744507
65 216 0.33647048473358154
65 217 0.30992621183395386
65 218 0.3375934958457947
65 219 0.3396243453025818
65 220 0.3294914960861206
65 221 0.17465853691101074
65 222 0.311040461063385
65 223 0.34748098254203796
65 224 0.24137960374355316
65 225 0.32191652059555054
65 226 0.16178755462169647
65 227 0.27009907364845276
65 228 0.28179657459259033
65 229 0.3215824067592621
65 230 0.11322770267724991
65 231 0.18928609788417816
65 232 0.1517668515443802
65 234 0.27677467465400696
65 235 0.24927455186843872
65 236 0.31927239894866943
65 237 0.33876246213912964
65 238 0.32042115926742554
65 239 0.28901636600494385
65 240 0.3473018407821655
65 241 0.3414015471935272
65 242 0.058470532298088074
65 243 0.34748098254203796
65 244 0.28330886363983154
65 245 0.353411465883255
65 246 0.31275513768196106
65 247 0.34033188223838806
65 248 0.3209438621997833
65 249 0.2988414764404297
65 250 0.33137577772140503
65 252 0.350754052400589
65 253 0.08770579844713211
65 254 0.3021528720855713
65 255 0.3026738166809082
66 67 0.9648452401161194
66 68 0.9449610114097595
66 69 0.9239794611930847
66 70 0.9608775973320007
66 71 0.13634070754051208
66 72 0.9166303873062134
66 73 0.9435340762138367
66 74 0.8441771864891052
66 75 0.21486064791679382
66 76 0.9626809358596802
66 77 0.12045115977525711
66 78 0.9450498223304749
66 80 0.9664652347564697
66 81 0.68183434009552
66 82 0.5571094751358032
66 83 0.9527003765106201
66 84 0.3008650839328766
66 85 0.9577476978302002
66 86 0.5600603818893433
66 87 0.8662717342376709
66 88 0.955979585647583
66 89 0.3363562226295471
66 90 0.34121349453926086
66 91 0.9572492837905884
66 92 0.21757158637046814
66 93 0.9587909579277039
66 94 0.9628478288650513
66 95 0.944086492061615
66 96 0.9629641771316528
66 97 0.9565250277519226
66 98 0.2852790653705597
66 99 0.9626809358596802
66 100 0.961801290512085
66 101 0.952287495136261
66 102 0.9637637734413147
66 103 0.14090318977832794
66 104 0.32682767510414124
66 105 0.9413212537765503
66 106 0.8440523743629456
66 107 0.9730546474456787
66 108 0.9620053768157959
66 109 0.057143792510032654
66 110 0.9335353970527649
66 111 0.9609642624855042
66 112 0.9615514278411865
66 113 0.9674118757247925
66 114 0.9473941326141357
66 115 0.9674549102783203
66 116 0.9673698544502258
66 117 0.2049432247877121
66 118 0.954521894454956
66 119 0.06465081870555878
66 120 0.9628857374191284
66 121 0.9668726325035095
66 122 0.9621391892433167
66 123 0.96037757396698
66 124 0.9601724743843079
66 125 0.6926769018173218
66 126 0.9561128616333008
66 127 0.9473941326141357
66 128 0.9604213833808899
66 129 0.9643046259880066
66 130 0.16938374936580658
66 131 0.9539288282394409
66 132 0.33509883284568787
66 133 0.3741936683654785
66 134 0.19916437566280365
66 135 0.949915885925293
66 136 0.9668304324150085
66 137 0.9619625806808472
66 138 0.9604213833808899
66 139 0.9282551407814026
66 140 0.14813363552093506
66 141 0.18116727471351624
66 142 0.9609203934669495
66 143 0.07542596012353897
66 144 0.16162705421447754
66 145 0.9570701718330383
66 146 0.954521894454956
66 147 0.9533362984657288
66 148 0.9504225850105286
66 149 0.9615970849990845
66 150 0.9625046849250793
66 151 0.9599588513374329
66 152 0.950048565864563
66 153 0.16494105756282806
66 154 0.18379183113574982
66 155 0.9672885537147522
66 156 0.13856633007526398
66 157 0.954521894454956
66 158 0.07797182351350784
66 159 0.9653854370117188
66 160 0.40622568130493164
66 161 0.12519577145576477
66 162 0.9538831114768982
66 163 0.36000585556030273
66 164 0.9456940293312073
66 165 0.9494098424911499
66 166 0.9684066772460938
66 167 0.9384045600891113
66 168 0.9630048274993896
66 169 0.9489501118659973
66 170 0.11991770565509796
66 171 0.9444528222084045
66 172 0.9216445088386536
66 173 0.964712381362915
66 174 0.9358018636703491
66 175 0.9685763120651245
66 176 0.9652105569839478
66 177 0.956159234046936
66 179 0.9477168321609497
66 180 0.9598782062530518
66 181 0.956159234046936
66 182 0.3183942139148712
66 183 0.9610546827316284
66 184 0.9679938554763794
66 185 0.09697623550891876
66 186 0.9607546925544739
66 187 0.964712381362915
66 188 0.47983404994010925
66 189 0.9215835928916931
66 190 0.9557027220726013
66 191 0.9710566997528076
66 192 0.09199972450733185
66 193 0.9626355171203613
66 194 0.13328108191490173
66 195 0.9567043781280518
66 196 0.9577476978302002
66 197 0.09746478497982025
66 198 0.2645948827266693
66 199 0.9474403858184814
66 200 0.9117697477340698
66 201 0.954803466796875
66 202 0.9457417130470276
66 204 0.1463054120540619
66 205 0.9350715279579163
66 206 0.9357664585113525
66 208 0.9746277332305908
66 209 0.9598342776298523
66 210 0.9080610275268555
66 211 0.5683661699295044
66 212 0.4392373561859131
66 213 0.1829441487789154
66 214 0.9645485877990723
66 215 0.21929123997688293
66 216 0.9609642624855042
66 217 0.9511006474494934
66 218 0.9368799924850464
66 219 0.9656297564506531
66 220 0.9621391892433167
66 221 0.8843817710876465
66 222 0.9643046259880066
66 223 0.9615970849990845
66 224 0.24552449584007263
66 225 0.9650892615318298
66 226 0.12930163741111755
66 227 0.9454699754714966
66 228 0.9360440373420715
66 229 0.9630465507507324
66 230 0.14516472816467285
66 231 0.5908169150352478
66 232 0.6984593868255615
66 233 0.13348723948001862
66 234 0.9594255685806274
66 235 0.8453280329704285
66 236 0.9664652347564697
66 237 0.9517866969108582
66 238 0.9678677916526794
66 239 0.9516047835350037
66 240 0.9621391892433167
66 241 0.9528816342353821
66 242 0.05111096054315567
66 243 0.9657508730888367
66 244 0.9394697546958923
66 245 0.9380673170089722
66 246 0.9491649866104126
66 247 0.9592906832695007
66 248 0.952287495136261
66 249 0.9520268440246582
66 250 0.9592906832695007
66 252 0.954931378364563
66 253 0.07155533879995346
66 254 0.9550215005874634
66 255 0.8490241169929504
67 68 0.9561614394187927
67 69 0.920820951461792
67 70 0.9685045480728149
67 71 0.19222399592399597
67 72 0.9435951709747314
67 73 0.9620004296302795
67 74 0.8457987308502197
67 75 0.22192631661891937
67 76 0.9753361344337463
67 77 0.1632993221282959
67 78 0.9520127177238464
67 80 0.9790078401565552
67 81 0.6885855793952942
67 82 0.6008920669555664
67 83 0.9594921469688416
67 84 0.30758798122406006
67 85 0.9664373397827148
67 86 0.5826968550682068
67 87 0.8823652863502502
67 88 0.9616531133651733
67 89 0.3665606379508972
67 90 0.3680373430252075
67 91 0.9690335988998413
67 92 0.23315010964870453
67 93 0.9695382118225098
67 94 0.9632503986358643
67 95 0.9614869952201843
67 96 0.9685045480728149
67 97 0.962185800075531
67 98 0.3203178942203522
67 99 0.9743083715438843
67 100 0.9653241634368896
67 101 0.9642371535301208
67 102 0.9743331670761108
67 103 0.12490212172269821
67 104 0.33590129017829895
67 105 0.9514742493629456
67 106 0.8409693241119385
67 107 0.9743083715438843
67 108 0.9737134575843811
67 109 0.09058216214179993
67 110 0.9481319785118103
67 111 0.9706190228462219
67 112 0.9773512482643127
67 113 0.973832905292511
67 114 0.9625949263572693
67 115 0.9759098887443542
67 116 0.9748342633247375
67 117 0.1841549426317215
67 118 0.9653497338294983
67 119 0.06405126303434372
67 120 0.9643139243125916
67 121 0.9733064770698547
67 122 0.9778952598571777
67 123 0.9700667262077332
67 124 0.962691605091095
67 125 0.6862531900405884
67 126 0.9669157266616821
67 127 0.9605091214179993
67 128 0.9690588712692261
67 129 0.973832905292511
67 130 0.17863954603672028
67 131 0.9627182483673096
67 132 0.3513573110103607
67 133 0.3375243544578552
67 134 0.2242242693901062
67 135 0.9557459354400635
67 136 0.9722528457641602
67 137 0.9695624113082886
67 138 0.9680268168449402
67 139 0.936736524105072
67 140 0.14675988256931305
67 141 0.20000000298023224
67 142 0.9685298204421997
67 143 0.09607689827680588
67 144 0.1601281613111496
67 145 0.9627182483673096
67 146 0.9684571027755737
67 147 0.9631981253623962
67 148 0.9541633725166321
67 149 0.9732556343078613
67 150 0.9690588712692261
67 151 0.9552369117736816
67 152 0.960000216960907
67 153 0.16946369409561157
67 154 0.23094011843204498
67 155 0.971699595451355
67 156 0.150355726480484
67 157 0.9643139243125916
67 158 0.10621700435876846
67 159 0.9789852499961853
67 160 0.4308673143386841
67 161 0.12403474003076553
67 162 0.9647685885429382
67 163 0.3311910331249237
67 164 0.9578373432159424
67 165 0.9562820196151733
67 166 0.9738070368766785
67 167 0.9486971497535706
67 168 0.9705949425697327
67 169 0.9578884243965149
67 170 0.14675988256931305
67 171 0.951446533203125
67 172 0.9163585305213928
67 173 0.9711980819702148
67 174 0.9335321187973022
67 175 0.9780082702636719
67 176 0.971699595451355
67 177 0.9659067988395691
67 179 0.9525508284568787
67 180 0.9685298204421997
67 181 0.9690093398094177
67 182 0.3609105348587036
67 183 0.970670223236084
67 184 0.9764349460601807
67 185 0.09607689827680588
67 186 0.9642873406410217
67 187 0.9711980819702148
67 188 0.4670805037021637
67 189 0.9302034378051758
67 190 0.9541633725166321
67 191 0.9743589758872986
67 192 0.06076435744762421
67 193 0.9722268581390381
67 194 0.13204506039619446
67 195 0.9705718755722046
67 196 0.9674709439277649
67 197 0.09656091034412384
67 198 0.22692809998989105
67 199 0.9460450410842896
67 200 0.9196195602416992
67 201 0.9594921469688416
67 202 0.9568178057670593
67 204 0.18397323787212372
67 205 0.9328480958938599
67 206 0.946073055267334
67 208 0.9727797508239746
67 209 0.9674709439277649
67 210 0.9245696067810059
67 211 0.5939968824386597
67 212 0.47394096851348877
67 213 0.18673992156982422
67 214 0.9721328616142273
67 215 0.22188007831573486
67 216 0.9695875644683838
67 217 0.960000216960907
67 218 0.9555843472480774
67 219 0.9690588712692261
67 220 0.9758387207984924
67 221 0.8885049819946289
67 222 0.973832905292511
67 223 0.9722268581390381
67 224 0.25845053791999817
67 225 0.9674972891807556
67 226 0.10408329218626022
67 227 0.949317455291748
67 228 0.9432792067527771
67 229 0.9685561060905457
67 230 0.15689291059970856
67 231 0.6317170262336731
67 232 0.7161374688148499
67 233 0.12490212172269821
67 234 0.9690850377082825
67 235 0.8422202467918396
67 236 0.975935697555542
67 237 0.962691605091095
67 238 0.9732806086540222
67 239 0.9573804140090942
67 240 0.9748104810714722
67 241 0.9627182483673096
67 242 0.10127393156290054
67 243 0.9722268581390381
67 244 0.9508076310157776
67 245 0.938948929309845
67 246 0.9519330859184265
67 247 0.9679751992225647
67 248 0.9621590971946716
67 249 0.9547002911567688
67 250 0.9659067988395691
67 251 0.09058216214179993
67 252 0.962691605091095
67 253 0.10127393156290054
67 254 0.9658549427986145
67 255 0.8446847200393677
68 69 0.9089791774749756
68 70 0.9445422291755676
68 71 0.196925550699234
68 72 0.9182305335998535
68 73 0.9372719526290894
68 74 0.8616452217102051
68 75 0.21343469619750977
68 76 0.9549702405929565
68 77 0.16729339957237244
68 78 0.9269624352455139
68 80 0.9536447525024414
68 81 0.6607801914215088
68 82 0.5810054540634155
68 83 0.9381345510482788
68 84 0.31835973262786865
68 85 0.9434833526611328
68 86 0.5524004101753235
68 87 0.8756983876228333
68 88 0.9362343549728394
68 89 0.3726813495159149
68 90 0.38262486457824707
68 91 0.9429923295974731
68 92 0.22533269226551056
68 93 0.9487778544425964
68 94 0.9379477500915527
68 95 0.9346281290054321
68 96 0.946660041809082
68 97 0.9399958252906799
68 98 0.30241498351097107
68 99 0.950758695602417
68 100 0.9379477500915527
68 101 0.9420492649078369
68 102 0.9497810006141663
68 103 0.11290328949689865
68 104 0.30691516399383545
68 105 0.9263848662376404
68 106 0.8202233910560608
68 107 0.9497057795524597
68 108 0.9520909190177917
68 109 0.09279768168926239
68 110 0.9204277992248535
68 111 0.9468073844909668
68 112 0.9474477171897888
68 113 0.9513958096504211
68 114 0.9369920492172241
68 115 0.9504205584526062
68 116 0.9544788599014282
68 117 0.16930946707725525
68 118 0.9454551339149475
68 120 0.9401495456695557
68 121 0.9487292170524597
68 122 0.9501951932907104
68 123 0.9429923295974731
68 124 0.9426177144050598
68 125 0.6474559903144836
68 126 0.9449610114097595
68 127 0.9401972889900208
68 128 0.9483560919761658
68 129 0.949293315410614
68 130 0.1885545700788498
68 131 0.9448164701461792
68 132 0.34011125564575195
68 133 0.32027143239974976
68 134 0.21592599153518677
68 135 0.9405573010444641
68 136 0.9476000070571899
68 137 0.9562534689903259
68 138 0.9472988247871399
68 139 0.9104070663452148
68 140 0.150349423289299
68 141 0.19963811337947845
68 142 0.9435598254203796
68 143 0.09842680394649506
68 144 0.15092110633850098
68 145 0.943753719329834
68 146 0.9433329105377197
68 147 0.9516294002532959
68 148 0.9303408265113831
68 149 0.9475234150886536
68 150 0.9441271424293518
68 151 0.9314908981323242
68 152 0.9364955425262451
68 153 0.17360857129096985
68 154 0.20928992331027985
68 155 0.9480127096176147
68 156 0.12724483013153076
68 157 0.9507606625556946
68 158 0.06924585998058319
68 159 0.9640730023384094
68 160 0.4292792081832886
68 161 0.12706845998764038
68 162 0.9404899477958679
68 163 0.2638934254646301
68 164 0.9437710642814636
68 165 0.9314908981323242
68 166 0.9502694606781006
68 167 0.9319006204605103
68 168 0.9456754922866821
68 169 0.9353513121604919
68 170 0.150349423289299
68 171 0.9263045787811279
68 172 0.8953407406806946
68 173 0.9464694261550903
68 174 0.920255184173584
68 175 0.9558152556419373
68 176 0.953285276889801
68 177 0.9460940361022949
68 179 0.927539587020874
68 180 0.9477910399436951
68 181 0.9439750909805298
68 182 0.32315677404403687
68 183 0.9490671753883362
68 184 0.9520334005355835
68 185 0.09842680394649506
68 186 0.9379477500915527
68 187 0.948577344417572
68 188 0.41683071851730347
68 189 0.9089893698692322
68 190 0.9389154314994812
68 191 0.953009307384491
68 192 0.10375096648931503
68 193 0.9464694261550903
68 194 0.11936003714799881
68 195 0.9456011652946472
68 196 0.9456011652946472
68 197 0.10881493240594864
68 198 0.2445032298564911
68 199 0.9259169101715088
68 200 0.8875455260276794
68 201 0.9413363337516785
68 202 0.9384859800338745
68 204 0.1770503968000412
68 205 0.9116246104240417
68 206 0.9238315224647522
68 208 0.9555311799049377
68 209 0.946660041809082
68 210 0.9149813652038574
68 211 0.5557630062103271
68 212 0.46787717938423157
68 213 0.17442727088928223
68 214 0.9493424296379089
68 215 0.21310028433799744
68 216 0.9478640556335449
68 217 0.933292031288147
68 218 0.9390212297439575
68 219 0.9430698156356812
68 220 0.9512485861778259
68 221 0.8620274066925049
68 222 0.9513958096504211
68 223 0.9506853222846985
68 224 0.23362226784229279
68 225 0.9425020217895508
68 226 0.08202234655618668
68 227 0.9229942560195923
68 228 0.9174351692199707
68 229 0.9436373114585876
68 230 0.1339419186115265
68 231 0.5718016028404236
68 232 0.6797937154769897
68 233 0.1279570609331131
68 234 0.949485182762146
68 235 0.8349478840827942
68 236 0.9515465497970581
68 237 0.9458094835281372
68 238 0.9476000070571899
68 239 0.9423340559005737
68 240 0.9480882883071899
68 241 0.9405653476715088
68 242 0.08300077170133591
68 243 0.9527932405471802
68 244 0.9254140853881836
68 245 0.9117465615272522
68 246 0.9224143624305725
68 247 0.9460940361022949
68 248 0.9367269277572632
68 249 0.9330585598945618
68 250 0.9439750909805298
68 251 0.0695982575416565
68 252 0.9372982382774353
68 253 0.10375096648931503
68 254 0.9406415820121765
68 255 0.8110343217849731
69 70 0.9149014353752136
69 71 0.16990956664085388
69 72 0.8832404017448425
69 73 0.9000520706176758
69 74 0.831247091293335
69 75 0.21979652345180511
69 76 0.9248842000961304
69 77 0.14577530324459076
69 78 0.9081346988677979
69 80 0.9237291216850281
69 81 0.67587810754776
69 82 0.5075064301490784
69 83 0.9221339225769043
69 84 0.3111220598220825
69 85 0.9138109683990479
69 86 0.5211544632911682
69 87 0.8181656002998352
69 88 0.9082642793655396
69 89 0.3632819354534149
69 90 0.3508877754211426
69 91 0.9187848567962646
69 92 0.204203262925148
69 93 0.9192633032798767
69 94 0.9177739024162292
69 95 0.9028829336166382
69 96 0.9192633032798767
69 97 0.9176424741744995
69 98 0.2484806329011917
69 99 0.9194628000259399
69 100 0.9123044610023499
69 101 0.9120306968688965
69 102 0.9196004867553711
69 103 0.13952229917049408
69 104 0.3032931089401245
69 105 0.8997679948806763
69 106 0.8259012699127197
69 107 0.9216313362121582
69 108 0.9217069149017334
69 109 0.07167277485132217
69 110 0.9043727517127991
69 111 0.9173541069030762
69 112 0.9191895127296448
69 113 0.932119607925415
69 114 0.9132090210914612
69 115 0.9300824999809265
69 116 0.9276595115661621
69 117 0.17435605823993683
69 118 0.9135351777076721
69 119 0.06757373362779617
69 120 0.9233698844909668
69 121 0.927182674407959
69 122 0.9242759943008423
69 123 0.9187848567962646
69 124 0.9203160405158997
69 125 0.6667546033859253
69 126 0.918518602848053
69 127 0.9066075682640076
69 128 0.918919026851654
69 129 0.9267066121101379
69 130 0.13706456124782562
69 131 0.9182553291320801
69 132 0.30646780133247375
69 133 0.3327364921569824
69 134 0.15612654387950897
69 135 0.9134333729743958
69 136 0.9194628000259399
69 137 0.9161284565925598
69 138 0.9287179708480835
69 139 0.883454442024231
69 140 0.10322058945894241
69 141 0.10820458084344864
69 142 0.9128605127334595
69 144 0.13514748215675354
69 145 0.9259165525436401
69 146 0.9091641902923584
69 147 0.9284735918045044
69 148 0.9106093645095825
69 149 0.9247528314590454
69 150 0.9134752154350281
69 151 0.9162545800209045
69 152 0.905027449131012
69 153 0.10854700952768326
69 154 0.17804504930973053
69 155 0.9165427088737488
69 156 0.15172775089740753
69 157 0.929926335811615
69 158 0.09168411791324615
69 159 0.9225121140480042
69 160 0.3121996223926544
69 161 0.11340851336717606
69 162 0.909359872341156
69 163 0.3225274682044983
69 164 0.9090206623077393
69 165 0.9019208550453186
69 166 0.930910587310791
69 167 0.9084652066230774
69 168 0.9270218014717102
69 169 0.910391092300415
69 170 0.11796639114618301
69 171 0.8996270298957825
69 172 0.8704220652580261
69 173 0.9214966297149658
69 174 0.9127526879310608
69 175 0.9271031618118286
69 176 0.9263162612915039
69 177 0.917560338973999
69 179 0.8999096155166626
69 180 0.92048579454422
69 181 0.917560338973999
69 182 0.31779858469963074
69 183 0.9198005795478821
69 184 0.9328492283821106
69 185 0.0900983139872551
69 186 0.9155861139297485
69 187 0.9258381724357605
69 188 0.4095444977283478
69 189 0.8874117136001587
69 190 0.9216470122337341
69 191 0.9219030737876892
69 192 0.10684345662593842
69 193 0.9214966297149658
69 194 0.1229177862405777
69 195 0.9192633032798767
69 196 0.9236251711845398
69 197 0.1120583713054657
69 198 0.22289703786373138
69 199 0.9000474214553833
69 200 0.8635411858558655
69 201 0.9111430644989014
69 202 0.9333992004394531
69 204 0.09998616576194763
69 205 0.8809727430343628
69 206 0.896845281124115
69 208 0.9233246445655823
69 209 0.9290775060653687
69 210 0.8736433982849121
69 211 0.5578392148017883
69 212 0.39091312885284424
69 213 0.16803760826587677
69 214 0.9166049957275391
69 215 0.17068499326705933
69 216 0.91953045129776
69 217 0.9105258584022522
69 218 0.9136582612991333
69 219 0.9200078248977661
69 220 0.9188518524169922
69 221 0.8498960733413696
69 222 0.9223761558532715
69 223 0.9171550273895264
69 224 0.2686541676521301
69 225 0.9248431324958801
69 226 0.13514746725559235
69 227 0.8961595296859741
69 228 0.8977659344673157
69 229 0.9217069149017334
69 230 0.13793432712554932
69 231 0.5534132719039917
69 232 0.631100058555603
69 233 0.1162685751914978
69 234 0.9179663062095642
69 235 0.8411159515380859
69 236 0.9258899092674255
69 237 0.909359872341156
69 238 0.9248842000961304
69 239 0.9099082350730896
69 240 0.9210214614868164
69 241 0.9204442501068115
69 242 0.07479041814804077
69 243 0.9356067180633545
69 244 0.8917654752731323
69 245 0.889505922794342
69 246 0.9010815620422363
69 247 0.912105143070221
69 248 0.9153192639350891
69 249 0.9145365357398987
69 250 0.9197424650192261
69 251 0.05972731485962868
69 252 0.909359872341156
69 253 0.05342172831296921
69 254 0.9085467457771301
69 255 0.8314800262451172
70 71 0.18848426640033722
70 72 0.9271109104156494
70 73 0.950498104095459
70 74 0.8428571224212646
70 75 0.2282177209854126
70 76 0.9653186202049255
70 77 0.14558129012584686
70 78 0.9446285963058472
70 80 0.9690820574760437
70 81 0.6793040633201599
70 82 0.5919600129127502
70 83 0.9575099945068359
70 84 0.30039462447166443
70 85 0.9593750238418579
70 86 0.5644434690475464
70 87 0.869548499584198
70 88 0.9555312395095825
70 89 0.3610175549983978
70 90 0.35991185903549194
70 91 0.9588757753372192
70 92 0.21279805898666382
70 93 0.9583333134651184
70 94 0.9602972865104675
70 95 0.9478819966316223
70 96 0.9624999761581421
70 97 0.955029308795929
70 98 0.3038218021392822
70 99 0.9653186202049255
70 100 0.9592523574829102
70 101 0.9539398550987244
70 102 0.968464732170105
70 103 0.11846978217363358
70 104 0.3232668936252594
70 105 0.9483067989349365
70 106 0.8367556929588318
70 107 0.9673900604248047
70 108 0.9605010151863098
70 109 0.07987620681524277
70 110 0.9405973553657532
70 111 0.9636195302009583
70 112 0.9641993641853333
70 113 0.9658991694450378
70 114 0.9564228057861328
70 115 0.9690413475036621
70 116 0.9658570885658264
70 117 0.21414008736610413
70 118 0.9561607241630554
70 119 0.06454972177743912
70 120 0.9582484364509583
70 121 0.965360701084137
70 122 0.9637435078620911
70 123 0.963040292263031
70 124 0.9565778374671936
70 125 0.6827270984649658
70 126 0.9587909579277039
70 127 0.9543207883834839
70 128 0.9651597738265991
70 129 0.9679675102233887
70 130 0.18548521399497986
70 131 0.9555734992027283
70 132 0.36524417996406555
70 133 0.3568797707557678
70 134 0.1852947622537613
70 135 0.9558071494102478
70 136 0.9673900604248047
70 137 0.9646207094192505
70 138 0.960999608039856
70 139 0.9278799891471863
70 140 0.14085903763771057
70 141 0.18088398873806
70 142 0.9656612873077393
70 143 0.08606629818677902
70 144 0.1549193263053894
70 145 0.9576645493507385
70 146 0.9613799452781677
70 147 0.9539398550987244
70 148 0.9520995020866394
70 149 0.9642406702041626
70 150 0.9641197323799133
70 151 0.9531915187835693
70 152 0.9569665789604187
70 153 0.15248438715934753
70 154 0.21483445167541504
70 155 0.9647386074066162
70 156 0.12517350912094116
70 157 0.9561607241630554
70 158 0.08758113533258438
70 159 0.968008279800415
70 160 0.40797629952430725
70 161 0.125
70 162 0.9576243758201599
70 163 0.3565901815891266
70 164 0.9484304189682007
70 165 0.9468720555305481
70 166 0.9689627885818481
70 167 0.9411911368370056
70 168 0.9614989161491394
70 169 0.9537757039070129
70 170 0.14085903763771057
70 171 0.9525009393692017
70 172 0.9191079139709473
70 173 0.9642406702041626
70 174 0.9278799891471863
70 175 0.9701547026634216
70 176 0.9626638889312744
70 177 0.9630016088485718
70 179 0.9462348818778992
70 180 0.9614989161491394
70 181 0.9588328003883362
70 182 0.34367167949676514
70 183 0.9647386074066162
70 184 0.9675127267837524
70 185 0.07530800998210907
70 186 0.9571624994277954
70 187 0.9663142561912537
70 188 0.4748995900154114
70 189 0.9244675040245056
70 190 0.9510450959205627
70 191 0.9674709439277649
70 192 0.09185586124658585
70 193 0.9725351333618164
70 194 0.1252448707818985
70 195 0.9624999761581421
70 196 0.9593750238418579
70 197 0.07784989476203918
70 198 0.2602381110191345
70 199 0.9417026042938232
70 200 0.9114394783973694
70 201 0.9512105584144592
70 202 0.949526309967041
70 204 0.16854996979236603
70 205 0.9292770028114319
70 206 0.9428064227104187
70 208 0.9668923020362854
70 209 0.9593750238418579
70 210 0.92084139585495
70 211 0.5692076086997986
70 212 0.4646030366420746
70 213 0.17158788442611694
70 214 0.963040292263031
70 215 0.20031443238258362
70 216 0.9625800251960754
70 217 0.9538151621818542
70 218 0.939661979675293
70 219 0.9641197323799133
70 220 0.967888593673706
70 221 0.8920320272445679
70 222 0.9658991694450378
70 223 0.9652774333953857
70 224 0.2413102239370346
70 225 0.9635801315307617
70 226 0.12103072553873062
70 227 0.9408131837844849
70 228 0.933510959148407
70 229 0.9615405201911926
70 230 0.1515258252620697
70 231 0.6221276521682739
70 232 0.6959351897239685
70 233 0.12587414681911469
70 234 0.9610422849655151
70 235 0.8320852518081665
70 236 0.9680500030517578
70 237 0.9565778374671936
70 238 0.9663543701171875
70 239 0.9532697796821594
70 240 0.965816080570221
70 241 0.9608009457588196
70 242 0.09185586124658585
70 243 0.9652774333953857
70 244 0.939064085483551
70 245 0.9376732110977173
70 246 0.9402603507041931
70 247 0.9598750472068787
70 248 0.9570811986923218
70 249 0.9473766088485718
70 250 0.9588328003883362
70 251 0.06846531480550766
70 252 0.9576243758201599
70 253 0.10206206887960434
70 254 0.9597944021224976
70 255 0.8512582182884216
71 72 0.20686419308185577
71 73 0.20149017870426178
71 74 0.13163979351520538
71 75 0.09176629036664963
71 76 0.19261951744556427
71 77 0.12725695967674255
71 78 0.18057028949260712
71 80 0.19711622595787048
71 81 0.20603837072849274
71 82 0.24794475734233856
71 83 0.1846972107887268
71 84 0.08031157404184341
71 85 0.19895561039447784
71 86 0.2643197476863861
71 87 0.14549152553081512
71 88 0.1525513082742691
71 89 0.12659743428230286
71 90 0.16571044921875
71 91 0.19361911714076996
71 92 0.06684847176074982
71 93 0.19371992349624634
71 94 0.17331969738006592
71 95 0.2013826221227646
71 96 0.1832485795021057
71 97 0.17875930666923523
71 98 0.19088542461395264
71 99 0.19782546162605286
71 100 0.17331969738006592
71 101 0.1894736886024475
71 102 0.19762204587459564
71 105 0.20192210376262665
71 106 0.13818861544132233
71 107 0.1717957854270935
71 108 0.19331759214401245
71 109 0.28676965832710266
71 110 0.20345598459243774
71 111 0.17241838574409485
71 112 0.19301749765872955
71 113 0.16633310914039612
71 114 0.20074093341827393
71 115 0.18693290650844574
71 116 0.19772367179393768
71 118 0.19937139749526978
71 120 0.1836315393447876
71 121 0.18722088634967804
71 122 0.19792740046977997
71 123 0.1831532120704651
71 124 0.16307209432125092
71 125 0.11141412705183029
71 126 0.17304782569408417
71 127 0.1954582780599594
71 128 0.19341793656349182
71 129 0.19752056896686554
71 130 0.08226127177476883
71 131 0.19443008303642273
71 132 0.08408277481794357
71 134 0.15900878608226776
71 135 0.1959785372018814
71 136 0.19261951744556427
71 137 0.17259752750396729
71 138 0.18296292424201965
71 139 0.17854276299476624
71 141 0.1298810839653015
71 142 0.19874867796897888
71 143 0.16222141683101654
71 145 0.18392033874988556
71 146 0.19937139749526978
71 147 0.19473683834075928
71 148 0.16958536207675934
71 149 0.1980295181274414
71 150 0.19341793656349182
71 151 0.16411077976226807
71 152 0.20063458383083344
71 153 0.0613139346241951
71 154 0.20246458053588867
71 155 0.19291776418685913
71 157 0.1836315393447876
71 159 0.19731807708740234
71 160 0.1558927744626999
71 162 0.19463442265987396
71 164 0.20127525925636292
71 165 0.16411077976226807
71 166 0.1508943885564804
71 167 0.19243359565734863
71 168 0.16736730933189392
71 169 0.18499106168746948
71 170 0.10619883984327316
71 171 0.1861807405948639
71 172 0.09360461682081223
71 173 0.1771842986345291
71 174 0.13525967299938202
71 175 0.19691500067710876
71 176 0.18770378828048706
71 177 0.19382090866565704
71 179 0.1910896897315979
71 180 0.18828822672367096
71 181 0.19905932247638702
71 182 0.2878964841365814
71 183 0.19291776418685913
71 184 0.18164730072021484
71 186 0.16281548142433167
71 187 0.18760691583156586
71 188 0.06309151649475098
71 189 0.20108099281787872
71 190 0.1377881020307541
71 191 0.16624778509140015
71 192 0.051298920065164566
71 193 0.19281820952892303
71 195 0.19895561039447784
71 196 0.19895561039447784
71 199 0.1444036066532135
71 200 0.12664154171943665
71 201 0.20052841305732727
71 202 0.1746056079864502
71 204 0.2541521191596985
71 205 0.15787003934383392
71 206 0.18698671460151672
71 208 0.1821139007806778
71 209 0.19895561039447784
71 210 0.19216269254684448
71 211 0.08695980906486511
71 212 0.16368290781974792
71 213 0.11128298193216324
71 214 0.18838617205619812
71 216 0.18809279799461365
71 217 0.20063458383083344
71 218 0.18678423762321472
71 219 0.1672803908586502
71 220 0.19792740046977997
71 221 0.12485899776220322
71 222 0.19752056896686554
71 223 0.1980295181274414
71 224 0.11551284044981003
71 225 0.17782776057720184
71 227 0.1491049975156784
71 228 0.16661369800567627
71 229 0.18286798894405365
71 231 0.23492757976055145
71 232 0.1439482420682907
71 234 0.19843950867652893
71 235 0.11384391784667969
71 236 0.19711622595787048
71 237 0.19463442265987396
71 238 0.19261951744556427
71 239 0.1848929524421692
71 240 0.19792740046977997
71 241 0.19443008303642273
71 242 0.051298920065164566
71 243 0.19281820952892303
71 244 0.16570669412612915
71 245 0.1671651005744934
71 246 0.17582567036151886
71 247 0.18858250975608826
71 248 0.20000000298023224
71 249 0.16949495673179626
71 250 0.18334409594535828
71 252 0.18937404453754425
71 254 0.17847831547260284
71 255 0.1014460027217865
72 73 0.9093061685562134
72 74 0.8355137705802917
72 75 0.22305212914943695
72 76 0.934767484664917
72 77 0.15794943273067474
72 78 0.9118655323982239
72 80 0.9367815256118774
72 81 0.697173535823822
72 82 0.5836549401283264
72 83 0.9191570281982422
72 84 0.3223035931587219
72 85 0.9271109104156494
72 86 0.5540733337402344
72 87 0.8776281476020813
72 88 0.9140765070915222
72 89 0.3840976059436798
72 90 0.394214928150177
72 91 0.9309583306312561
72 92 0.23047593235969543
72 93 0.9314430952072144
72 94 0.9148110747337341
72 95 0.9219762086868286
72 96 0.9216954708099365
72 97 0.9168591499328613
72 98 0.31918948888778687
72 99 0.9326136708259583
72 100 0.9235028624534607
72 101 0.9134687185287476
72 102 0.9359580278396606
72 103 0.06928818672895432
72 104 0.3329460024833679
72 105 0.9178506731987
72 106 0.7867439985275269
72 107 0.9250751733779907
72 108 0.9316703081130981
72 109 0.09491579979658127
72 110 0.9237154722213745
72 111 0.9284278154373169
72 112 0.9313031435012817
72 113 0.9290257692337036
72 114 0.9507294297218323
72 115 0.9302217364311218
72 116 0.9310575127601624
72 117 0.08906091004610062
72 118 0.9290484189987183
72 120 0.9192803502082825
72 121 0.9305789470672607
72 122 0.9395591616630554
72 123 0.9287933707237244
72 124 0.9195173978805542
72 125 0.6299675107002258
72 126 0.9253085851669312
72 127 0.9157600402832031
72 128 0.9224214553833008
72 129 0.9397783875465393
72 130 0.1361352950334549
72 131 0.9174649715423584
72 132 0.35077327489852905
72 133 0.16813924908638
72 134 0.2208545207977295
72 135 0.9083362221717834
72 136 0.9272290468215942
72 137 0.9304743409156799
72 138 0.9289097785949707
72 139 0.8998491168022156
72 140 0.12448952347040176
72 141 0.1612064689397812
72 142 0.9218187928199768
72 143 0.10067339986562729
72 144 0.13423120975494385
72 145 0.9261613488197327
72 146 0.9268776774406433
72 147 0.9156461954116821
72 148 0.9044356942176819
72 149 0.9411218762397766
72 150 0.9278283715248108
72 151 0.9056621193885803
72 152 0.9185514450073242
72 153 0.13952022790908813
72 154 0.24198874831199646
72 155 0.9243505001068115
72 156 0.13699916005134583
72 157 0.923621654510498
72 158 0.11129863560199738
72 159 0.9409633278846741
72 160 0.3993869423866272
72 161 0.1213042214512825
72 162 0.9271347522735596
72 163 0.2491539716720581
72 164 0.9105275869369507
72 165 0.9078523516654968
72 166 0.9267520308494568
72 167 0.9056233167648315
72 168 0.919654905796051
72 169 0.9195260405540466
72 170 0.14645826816558838
72 171 0.9155358672142029
72 172 0.8622426986694336
72 173 0.9238733649253845
72 174 0.8897761702537537
72 175 0.9304653406143188
72 176 0.9243505001068115
72 177 0.9286777377128601
72 179 0.9025928378105164
72 180 0.927228569984436
72 181 0.9416813850402832
72 182 0.366266131401062
72 183 0.9329792261123657
72 184 0.9286719560623169
72 186 0.9180704951286316
72 187 0.9238733649253845
72 188 0.406767874956131
72 189 0.8858922123908997
72 190 0.9044356942176819
72 191 0.9285492300987244
72 193 0.9292635321617126
72 194 0.11394547671079636
72 195 0.941190779209137
72 196 0.9227786064147949
72 197 0.11129863560199738
72 198 0.07379528880119324
72 199 0.9016899466514587
72 200 0.8622426986694336
72 201 0.9158821105957031
72 202 0.9237873554229736
72 204 0.19277489185333252
72 205 0.9076576232910156
72 206 0.8985010385513306
72 208 0.925675630569458
72 209 0.9238616228103638
72 210 0.9108791351318359
72 211 0.593632698059082
72 212 0.4921005964279175
72 213 0.18991880118846893
72 214 0.9277108907699585
72 215 0.15015320479869843
72 216 0.9370744228363037
72 217 0.9098137617111206
72 218 0.9218154549598694
72 219 0.9213401079177856
72 220 0.9460240006446838
72 221 0.8441339135169983
72 222 0.9344021081924438
72 223 0.9378877878189087
72 224 0.26683273911476135
72 225 0.9207367897033691
72 226 0.0922839567065239
72 227 0.8988965153694153
72 228 0.898350179195404
72 229 0.9251853823661804
72 230 0.16439898312091827
72 231 0.6133416295051575
72 232 0.6417102217674255
72 233 0.14627507328987122
72 234 0.9257861375808716
72 235 0.795749843120575
72 236 0.9292701482772827
72 237 0.9271347522735596
72 238 0.929382860660553
72 239 0.9234095811843872
72 240 0.933094322681427
72 241 0.931596577167511
72 242 0.10611908882856369
72 243 0.9238733649253845
72 244 0.9012002348899841
72 245 0.902438759803772
72 246 0.9004833698272705
72 247 0.9221758842468262
72 248 0.925445020198822
72 249 0.9105275869369507
72 250 0.917841374874115
72 251 0.09491579979658127
72 252 0.9151646494865417
72 253 0.10611908882856369
72 254 0.9262769818305969
72 255 0.8258427977561951
73 74 0.8222479224205017
73 75 0.2311250865459442
73 76 0.957686185836792
73 77 0.1666666716337204
73 78 0.9299101829528809
73 80 0.9573883414268494
73 81 0.662752628326416
73 82 0.5908876657485962
73 83 0.9431261420249939
73 84 0.32040345668792725
73 85 0.9462783336639404
73 86 0.6000382900238037
73 87 0.8560013175010681
73 88 0.9433260560035706
73 89 0.36561664938926697
73 90 0.3644968867301941
73 91 0.9478946924209595
73 92 0.22897829115390778
73 93 0.9452233910560608
73 94 0.9428998827934265
73 95 0.9407369494438171
73 96 0.9483882188796997
73 97 0.9407117962837219
73 98 0.32692310214042664
73 99 0.9545393586158752
73 100 0.9428998827934265
73 101 0.9523062109947205
73 102 0.9556536078453064
73 103 0.14247506856918335
73 104 0.34282782673835754
73 105 0.9304090142250061
73 106 0.8365200757980347
73 107 0.9534904360771179
73 108 0.9569460153579712
73 109 0.09245003759860992
73 110 0.9223735332489014
73 111 0.9495768547058105
73 112 0.9502049088478088
73 113 0.9541155695915222
73 114 0.9388037323951721
73 115 0.9541837573051453
73 116 0.954048216342926
73 117 0.20722950994968414
73 118 0.9440274238586426
73 119 0.0653720498085022
73 120 0.9440274238586426
73 121 0.954605758190155
73 122 0.9550312757492065
73 123 0.9468402862548828
73 124 0.9422661662101746
73 125 0.6525132656097412
73 126 0.9477604031562805
73 127 0.947318971157074
73 128 0.9490163922309875
73 129 0.9551628828048706
73 130 0.18784818053245544
73 131 0.9518648982048035
73 132 0.3614262044429779
73 133 0.3614262044429779
73 134 0.2288479208946228
73 135 0.9413025379180908
73 136 0.9513925313949585
73 137 0.9463480114936829
73 138 0.9469098448753357
73 139 0.9113569259643555
73 140 0.14978617429733276
73 141 0.20412413775920868
73 142 0.950563371181488
73 143 0.0980580672621727
73 144 0.15689291059970856
73 145 0.9423356652259827
73 146 0.9471988081932068
73 147 0.9501851797103882
73 148 0.933262288570404
73 149 0.9513238072395325
73 150 0.9500697255134583
73 151 0.9333345293998718
73 152 0.9404340982437134
73 153 0.16678109765052795
73 154 0.2357022613286972
73 155 0.9507644772529602
73 156 0.15345615148544312
73 157 0.9461416602134705
73 158 0.10840727388858795
73 159 0.9541837573051453
73 160 0.4349196255207062
73 161 0.10127393156290054
73 162 0.9433260560035706
73 163 0.34379854798316956
73 164 0.9402353167533875
73 165 0.9408011436462402
73 166 0.9529998302459717
73 167 0.9327175617218018
73 168 0.9526710510253906
73 169 0.9350420236587524
73 170 0.14978617429733276
73 171 0.9281933903694153
73 172 0.8930959105491638
73 173 0.9513238072395325
73 174 0.9135372638702393
73 175 0.9595432281494141
73 176 0.949713945388794
73 177 0.9457160830497742
73 179 0.9315513372421265
73 180 0.950563371181488
73 181 0.9457160830497742
73 182 0.3683527708053589
73 183 0.949713945388794
73 184 0.9557867050170898
73 185 0.0980580672621727
73 186 0.9439581036567688
73 187 0.9502738118171692
73 188 0.4639997184276581
73 189 0.9187242388725281
73 190 0.9321944713592529
73 191 0.9536261558532715
73 192 0.07235359400510788
73 193 0.9502738118171692
73 194 0.13476791977882385
73 195 0.9483882188796997
73 196 0.9494431614875793
73 197 0.08869685977697372
73 198 0.25556692481040955
73 199 0.9235257506370544
73 200 0.9019713401794434
73 201 0.9441894292831421
73 202 0.9371023178100586
73 204 0.187766894698143
73 205 0.9071123600006104
73 206 0.9268293380737305
73 208 0.9519514441490173
73 209 0.9494431614875793
73 210 0.897172212600708
73 211 0.5536808967590332
73 212 0.4749191403388977
73 213 0.19059062004089355
73 214 0.9478946924209595
73 215 0.22645540535449982
73 216 0.9474713206291199
73 217 0.9383063316345215
73 218 0.9333527684211731
73 219 0.9469098448753357
73 220 0.9508333802223206
73 221 0.8656591773033142
73 222 0.953068196773529
73 223 0.9513238072395325
73 224 0.259900838136673
73 225 0.9463480114936829
73 226 0.0980580672621727
73 227 0.9281201958656311
73 228 0.9204957485198975
73 229 0.9485240578651428
73 230 0.13344012200832367
73 231 0.6316854357719421
73 232 0.7164025902748108
73 233 0.10498162358999252
73 234 0.9490846991539001
73 235 0.8137105703353882
73 236 0.9563431143760681
73 237 0.940146267414093
73 238 0.9524415135383606
73 239 0.9388037323951721
73 240 0.9529323577880859
73 241 0.9423356652259827
73 242 0.10336227715015411
73 243 0.9555239677429199
73 244 0.9284093976020813
73 245 0.9181095361709595
73 246 0.9329147934913635
73 247 0.9499380588531494
73 248 0.9395804405212402
73 249 0.9338319301605225
73 250 0.9457160830497742
73 251 0.08089377731084824
73 252 0.9422661662101746
73 253 0.10336227715015411
73 254 0.9424060583114624
73 255 0.8140077590942383
74 75 0.16170856356620789
74 76 0.8463553190231323
74 77 0.10127393156290054
74 78 0.8211536407470703
74 79 0.05216405540704727
74 80 0.8480389714241028
74 81 0.6207433938980103
74 82 0.4665694832801819
74 83 0.85431969165802
74 84 0.2958293557167053
74 85 0.8321428894996643
74 86 0.3225391209125519
74 87 0.8336551189422607
74 88 0.8265024423599243
74 89 0.3486238121986389
74 90 0.4081879258155823
74 91 0.8388489484786987
74 92 0.22799792885780334
74 93 0.8511905074119568
74 94 0.8275902271270752
74 95 0.8133740425109863
74 96 0.8357142806053162
74 97 0.8451956510543823
74 98 0.19893093407154083
74 99 0.8439879417419434
74 100 0.8455034494400024
74 101 0.8269372582435608
74 102 0.8490325808525085
74 104 0.2683725357055664
74 105 0.8348845839500427
74 106 0.7021916508674622
74 107 0.8428041934967041
74 108 0.8470467329025269
74 110 0.8168785572052002
74 111 0.8399186730384827
74 112 0.8398008942604065
74 113 0.8509604334831238
74 114 0.848018229007721
74 115 0.8441846966743469
74 116 0.8447368144989014
74 117 0.11420805007219315
74 118 0.8434256315231323
74 120 0.8303030729293823
74 121 0.8395726084709167
74 122 0.8467915654182434
74 123 0.8459880948066711
74 124 0.8432477712631226
74 125 0.5151064395904541
74 126 0.8370231986045837
74 127 0.823995053768158
74 128 0.8451091051101685
74 129 0.8438690900802612
74 130 0.07481756061315536
74 131 0.8328037261962891
74 132 0.3505069315433502
74 133 0.2103041559457779
74 134 0.13945528864860535
74 135 0.8285970091819763
74 136 0.8451716303825378
74 137 0.8586299419403076
74 138 0.8581839799880981
74 139 0.8230052590370178
74 140 0.05634361505508423
74 141 0.07087699323892593
74 142 0.83603435754776
74 144 0.16967356204986572
74 145 0.839972734451294
74 146 0.8386537432670593
74 147 0.8424947261810303
74 148 0.8290390372276306
74 149 0.8460434675216675
74 150 0.8415431976318359
74 151 0.8245445489883423
74 152 0.8247590065002441
74 154 0.14833807945251465
74 155 0.8417381048202515
74 156 0.05270462855696678
74 157 0.8470045328140259
74 158 0.05560706928372383
74 159 0.8524494767189026
74 160 0.30265912413597107
74 161 0.06666666269302368
74 162 0.8432477712631226
74 163 0.14345115423202515
74 164 0.8382318615913391
74 165 0.8221370577812195
74 166 0.8589340448379517
74 167 0.8337783813476562
74 168 0.8348451256752014
74 169 0.8400557041168213
74 171 0.8394103646278381
74 172 0.7950056791305542
74 173 0.8460434675216675
74 174 0.8426885008811951
74 175 0.8436383605003357
74 176 0.840552568435669
74 177 0.8444876074790955
74 179 0.8219209313392639
74 180 0.8621975779533386
74 181 0.8397232294082642
74 182 0.16038013994693756
74 183 0.8524080514907837
74 184 0.8461126685142517
74 186 0.8431150317192078
74 187 0.8472283482551575
74 188 0.3060397505760193
74 189 0.7896203994750977
74 190 0.8567540645599365
74 191 0.8469799757003784
74 192 0.08164965361356735
74 193 0.8448585271835327
74 194 0.14313697814941406
74 195 0.8380952477455139
74 196 0.8321428894996643
74 197 0.12233555316925049
74 198 0.16673265397548676
74 199 0.8257188200950623
74 200 0.7687141299247742
74 201 0.8363214135169983
74 202 0.8337304592132568
74 204 0.10273522138595581
74 205 0.8305625319480896
74 206 0.8102456331253052
74 208 0.8506523370742798
74 209 0.8357142806053162
74 210 0.8713740706443787
74 211 0.41522741317749023
74 212 0.47886985540390015
74 213 0.05060656741261482
74 214 0.8400387763977051
74 215 0.10647942870855331
74 216 0.8601147532463074
74 217 0.8175559043884277
74 218 0.832423746585846
74 219 0.8439205288887024
74 220 0.8503445386886597
74 221 0.7987961173057556
74 222 0.8497785329818726
74 223 0.8567078709602356
74 224 0.1400803178548813
74 225 0.83603435754776
74 226 0.055328331887722015
74 227 0.8245736956596375
74 228 0.8371200561523438
74 229 0.8399186730384827
74 230 0.12046772986650467
74 231 0.4512843191623688
74 232 0.5285997986793518
74 233 0.15231828391551971
74 234 0.8549193739891052
74 235 0.7874666452407837
74 236 0.8503978848457336
74 237 0.855208694934845
74 238 0.8416205048561096
74 239 0.855225145816803
74 240 0.8396856188774109
74 241 0.8435572981834412
74 243 0.8472283482551575
74 244 0.8313475251197815
74 245 0.843568742275238
74 246 0.8165379166603088
74 247 0.8349587917327881
74 248 0.8401012420654297
74 249 0.844253659248352
74 250 0.8480608463287354
74 251 0.07824607938528061
74 252 0.8253063559532166
74 253 0.058321185410022736
74 254 0.840286374092102
74 255 0.7951182723045349
75 76 0.22692136466503143
75 78 0.2268664389848709
75 80 0.22610780596733093
75 81 0.16679006814956665
75 82 0.22360680997371674
75 83 0.21622054278850555
75 84 0.32206445932388306
75 85 0.2282177209854126
75 86 0.26883336901664734
75 87 0.15220388770103455
75 88 0.2247091829776764
75 89 0.07357671856880188
75 91 0.22809897363185883
75 93 0.1962672472000122
75 94 0.2243555784225464
75 95 0.23100170493125916
75 96 0.20539596676826477
75 97 0.21084067225456238
75 98 0.06933753192424774
75 99 0.21784450113773346
75 100 0.22893425822257996
75 101 0.22941572964191437
75 102 0.22668801248073578
75 103 0.12977714836597443
75 105 0.23162052035331726
75 106 0.23046444356441498
75 107 0.2042292356491089
75 108 0.22774375975131989
75 110 0.20537441968917847
75 111 0.22774375975131989
75 112 0.22739019989967346
75 113 0.212977334856987
75 114 0.21184441447257996
75 115 0.22633935511112213
75 116 0.22226852178573608
75 117 0.0834057629108429
75 118 0.22869467735290527
75 119 0.0707106813788414
75 120 0.22869467735290527
75 121 0.22668801248073578
75 122 0.22249755263328552
75 123 0.20985107123851776
75 124 0.16967836022377014
75 125 0.11007906496524811
75 126 0.22857515513896942
75 127 0.23026564717292786
75 128 0.21874749660491943
75 129 0.22657161951065063
75 130 0.07171371579170227
75 131 0.22905434668064117
75 132 0.09773555397987366
75 133 0.10995250195264816
75 135 0.2308785617351532
75 136 0.22238293290138245
75 137 0.22342076897621155
75 138 0.21874749660491943
75 139 0.2122499793767929
75 140 0.21602469682693481
75 142 0.22342076897621155
75 145 0.21531109511852264
75 146 0.22412079572677612
75 147 0.22941572964191437
75 148 0.20328152179718018
75 149 0.2271554172039032
75 150 0.20051854848861694
75 151 0.22614046931266785
75 152 0.22554078698158264
75 153 0.053452249616384506
75 155 0.209090918302536
75 156 0.08660253882408142
75 157 0.22412079572677612
75 158 0.12792041897773743
75 159 0.22181257605552673
75 160 0.14635834097862244
75 162 0.2247091829776764
75 163 0.20000001788139343
75 164 0.2308785617351532
75 165 0.1846044659614563
75 166 0.22680459916591644
75 167 0.22833961248397827
75 168 0.2279803603887558
75 169 0.1935257911682129
75 171 0.2179572880268097
75 172 0.1536049246788025
75 173 0.22261232137680054
75 174 0.17923331260681152
75 175 0.22587697207927704
75 176 0.20454545319080353
75 177 0.21463648974895477
75 178 0.10000000894069672
75 179 0.20823517441749573
75 180 0.21430154144763947
75 181 0.22833669185638428
75 182 0.07529469579458237
75 183 0.18636362254619598
75 184 0.22622349858283997
75 186 0.19688346982002258
75 187 0.16809500753879547
75 189 0.21793851256370544
75 190 0.21252158284187317
75 191 0.20380987226963043
75 193 0.2180691957473755
75 195 0.2282177209854126
75 196 0.21452467143535614
75 199 0.2331262081861496
75 200 0.1920061558485031
75 201 0.22542141377925873
75 202 0.22140748798847198
75 205 0.19932317733764648
75 206 0.23287321627140045
75 208 0.22226852178573608
75 209 0.2236533761024475
75 210 0.1723099648952484
75 211 0.22742940485477448
75 212 0.0951303020119667
75 213 0.16977493464946747
75 214 0.22809897363185883
75 216 0.2140791416168213
75 217 0.22554078698158264
75 218 0.22331620752811432
75 219 0.22786197066307068
75 220 0.2179567813873291
75 221 0.12864038348197937
75 222 0.1948515921831131
75 223 0.22261232137680054
75 224 0.15105263888835907
75 225 0.2188611477613449
75 227 0.1578410416841507
75 228 0.21553294360637665
75 229 0.2140791416168213
75 230 0.057735029608011246
75 231 0.18361838161945343
75 232 0.16941307485103607
75 234 0.15023298561573029
75 235 0.14103496074676514
75 236 0.2034970372915268
75 237 0.20177967846393585
75 238 0.21330608427524567
75 239 0.2026337832212448
75 240 0.22703830897808075
75 241 0.2244732677936554
75 242 0.08944272249937057
75 243 0.2271554172039032
75 244 0.1677597165107727
75 245 0.23034924268722534
75 246 0.18115058541297913
75 247 0.22376996278762817
75 248 0.211062490940094
75 249 0.16161498427391052
75 250 0.21920321881771088
75 252 0.22929508984088898
75 254 0.19678036868572235
75 255 0.21849529445171356
76 77 0.16363531351089478
76 78 0.9497690200805664
76 80 0.9738389849662781
76 81 0.6914580464363098
76 82 0.5919801592826843
76 83 0.9562467336654663
76 84 0.3241085112094879
76 85 0.9642828702926636
76 86 0.5908676385879517
76 87 0.8703655004501343
76 88 0.9615505337715149
76 89 0.36731481552124023
76 90 0.37699007987976074
76 91 0.9668866395950317
76 92 0.22481362521648407
76 93 0.9673900604248047
76 94 0.9610764384269714
76 95 0.9603201746940613
76 96 0.9642828702926636
76 97 0.9600052237510681
76 98 0.32727062702178955
76 99 0.9701338410377502
76 100 0.9610764384269714
76 101 0.9630976319313049
76 102 0.973251461982727
76 103 0.13988372683525085
76 104 0.32446298003196716
76 105 0.9513295292854309
76 106 0.8426997065544128
76 107 0.9701338410377502
76 108 0.973649799823761
76 109 0.09076854586601257
76 110 0.942668616771698
76 111 0.9684817790985107
76 112 0.9711062908172607
76 113 0.9717234969139099
76 114 0.9593502879142761
76 115 0.972781777381897
76 116 0.9716933965682983
76 117 0.20346041023731232
76 118 0.9694117903709412
76 120 0.9621464014053345
76 121 0.9722226858139038
76 122 0.9716641902923584
76 123 0.9648162722587585
76 124 0.9594692587852478
76 125 0.6612164974212646
76 126 0.9626809358596802
76 127 0.9562151432037354
76 128 0.9689844846725464
76 129 0.972751796245575
76 130 0.17900711297988892
76 131 0.9636595845222473
76 132 0.3659416735172272
76 133 0.34930798411369324
76 134 0.22468562424182892
76 135 0.9566647410392761
76 136 0.9701338410377502
76 137 0.9674186110496521
76 138 0.9679503440856934
76 139 0.9343826770782471
76 140 0.14706185460090637
76 141 0.20041151344776154
76 142 0.9653492569923401
76 143 0.09627458453178406
76 144 0.14120271801948547
76 145 0.9605409502983093
76 146 0.9652601480484009
76 147 0.9620563983917236
76 148 0.9519330859184265
76 149 0.969072699546814
76 150 0.9658820629119873
76 151 0.9530133008956909
76 152 0.9577975273132324
76 153 0.1698123961687088
76 154 0.2314153015613556
76 155 0.9695731401443481
76 156 0.15721572935581207
76 157 0.9673359990119934
76 158 0.10643555223941803
76 159 0.9779179096221924
76 160 0.4293815791606903
76 161 0.12428995221853256
76 162 0.9625911712646484
76 163 0.3290359675884247
76 164 0.9577125310897827
76 165 0.9540606141090393
76 166 0.9706640243530273
76 167 0.9527640342712402
76 168 0.9694879651069641
76 169 0.9546313881874084
76 170 0.14706185460090637
76 171 0.9523519277572632
76 172 0.9171547889709473
76 173 0.969072699546814
76 174 0.9322420954704285
76 175 0.9748950004577637
76 176 0.9695731401443481
76 177 0.9647854566574097
76 179 0.950310468673706
76 180 0.9663839340209961
76 181 0.9658217430114746
76 182 0.35026249289512634
76 183 0.96854168176651
76 184 0.9733105897903442
76 185 0.09627458453178406
76 186 0.9610764384269714
76 187 0.969072699546814
76 188 0.46388116478919983
76 189 0.9331924915313721
76 190 0.9519330859184265
76 191 0.9732806086540222
76 192 0.07103762030601501
76 193 0.969072699546814
76 194 0.13231676816940308
76 195 0.9684258699417114
76 196 0.9663543701171875
76 197 0.10643555223941803
76 198 0.2391568422317505
76 199 0.9469335675239563
76 200 0.9138869643211365
76 201 0.962510347366333
76 202 0.9566930532455444
76 204 0.18435178697109222
76 205 0.928305983543396
76 206 0.946962833404541
76 208 0.9706640243530273
76 209 0.9642828702926636
76 210 0.9210413694381714
76 211 0.5883378982543945
76 212 0.47491616010665894
76 213 0.18712414801120758
76 214 0.9658514261245728
76 215 0.22233660519123077
76 216 0.9674481749534607
76 217 0.9557085037231445
76 218 0.9596619606018066
76 219 0.9658820629119873
76 220 0.9716641902923584
76 221 0.8847194910049438
76 222 0.9717234969139099
76 223 0.9711344838142395
76 224 0.270408034324646
76 225 0.9653492569923401
76 226 0.11232034116983414
76 227 0.9470569491386414
76 228 0.9409671425819397
76 229 0.9674481749534607
76 230 0.15721572935581207
76 231 0.629811704158783
76 232 0.6976773142814636
76 233 0.13252142071723938
76 234 0.9669467806816101
76 235 0.8498798608779907
76 236 0.9738389849662781
76 237 0.9625911712646484
76 238 0.9711636900901794
76 239 0.9583052396774292
76 240 0.969603419303894
76 241 0.9615805149078369
76 242 0.1014823243021965
76 243 0.9721654057502747
76 244 0.946419358253479
76 245 0.9344804286956787
76 246 0.9475676417350769
76 247 0.9647854566574097
76 248 0.9599740505218506
76 249 0.9524734020233154
76 250 0.9637491703033447
76 251 0.09076854586601257
76 252 0.9625911712646484
76 253 0.1014823243021965
76 254 0.9626500606536865
76 255 0.8393396735191345
77 78 0.15409329533576965
77 80 0.163048654794693
77 81 0.13344012200832367
77 82 0.1963883489370346
77 83 0.1467321515083313
77 84 0.15534712374210358
77 85 0.164570152759552
77 86 0.2023797631263733
77 87 0.07739190012216568
77 88 0.1335495263338089
77 89 0.27208682894706726
77 90 0.10016708076000214
77 91 0.16448450088500977
77 92 0.13469313085079193
77 93 0.164570152759552
77 94 0.12698988616466522
77 95 0.16657771170139313
77 96 0.12659242749214172
77 97 0.15890401601791382
77 98 0.19230769574642181
77 99 0.1510479897260666
77 100 0.09524241834878922
77 101 0.16543403267860413
77 102 0.16346704959869385
77 105 0.1670239269733429
77 106 0.08716272562742233
77 107 0.15734165906906128
77 108 0.16422836482524872
77 109 0.1386750489473343
77 110 0.16829271614551544
77 111 0.15791189670562744
77 112 0.15766672790050507
77 113 0.1508151888847351
77 114 0.15966050326824188
77 115 0.1569380909204483
77 116 0.16355112195014954
77 117 0.1445787400007248
77 118 0.164914071559906
77 120 0.13954268395900726
77 121 0.15089266002178192
77 122 0.16371963918209076
77 123 0.15183183550834656
77 124 0.15262803435325623
77 125 0.07183632999658585
77 126 0.14580929279327393
77 127 0.16604691743850708
77 128 0.1579938381910324
77 129 0.1633831262588501
77 130 0.16574838757514954
77 131 0.15882061421871185
77 132 0.06776741147041321
77 134 0.10984700918197632
77 135 0.15368205308914185
77 136 0.12587332725524902
77 137 0.14542987942695618
77 138 0.13903459906578064
77 139 0.1504393070936203
77 141 0.15701857209205627
77 142 0.14542987942695618
77 143 0.1307440996170044
77 145 0.133409321308136
77 146 0.14588554203510284
77 147 0.16543403267860413
77 148 0.12172986567020416
77 149 0.1638040989637375
77 150 0.1516740918159485
77 151 0.1344001740217209
77 152 0.1595759093761444
77 153 0.1111873984336853
77 154 0.2719641625881195
77 155 0.13237164914608002
77 156 0.0800640806555748
77 157 0.164914071559906
77 158 0.05913124233484268
77 159 0.16321562230587006
77 160 0.11597858369350433
77 162 0.10811152309179306
77 164 0.16008546948432922
77 165 0.15360018610954285
77 166 0.14467985928058624
77 167 0.1680184006690979
77 168 0.15175290405750275
77 169 0.1469656080007553
77 170 0.17118419706821442
77 171 0.1479107290506363
77 172 0.09984923154115677
77 173 0.13860347867012024
77 174 0.12427594512701035
77 175 0.16288220882415771
77 176 0.1575852781534195
77 177 0.1583230048418045
77 179 0.10267385840415955
77 180 0.14542987942695618
77 181 0.1646559238433838
77 182 0.13921993970870972
77 183 0.15128186345100403
77 184 0.16313208639621735
77 185 0.0653720498085022
77 186 0.12064039707183838
77 187 0.14490364491939545
77 188 0.06356161087751389
77 189 0.15768329799175262
77 190 0.10250935703516006
77 191 0.15701857209205627
77 192 0.06201736629009247
77 193 0.15120378136634827
77 195 0.164570152759552
77 196 0.164570152759552
77 199 0.12931515276432037
77 200 0.16641537845134735
77 201 0.15949146449565887
77 202 0.16631168127059937
77 204 0.2048366218805313
77 205 0.08555594086647034
77 206 0.16792726516723633
77 208 0.14467985928058624
77 209 0.15824052691459656
77 210 0.1659381240606308
77 211 0.11564221233129501
77 212 0.13192199170589447
77 213 0.2018018364906311
77 214 0.13285286724567413
77 216 0.1452789455652237
77 217 0.14042681455612183
77 218 0.1677454262971878
77 219 0.13903459906578064
77 220 0.157422736287117
77 221 0.08233481645584106
77 222 0.1633831262588501
77 223 0.15750394761562347
77 224 0.20947234332561493
77 225 0.12013772130012512
77 227 0.1094430685043335
77 228 0.14944520592689514
77 229 0.1452789455652237
77 230 0.1601281613111496
77 231 0.13711000978946686
77 232 0.16532368957996368
77 234 0.16414323449134827
77 235 0.1521180123090744
77 236 0.163048654794693
77 237 0.16534702479839325
77 238 0.16363531351089478
77 239 0.1468876749277115
77 240 0.16371963918209076
77 241 0.16517344117164612
77 242 0.06201736629009247
77 243 0.15750394761562347
77 244 0.1615561544895172
77 245 0.07171033322811127
77 246 0.1417085826396942
77 247 0.1583230048418045
77 248 0.16543403267860413
77 249 0.12806838750839233
77 250 0.13932424783706665
77 251 0.06933752447366714
77 252 0.15898752212524414
77 253 0.12403473258018494
77 254 0.15865422785282135
77 255 0.05771398916840553
78 80 0.9568325281143188
78 81 0.6875780820846558
78 82 0.5797586441040039
78 83 0.9361213445663452
78 84 0.32415974140167236
78 85 0.947798490524292
78 86 0.5565493702888489
78 87 0.8409335613250732
78 88 0.9448414444923401
78 89 0.3292997181415558
78 90 0.3344266414642334
78 91 0.9441369771957397
78 92 0.1618913859128952
78 93 0.9446285963058472
78 94 0.9486544132232666
78 95 0.9358310103416443
78 96 0.947798490524292
78 97 0.9560167193412781
78 98 0.3210276961326599
78 99 0.9508196115493774
78 100 0.9486544132232666
78 101 0.9389654994010925
78 102 0.9571887850761414
78 103 0.13519321382045746
78 104 0.2938825190067291
78 105 0.9458446502685547
78 106 0.8124005794525146
78 107 0.9497690200805664
78 108 0.9458300471305847
78 109 0.08102373033761978
78 110 0.9324995875358582
78 111 0.9542655348777771
78 112 0.9506785273551941
78 113 0.9525012969970703
78 114 0.9392458200454712
78 115 0.9546686410903931
78 116 0.950330376625061
78 117 0.20273537933826447
78 118 0.9518969655036926
78 119 0.06547705829143524
78 120 0.9529557824134827
78 121 0.9561392664909363
78 122 0.9513096213340759
78 123 0.948361337184906
78 124 0.9384717345237732
78 125 0.6790444254875183
78 126 0.9503412246704102
78 127 0.9381796717643738
78 128 0.9484309554100037
78 129 0.9577463269233704
78 130 0.17154847085475922
78 131 0.9480915069580078
78 132 0.3365531861782074
78 133 0.3591786324977875
78 134 0.1971253901720047
78 135 0.9321252107620239
78 136 0.9592247009277344
78 137 0.944701611995697
78 138 0.9526509046554565
78 139 0.9171885848045349
78 140 0.12859438359737396
78 141 0.15727081894874573
78 142 0.9489237666130066
78 143 0.09821558743715286
78 144 0.13750183582305908
78 145 0.9438494443893433
78 146 0.9413085579872131
78 147 0.9410898685455322
78 148 0.940109133720398
78 149 0.954955518245697
78 150 0.9505409002304077
78 151 0.9412441849708557
78 152 0.9398136734962463
78 153 0.17323601245880127
78 154 0.22246085107326508
78 155 0.9491351842880249
78 156 0.14033721387386322
78 157 0.9508381485939026
78 158 0.10858141630887985
78 159 0.9525727033615112
78 160 0.389636367559433
78 161 0.10143662244081497
78 162 0.9395333528518677
78 163 0.3675004839897156
78 164 0.9331941604614258
78 165 0.9316287040710449
78 166 0.9524306058883667
78 167 0.9245069622993469
78 168 0.9489237666130066
78 169 0.9408108592033386
78 170 0.10001785308122635
78 171 0.9339786767959595
78 172 0.9034203290939331
78 173 0.9507486820220947
78 174 0.9139128923416138
78 175 0.9579473733901978
78 176 0.9533441662788391
78 177 0.9482924938201904
78 179 0.9309053421020508
78 180 0.9457571506500244
78 181 0.9482924938201904
78 182 0.33408358693122864
78 183 0.9533441662788391
78 184 0.9552273154258728
78 185 0.08730274438858032
78 186 0.9412347674369812
78 187 0.9528520703315735
78 188 0.4902105927467346
78 189 0.9081355333328247
78 190 0.9433176517486572
78 191 0.9530611634254456
78 192 0.10352832823991776
78 193 0.9528520703315735
78 194 0.12704415619373322
78 195 0.9520249962806702
78 196 0.9446285963058472
78 197 0.10858141630887985
78 198 0.22797995805740356
78 199 0.9379615187644958
78 200 0.8989754319190979
78 201 0.9371863603591919
78 202 0.9418111443519592
78 204 0.1367771178483963
78 205 0.9184572696685791
78 206 0.9369436502456665
78 208 0.950330376625061
78 209 0.9435719847679138
78 210 0.900829553604126
78 211 0.6072194576263428
78 212 0.4492553174495697
78 213 0.17966757714748383
78 214 0.9441369771957397
78 215 0.18901599943637848
78 216 0.9511022567749023
78 217 0.9440758228302002
78 218 0.9251589179039001
78 219 0.9505409002304077
78 220 0.9523607492446899
78 221 0.8704859614372253
78 222 0.9535502791404724
78 223 0.9570589065551758
78 224 0.26808905601501465
78 225 0.9520903825759888
78 226 0.13095411658287048
78 227 0.9263870120048523
78 228 0.9187204837799072
78 229 0.9500477910041809
78 230 0.14033721387386322
78 231 0.6065420508384705
78 232 0.6681671738624573
78 233 0.14270395040512085
78 234 0.9463937282562256
78 235 0.8355746865272522
78 236 0.9547388553619385
78 237 0.9469646215438843
78 238 0.9518702626228333
78 239 0.9349813461303711
78 240 0.9544631838798523
78 241 0.9502124786376953
78 242 0.10352832823991776
78 243 0.9486452341079712
78 244 0.9234282374382019
78 245 0.9293788075447083
78 246 0.9258112907409668
78 247 0.9430065751075745
78 248 0.9474629163742065
78 249 0.9364010095596313
78 250 0.9430065751075745
78 251 0.09259855002164841
78 252 0.9554576277732849
78 253 0.10352832823991776
78 254 0.9439200162887573
78 255 0.8550574779510498
79 82 0.07453560084104538
79 87 0.05073463171720505
79 92 0.09712858498096466
79 104 0.06681530922651291
79 133 0.061084721237421036
79 160 0.052270837128162384
79 230 0.14433757960796356
79 235 0.05223517119884491
79 255 0.05202269181609154
80 81 0.6831771731376648
80 82 0.6033403277397156
80 83 0.9600998163223267
80 84 0.3166142702102661
80 85 0.9690820574760437
80 86 0.576592206954956
80 87 0.882158100605011
80 88 0.9632877111434937
80 89 0.36599794030189514
80 90 0.3593063950538635
80 91 0.9706407189369202
80 92 0.23279224336147308
80 93 0.9680500030517578
80 94 0.9659129977226257
80 95 0.9589665532112122
80 96 0.9680500030517578
80 97 0.9638180732727051
80 98 0.31041958928108215
80 99 0.9758912920951843
80 100 0.9669482707977295
80 101 0.964832067489624
80 102 0.9759129881858826
80 103 0.12471041828393936
80 104 0.3384071886539459
80 105 0.9552509188652039
80 106 0.8432313799858093
80 107 0.9738389849662781
80 108 0.972218930721283
80 109 0.09044312685728073
80 110 0.9487873911857605
80 111 0.9711889624595642
80 112 0.9727662205696106
80 113 0.9754118919372559
80 114 0.9611173868179321
80 115 0.9785061478614807
80 116 0.9774405360221863
80 117 0.21687500178813934
80 118 0.9659363031387329
80 120 0.9680047035217285
80 121 0.9748879075050354
80 122 0.9784477353096008
80 123 0.969609260559082
80 124 0.9653615951538086
80 125 0.6881279945373535
80 126 0.9695661664009094
80 127 0.9631999731063843
80 128 0.9716930389404297
80 129 0.9764364957809448
80 130 0.18377035856246948
80 131 0.9643480181694031
80 132 0.35910508036613464
80 133 0.35081803798675537
80 134 0.2238800972700119
80 135 0.9594992995262146
80 136 0.9738389849662781
80 137 0.972197949886322
80 138 0.9696322083473206
80 139 0.9427639842033386
80 140 0.14653462171554565
80 141 0.1996930092573166
80 142 0.9711670279502869
80 143 0.09592941403388977
80 144 0.15988236665725708
80 145 0.9643480181694031
80 146 0.9690389037132263
80 147 0.9658695459365845
80 148 0.9568772912025452
80 149 0.9727889895439148
80 150 0.9696322083473206
80 151 0.9579447507858276
80 152 0.960608184337616
80 153 0.16920359432697296
80 154 0.2217169553041458
80 155 0.9743191599845886
80 156 0.13707058131694794
80 157 0.9680047035217285
80 158 0.10605397075414658
80 159 0.9774826169013977
80 160 0.4231146275997162
80 161 0.12384434789419174
80 162 0.9643247127532959
80 163 0.34198808670043945
80 164 0.9594992995262146
80 165 0.9579447507858276
80 166 0.9743635654449463
80 167 0.9504019021987915
80 168 0.9691051244735718
80 169 0.9647529125213623
80 170 0.14653462171554565
80 171 0.9520833492279053
80 172 0.9192934036254883
80 173 0.9727889895439148
80 174 0.9384980797767639
80 175 0.9816144108772278
80 176 0.9722636342048645
80 177 0.9706197381019592
80 179 0.9542276859283447
80 180 0.9691051244735718
80 181 0.9706197381019592
80 182 0.3490067422389984
80 183 0.9722636342048645
80 184 0.9790282249450684
80 185 0.09592941403388977
80 186 0.9659129977226257
80 187 0.9727889895439148
80 188 0.47258174419403076
80 189 0.934131920337677
80 190 0.9568772912025452
80 191 0.975935697555542
80 192 0.08089479058980942
80 193 0.9748435020446777
80 194 0.12408695369958878
80 195 0.9721781611442566
80 196 0.9701141119003296
80 197 0.10605397075414658
80 198 0.24220599234104156
80 199 0.9477555751800537
80 200 0.9192934036254883
80 201 0.9621802568435669
80 202 0.9574350714683533
80 204 0.1836908459663391
80 205 0.9303432106971741
80 206 0.9477801322937012
80 208 0.9743635654449463
80 209 0.9680500030517578
80 210 0.9242327213287354
80 211 0.5845145583152771
80 212 0.4689115583896637
80 213 0.18645328283309937
80 214 0.969609260559082
80 215 0.21230870485305786
80 216 0.972218930721283
80 217 0.9626896977424622
80 218 0.9520136713981628
80 219 0.9696322083473206
80 220 0.9743409156799316
80 221 0.8893786072731018
80 222 0.9774610996246338
80 223 0.9748435020446777
80 224 0.24666911363601685
80 225 0.9701360464096069
80 226 0.10392353683710098
80 227 0.9510093331336975
80 228 0.9481878876686096
80 229 0.970159113407135
80 230 0.1566520780324936
80 231 0.6259569525718689
80 232 0.7150381803512573
80 233 0.13204632699489594
80 234 0.9717150330543518
80 235 0.8444707989692688
80 236 0.9785276055335999
80 237 0.9643247127532959
80 238 0.9758912920951843
80 239 0.9642412662506104
80 240 0.9774209856987
80 241 0.9653838276863098
80 242 0.09100664407014847
80 243 0.9727889895439148
80 244 0.9493482112884521
80 245 0.941759467124939
80 246 0.9525724649429321
80 247 0.9685545563697815
80 248 0.964832067489624
80 249 0.9563671350479126
80 250 0.9685545563697815
80 251 0.09044312685728073
80 252 0.9632877111434937
80 253 0.10111849009990692
80 254 0.9664419293403625
80 255 0.8457407355308533
81 82 0.4112056493759155
81 83 0.6772961616516113
81 84 0.22457002103328705
81 85 0.6983363032341003
81 86 0.42128705978393555
81 87 0.5776965022087097
81 88 0.6678016185760498
81 89 0.23599743843078613
81 90 0.35524681210517883
81 91 0.692119836807251
81 92 0.0934620201587677
81 93 0.6807681322097778
81 94 0.671156644821167
81 95 0.7009276747703552
81 96 0.6690559387207031
81 97 0.686562716960907
81 98 0.2935682535171509
81 99 0.6885466575622559
81 100 0.6887800097465515
81 101 0.6755114793777466
81 102 0.7009264826774597
81 104 0.14144472777843475
81 105 0.7072628140449524
81 106 0.5493711829185486
81 107 0.6856352686882019
81 108 0.6895810961723328
81 109 0.1122625470161438
81 110 0.7066470384597778
81 111 0.6764323115348816
81 112 0.691428005695343
81 113 0.6918458342552185
81 114 0.6898313164710999
81 115 0.6911365985870361
81 116 0.6925572156906128
81 117 0.07356913387775421
81 118 0.6821908354759216
81 120 0.6924603581428528
81 121 0.6922012567520142
81 122 0.69472736120224
81 123 0.696509599685669
81 124 0.6589760184288025
81 125 0.5171565413475037
81 126 0.678901731967926
81 127 0.6735826730728149
81 128 0.6782451272010803
81 129 0.6932992935180664
81 130 0.153347909450531
81 131 0.6744474172592163
81 132 0.17241781949996948
81 133 0.1841735690832138
81 134 0.21596117317676544
81 135 0.6620457172393799
81 136 0.6914580464363098
81 137 0.6742101311683655
81 138 0.6709364652633667
81 139 0.6414574384689331
81 141 0.1307440996170044
81 142 0.6683601140975952
81 143 0.07560154050588608
81 144 0.10886620730161667
81 145 0.6950187683105469
81 146 0.6880590915679932
81 147 0.6666812300682068
81 148 0.6623988747596741
81 149 0.7052861452102661
81 150 0.685553789138794
81 151 0.6690945625305176
81 152 0.683560311794281
81 153 0.07715167850255966
81 154 0.19500327110290527
81 155 0.6837809681892395
81 156 0.15740741789340973
81 157 0.6821908354759216
81 158 0.09573782980442047
81 159 0.6954925656318665
81 160 0.28166675567626953
81 161 0.07027283310890198
81 162 0.6810399889945984
81 163 0.19645945727825165
81 164 0.6664889454841614
81 165 0.6750157475471497
81 166 0.6736428737640381
81 167 0.6651384830474854
81 168 0.6844475865364075
81 169 0.66655033826828
81 170 0.09898564219474792
81 171 0.7050480842590332
81 172 0.6020031571388245
81 173 0.677599310874939
81 174 0.6293544769287109
81 175 0.6839286684989929
81 176 0.695444643497467
81 177 0.6840524673461914
81 178 0.06415002793073654
81 179 0.6604933738708496
81 180 0.6844475865364075
81 181 0.7001650929450989
81 182 0.26968374848365784
81 183 0.6925287246704102
81 184 0.68062424659729
81 186 0.6843741536140442
81 187 0.6834280490875244
81 188 0.3028520941734314
81 189 0.6595272421836853
81 190 0.6594351530075073
81 191 0.6740584373474121
81 192 0.08606629073619843
81 193 0.6863424777984619
81 194 0.07701147347688675
81 195 0.6880881786346436
81 196 0.682232141494751
81 197 0.12309149652719498
81 198 0.07204233855009079
81 199 0.6565268039703369
81 200 0.6635891795158386
81 201 0.6772961616516113
81 202 0.6894516944885254
81 204 0.14213381707668304
81 205 0.6530293226242065
81 206 0.6707532405853271
81 208 0.6823725700378418
81 209 0.6866241693496704
81 210 0.6586156487464905
81 211 0.4765937328338623
81 212 0.40277233719825745
81 213 0.17114534974098206
81 214 0.671634316444397
81 215 0.07856741547584534
81 216 0.6881200671195984
81 217 0.6806075572967529
81 218 0.6819649934768677
81 219 0.675321638584137
81 220 0.6990966796875
81 221 0.6458999514579773
81 222 0.6831251382827759
81 223 0.6950857043266296
81 224 0.2745508849620819
81 225 0.6815225481987
81 226 0.15876321494579315
81 227 0.6596470475196838
81 228 0.6462359428405762
81 229 0.6881200671195984
81 230 0.1388888955116272
81 231 0.5074084401130676
81 232 0.4508146345615387
81 233 0.07284556329250336
81 234 0.6790022253990173
81 235 0.5797035694122314
81 236 0.6889790892601013
81 237 0.6898655295372009
81 238 0.6798124313354492
81 239 0.658811092376709
81 240 0.7005531787872314
81 241 0.6729780435562134
81 242 0.05737753212451935
81 243 0.6965429186820984
81 244 0.6442127823829651
81 245 0.6604374647140503
81 246 0.6674519181251526
81 247 0.6899116039276123
81 248 0.6902285218238831
81 249 0.6872241497039795
81 250 0.6737990379333496
81 252 0.6810399889945984
81 253 0.10041067749261856
81 254 0.6928228139877319
81 255 0.6374161243438721
82 83 0.5623499751091003
82 84 0.14090046286582947
82 85 0.598764181137085
82 86 0.4522785544395447
82 87 0.4972720146179199
82 88 0.5708276033401489
82 89 0.2833443880081177
82 90 0.12113592028617859
82 91 0.5831512212753296
82 92 0.2533837854862213
82 93 0.5630424618721008
82 94 0.5852867364883423
82 95 0.6077901124954224
82 96 0.5732486248016357
82 97 0.5824849009513855
82 98 0.3669360876083374
82 99 0.5869060158729553
82 100 0.5801675915718079
82 101 0.5933574438095093
82 102 0.5981299877166748
82 104 0.25398609042167664
82 105 0.5973334908485413
82 106 0.48605379462242126
82 107 0.5835233330726624
82 108 0.5890331268310547
82 109 0.13043729960918427
82 110 0.6157872080802917
82 111 0.5822431445121765
82 112 0.5982879400253296
82 113 0.5691138505935669
82 114 0.5886905193328857
82 115 0.5988970398902893
82 116 0.5950565934181213
82 117 0.20204269886016846
82 118 0.6000155806541443
82 119 0.05270462855696678
82 120 0.5761513113975525
82 121 0.5778543949127197
82 122 0.5922852754592896
82 123 0.591651976108551
82 124 0.5674095153808594
82 125 0.4319590628147125
82 126 0.5860723257064819
82 127 0.6144350171089172
82 128 0.6029258966445923
82 129 0.604577898979187
82 130 0.19599159061908722
82 131 0.5838863849639893
82 132 0.19577841460704803
82 133 0.21854333579540253
82 134 0.14022235572338104
82 135 0.5868156552314758
82 136 0.5885974168777466
82 137 0.5760509967803955
82 138 0.5876404643058777
82 139 0.5800732970237732
82 140 0.09200873970985413
82 141 0.16878990828990936
82 142 0.6066377758979797
82 143 0.12297745794057846
82 144 0.05270462855696678
82 145 0.5787646174430847
82 146 0.6051293015480042
82 147 0.5933574438095093
82 148 0.5802415609359741
82 149 0.5959770083427429
82 150 0.5689582228660583
82 151 0.5538241267204285
82 152 0.602101743221283
82 153 0.19920478761196136
82 154 0.20464685559272766
82 155 0.596284806728363
82 156 0.053791437298059464
82 157 0.5931971669197083
82 158 0.09534625709056854
82 159 0.5955229997634888
82 160 0.3818117380142212
82 162 0.5520278811454773
82 163 0.24224069714546204
82 164 0.6091869473457336
82 165 0.5589839220046997
82 166 0.5747705698013306
82 167 0.5626831650733948
82 168 0.5692539215087891
82 169 0.6096094250679016
82 170 0.1725163757801056
82 171 0.5720517039299011
82 172 0.49910634756088257
82 173 0.5892045497894287
82 174 0.49042558670043945
82 175 0.6027243733406067
82 176 0.5759568810462952
82 177 0.6041820049285889
82 179 0.560478150844574
82 180 0.5675546526908875
82 181 0.5990762710571289
82 182 0.3039906620979309
82 183 0.596284806728363
82 184 0.5867872834205627
82 185 0.07027283310890198
82 186 0.5716357231140137
82 187 0.5756595730781555
82 188 0.36554771661758423
82 189 0.5614835619926453
82 190 0.5475276708602905
82 191 0.5941404700279236
82 192 0.11666666716337204
82 193 0.5993632078170776
82 195 0.6089703440666199
82 196 0.5970631241798401
82 198 0.12233901768922806
82 199 0.5577760338783264
82 200 0.5742406249046326
82 201 0.5777803063392639
82 202 0.5724387764930725
82 204 0.275240957736969
82 205 0.5164462327957153
82 206 0.6057713031768799
82 208 0.5781515836715698
82 209 0.5766506791114807
82 210 0.5618911385536194
82 211 0.41813915967941284
82 212 0.29780495166778564
82 213 0.14462031424045563
82 214 0.5865515470504761
82 215 0.08367983251810074
82 216 0.5907306671142578
82 217 0.6055325269699097
82 218 0.5652367472648621
82 219 0.5740534067153931
82 220 0.599054217338562
82 221 0.5052290558815002
82 222 0.5927565693855286
82 223 0.6044425964355469
82 224 0.13135266304016113
82 225 0.5896450877189636
82 226 0.07905693352222443
82 227 0.5484461784362793
82 228 0.5465550422668457
82 229 0.5737556219100952
82 230 0.10758287459611893
82 231 0.5290206074714661
82 232 0.6103197336196899
82 233 0.09673016518354416
82 234 0.576851487159729
82 235 0.4302184581756592
82 236 0.5965991020202637
82 237 0.5879182815551758
82 238 0.5869060158729553
82 239 0.5801090598106384
82 240 0.6075155138969421
82 241 0.606080949306488
82 242 0.11666666716337204
82 243 0.57735276222229
82 244 0.581786572933197
82 245 0.5606275200843811
82 246 0.557397186756134
82 247 0.5990762710571289
82 248 0.5950674414634705
82 249 0.5283061861991882
82 250 0.5701435804367065
82 251 0.09316950291395187
82 252 0.586209237575531
82 253 0.0833333358168602
82 254 0.5952130556106567
82 255 0.4556111991405487
83 84 0.3188740909099579
83 85 0.9501606822013855
83 86 0.538870096206665
83 87 0.864752471446991
83 88 0.9462072253227234
83 89 0.3666921854019165
83 90 0.37937188148498535
83 91 0.9507155418395996
83 92 0.218948632478714
83 93 0.9533103704452515
83 94 0.9478779435157776
83 95 0.9383718967437744
83 96 0.9575099945068359
83 97 0.9509817361831665
83 98 0.27751514315605164
83 99 0.9604223966598511
83 100 0.9489311575889587
83 101 0.9467051029205322
83 102 0.9615206122398376
83 103 0.1343320906162262
83 104 0.316601037979126
83 105 0.940885603427887
83 106 0.8313223719596863
83 107 0.9583345651626587
83 108 0.9523782730102539
83 110 0.9276336431503296
83 111 0.9576168656349182
83 112 0.9540380239486694
83 113 0.9610269069671631
83 114 0.943856418132782
83 115 0.9600417017936707
83 116 0.9578415155410767
83 117 0.21103663742542267
83 118 0.9531984329223633
83 119 0.06506000459194183
83 120 0.9489901065826416
83 121 0.9573491811752319
83 122 0.9567395448684692
83 123 0.9549129605293274
83 124 0.9493718147277832
83 125 0.6672720313072205
83 126 0.9484942555427551
83 127 0.9427971243858337
83 128 0.9528725743293762
83 129 0.9589422345161438
83 130 0.15945865213871002
83 131 0.955751359462738
83 132 0.36813151836395264
83 133 0.34002986550331116
83 134 0.2004249095916748
83 135 0.9410580396652222
83 136 0.9604223966598511
83 137 0.9523189067840576
83 138 0.9591621160507202
83 139 0.9254506826400757
83 140 0.14197255671024323
83 141 0.18752290308475494
83 142 0.9554653167724609
83 143 0.07590333372354507
83 144 0.14963801205158234
83 145 0.9515363574028015
83 146 0.950042188167572
83 147 0.9477605223655701
83 148 0.9479362964630127
83 149 0.9593231081962585
83 150 0.9570656418800354
83 151 0.9426800012588501
83 152 0.9433563947677612
83 153 0.14139463007450104
83 154 0.23006609082221985
83 155 0.9545906782150269
83 156 0.15272367000579834
83 157 0.9479379653930664
83 158 0.09808164834976196
83 159 0.9600417017936707
83 160 0.3775358498096466
83 161 0.10079052299261093
83 162 0.9504266977310181
83 163 0.3536585867404938
83 164 0.9410580396652222
83 165 0.9437415599822998
83 166 0.9641019105911255
83 167 0.9379125237464905
83 168 0.9533677101135254
83 169 0.9422375559806824
83 170 0.14907118678092957
83 171 0.9386966824531555
83 172 0.9087073802947998
83 173 0.9551430344581604
83 174 0.9341301918029785
83 175 0.9611978530883789
83 176 0.9587728977203369
83 177 0.9527568221092224
83 179 0.938813328742981
83 180 0.9628069996833801
83 181 0.9496054649353027
83 182 0.3463885188102722
83 183 0.9608640074729919
83 184 0.9616316556930542
83 185 0.09759000688791275
83 186 0.9489311575889587
83 187 0.9624581336975098
83 188 0.43437302112579346
83 189 0.9143389463424683
83 190 0.9447482228279114
83 191 0.9584503173828125
83 192 0.10286889225244522
83 193 0.9582780599594116
83 194 0.13412463665008545
83 195 0.9501606822013855
83 196 0.9522604942321777
83 197 0.1078898087143898
83 198 0.254347026348114
83 199 0.9362771511077881
83 200 0.9009784460067749
83 201 0.9449735879898071
83 202 0.9421783685684204
83 204 0.17554515600204468
83 205 0.9180653691291809
83 206 0.9320471882820129
83 208 0.9567981362342834
83 209 0.9501606822013855
83 210 0.9116063117980957
83 211 0.5580132007598877
83 212 0.4660876393318176
83 213 0.17852318286895752
83 214 0.9507155418395996
83 215 0.20189794898033142
83 216 0.953425943851471
83 217 0.9412388801574707
83 218 0.931037962436676
83 219 0.953920841217041
83 220 0.9556950330734253
83 221 0.8979457020759583
83 222 0.9620692133903503
83 223 0.9551430344581604
83 224 0.25479966402053833
83 225 0.9523189067840576
83 226 0.12198750674724579
83 227 0.9343684911727905
83 228 0.937657356262207
83 229 0.9576168656349182
83 230 0.13280318677425385
83 231 0.5961807370185852
83 232 0.6812307834625244
83 233 0.14179499447345734
83 234 0.9550261497497559
83 235 0.8494767546653748
83 236 0.961139976978302
83 237 0.9483169913291931
83 238 0.9562467336654663
83 239 0.945975124835968
83 240 0.9556950330734253
83 241 0.9483751058578491
83 242 0.09258200228214264
83 243 0.9603680968284607
83 244 0.9304091930389404
83 245 0.9331911206245422
83 246 0.9348722696304321
83 247 0.9517063498497009
83 248 0.9456496834754944
83 249 0.9421201944351196
83 250 0.9569586515426636
83 251 0.09200873970985413
83 252 0.9493718147277832
83 253 0.10286889225244522
83 254 0.9558027386665344
83 255 0.8436279892921448
84 85 0.32276442646980286
84 86 0.27964264154434204
84 87 0.2450972944498062
84 88 0.3114449977874756
84 89 0.300498366355896
84 90 0.2697182595729828
84 91 0.3162084221839905
84 93 0.3131773769855499
84 94 0.2821034789085388
84 95 0.3299364447593689
84 96 0.29719892144203186
84 97 0.3176995813846588
84 98 0.15534712374210358
84 99 0.3145759105682373
84 100 0.28530916571617126
84 101 0.3244587481021881
84 102 0.3237752616405487
84 105 0.3308202922344208
84 106 0.24203604459762573
84 107 0.2700904309749603
84 108 0.3220940828323364
84 110 0.25816991925239563
84 111 0.32528313994407654
84 112 0.30885767936706543
84 113 0.31726372241973877
84 114 0.2966415286064148
84 115 0.3105997145175934
84 116 0.311238169670105
84 117 0.13139036297798157
84 118 0.32664135098457336
84 120 0.30422478914260864
84 121 0.3206009864807129
84 122 0.32109639048576355
84 123 0.27788013219833374
84 124 0.2793372869491577
84 126 0.3104671537876129
84 127 0.30953896045684814
84 128 0.29035425186157227
84 129 0.32360899448394775
84 130 0.11715584248304367
84 131 0.32715505361557007
84 132 0.34214287996292114
84 133 0.0598750039935112
84 134 0.08318902552127838
84 135 0.303896963596344
84 136 0.30822083353996277
84 137 0.30965927243232727
84 138 0.3222613036632538
84 139 0.2939070761203766
84 140 0.2592814862728119
84 141 0.07927525043487549
84 142 0.2936974763870239
84 145 0.2950810492038727
84 146 0.3138318657875061
84 147 0.32124626636505127
84 148 0.27494704723358154
84 149 0.3117195963859558
84 150 0.2935449481010437
84 151 0.30050384998321533
84 152 0.31582027673721313
84 153 0.13098420202732086
84 154 0.28834840655326843
84 155 0.25459638237953186
84 156 0.20211301743984222
84 157 0.32664135098457336
84 158 0.23883256316184998
84 159 0.3232772648334503
84 160 0.15370701253414154
84 162 0.30823421478271484
84 163 0.06126224994659424
84 164 0.32329463958740234
84 165 0.2843477725982666
84 166 0.30806225538253784
84 167 0.3327900171279907
84 168 0.325621098279953
84 169 0.24840779602527618
84 171 0.311694860458374
84 172 0.26550158858299255
84 173 0.2926347553730011
84 174 0.30051174759864807
84 175 0.3194539546966553
84 176 0.3086980879306793
84 177 0.3165379762649536
84 178 0.07001399993896484
84 179 0.25594907999038696
84 180 0.3064669072628021
84 181 0.3197352886199951
84 182 0.17572277784347534
84 183 0.2991507351398468
84 184 0.31994402408599854
84 185 0.06600983440876007
84 186 0.24363480508327484
84 187 0.2926347553730011
84 189 0.3084920644760132
84 190 0.2975897490978241
84 191 0.29807496070861816
84 193 0.2862730920314789
84 194 0.0960584208369255
84 195 0.32276442646980286
84 196 0.3195687234401703
84 197 0.17912441492080688
84 199 0.3297064006328583
84 200 0.1949252188205719
84 201 0.31565314531326294
84 202 0.3197210133075714
84 205 0.27578556537628174
84 206 0.33260947465896606
84 208 0.2890068590641022
84 209 0.3195687234401703
84 210 0.31835848093032837
84 211 0.29192614555358887
84 212 0.24643675982952118
84 213 0.20377066731452942
84 214 0.3002382814884186
84 215 0.057166192680597305
84 216 0.30614882707595825
84 217 0.2320312112569809
84 218 0.32899197936058044
84 219 0.2935449481010437
84 220 0.31473806500434875
84 221 0.14549168944358826
84 222 0.32043635845184326
84 223 0.31808122992515564
84 224 0.3055231273174286
84 225 0.26815855503082275
84 227 0.2600255012512207
84 228 0.31492847204208374
84 229 0.3189050257205963
84 230 0.12126780301332474
84 231 0.11866945773363113
84 232 0.10104060173034668
84 234 0.2773036062717438
84 235 0.3218330144882202
84 236 0.284952849149704
84 237 0.3210773169994354
84 238 0.3050433099269867
84 239 0.30309024453163147
84 240 0.31155887246131897
84 241 0.31753286719322205
84 242 0.21917851269245148
84 243 0.3117195963859558
84 244 0.2642744183540344
84 245 0.3028053045272827
84 246 0.29593849182128906
84 247 0.30374854803085327
84 248 0.29554659128189087
84 249 0.29096516966819763
84 250 0.2909591495990753
84 251 0.07001399993896484
84 252 0.31786656379699707
84 253 0.06262243539094925
84 254 0.2819557189941406
84 255 0.25496214628219604
85 86 0.5767139792442322
85 87 0.855654239654541
85 88 0.9534381031990051
85 89 0.369413286447525
85 90 0.33518508076667786
85 91 0.9661636352539062
85 92 0.2260979413986206
85 93 0.9583333134651184
85 94 0.9602972865104675
85 95 0.9531538486480713
85 96 0.9593750238418579
85 97 0.9592134952545166
85 98 0.329140305519104
85 99 0.9642828702926636
85 100 0.9602972865104675
85 101 0.960222601890564
85 102 0.9674301147460938
85 103 0.1406828761100769
85 104 0.32631659507751465
85 105 0.9493640065193176
85 106 0.8379510641098022
85 107 0.9653186202049255
85 108 0.9605010151863098
85 109 0.09128709137439728
85 110 0.9523149132728577
85 111 0.9656984806060791
85 112 0.9631614685058594
85 113 0.9658991694450378
85 114 0.9522187113761902
85 115 0.9731737375259399
85 116 0.9658570885658264
85 117 0.19986408948898315
85 118 0.9561607241630554
85 119 0.06454972177743912
85 120 0.9655553698539734
85 121 0.968464732170105
85 122 0.964779794216156
85 123 0.9651225209236145
85 124 0.9534381031990051
85 125 0.6842048764228821
85 126 0.9681806564331055
85 127 0.9564228057861328
85 128 0.9620397090911865
85 129 0.9700357913970947
85 130 0.18548521399497986
85 131 0.9545280337333679
85 132 0.3262104392051697
85 133 0.342939168214798
85 134 0.2033723145723343
85 135 0.9505380988121033
85 136 0.9642828702926636
85 137 0.9614989161491394
85 138 0.9630797505378723
85 139 0.925727128982544
85 140 0.1479019969701767
85 141 0.191220223903656
85 142 0.9635801315307617
85 143 0.09682458639144897
85 144 0.11618950217962265
85 145 0.9608009457588196
85 146 0.9572045803070068
85 147 0.9549869298934937
85 148 0.9478819966316223
85 149 0.9642406702041626
85 150 0.9630797505378723
85 151 0.9510850310325623
85 152 0.9569665789604187
85 153 0.17078250646591187
85 154 0.23273733258247375
85 155 0.9626638889312744
85 156 0.15811389684677124
85 157 0.9634675979614258
85 158 0.10704360902309418
85 159 0.971107542514801
85 160 0.4246770739555359
85 161 0.11666666716337204
85 162 0.9544847011566162
85 163 0.353737473487854
85 164 0.9473766088485718
85 165 0.9468720555305481
85 166 0.9658570885658264
85 167 0.9443816542625427
85 168 0.9614989161491394
85 169 0.9537757039070129
85 170 0.14085903763771057
85 171 0.9450926184654236
85 172 0.9081531167030334
85 173 0.9642406702041626
85 174 0.9246507287025452
85 175 0.9711856245994568
85 176 0.9626638889312744
85 177 0.9588328003883362
85 179 0.9441227912902832
85 180 0.9594177603721619
85 181 0.9692549109458923
85 182 0.3637191951274872
85 183 0.9626638889312744
85 184 0.9706104397773743
85 185 0.08606629818677902
85 186 0.9550725817680359
85 187 0.9632037878036499
85 188 0.49791231751441956
85 189 0.9201424717903137
85 190 0.9478819966316223
85 191 0.9664373397827148
85 192 0.10206206887960434
85 193 0.9673510789871216
85 194 0.0861058458685875
85 195 0.9635416865348816
85 196 0.9583333134651184
85 197 0.09731236845254898
85 198 0.23263712227344513
85 199 0.9427666664123535
85 200 0.9147259593009949
85 201 0.9533103704452515
85 202 0.9558424353599548
85 204 0.17978663742542267
85 205 0.9216954708099365
85 206 0.9438693523406982
85 208 0.9648219347000122
85 209 0.9593750238418579
85 210 0.9142873287200928
85 211 0.6020797491073608
85 212 0.4320374131202698
85 213 0.1881931573152542
85 214 0.9588757753372192
85 215 0.19099748134613037
85 216 0.9625800251960754
85 217 0.9580169916152954
85 218 0.939661979675293
85 219 0.9620397090911865
85 220 0.9699612259864807
85 221 0.8796113729476929
85 222 0.9658991694450378
85 223 0.9694247245788574
85 224 0.2719528079032898
85 225 0.9635801315307617
85 226 0.12909944355487823
85 227 0.9408131837844849
85 228 0.9313724040985107
85 229 0.9625800251960754
85 230 0.13834966719150543
85 231 0.6172924637794495
85 232 0.7002310752868652
85 233 0.1406828761100769
85 234 0.9610422849655151
85 235 0.8344694375991821
85 236 0.9680500030517578
85 237 0.9576243758201599
85 238 0.9642828702926636
85 239 0.9490657448768616
85 240 0.9741063714027405
85 241 0.9618464112281799
85 242 0.10206206887960434
85 243 0.9632037878036499
85 244 0.9401276707649231
85 245 0.936600387096405
85 246 0.9434405565261841
85 247 0.9682126641273499
85 248 0.9570811986923218
85 249 0.9494842290878296
85 250 0.9577906131744385
85 251 0.07987620681524277
85 252 0.9555312395095825
85 253 0.10206206887960434
85 254 0.95561683177948
85 255 0.8417602181434631
86 87 0.41891708970069885
86 88 0.5600631833076477
86 89 0.2401842474937439
86 90 0.1525718867778778
86 91 0.569405734539032
86 92 0.1641288548707962
86 93 0.5784668922424316
86 94 0.5609403252601624
86 95 0.5908463597297668
86 96 0.5661963820457458
86 97 0.5544881224632263
86 98 0.2929180860519409
86 99 0.5769239068031311
86 100 0.5503897070884705
86 101 0.5726928114891052
86 102 0.5780718326568604
86 103 0.1370616853237152
86 104 0.21041417121887207
86 105 0.5639640688896179
86 106 0.5250212550163269
86 107 0.5751808881759644
86 108 0.5860118865966797
86 109 0.11521430313587189
86 110 0.5772111415863037
86 111 0.5720176100730896
86 112 0.5728761553764343
86 113 0.5638527274131775
86 114 0.5624338388442993
86 115 0.5823982357978821
86 116 0.5801112055778503
86 117 0.13613511621952057
86 118 0.576162576675415
86 119 0.05431254580616951
86 120 0.5638664364814758
86 121 0.5728483200073242
86 122 0.5789650678634644
86 123 0.548381507396698
86 124 0.5442123413085938
86 125 0.34317848086357117
86 126 0.5653274655342102
86 127 0.585426390171051
86 128 0.575814962387085
86 129 0.5829958319664001
86 130 0.2570538818836212
86 131 0.5805873870849609
86 132 0.2721295654773712
86 133 0.26274579763412476
86 134 0.15210555493831635
86 135 0.5763444304466248
86 136 0.5507792830467224
86 137 0.5551007986068726
86 138 0.5565627813339233
86 139 0.5017646551132202
86 140 0.16592755913734436
86 141 0.2609090209007263
86 142 0.5691096782684326
86 143 0.10862508416175842
86 145 0.5717906355857849
86 146 0.5744060277938843
86 147 0.5815034508705139
86 148 0.550037145614624
86 149 0.5827532410621643
86 150 0.5548125505447388
86 151 0.5565407872200012
86 152 0.5815808176994324
86 153 0.20528213679790497
86 154 0.2711446285247803
86 155 0.5673431754112244
86 156 0.19955703616142273
86 157 0.5691362023353577
86 158 0.13100677728652954
86 159 0.5841367244720459
86 160 0.4295941889286041
86 161 0.08414063602685928
86 162 0.5618243217468262
86 163 0.2544316053390503
86 164 0.5763444304466248
86 165 0.5724925994873047
86 166 0.5487538576126099
86 167 0.5494253635406494
86 168 0.579616367816925
86 169 0.539727509021759
86 170 0.22518740594387054
86 171 0.5556653141975403
86 172 0.49958527088165283
86 173 0.5653055310249329
86 174 0.5198788642883301
86 175 0.5846783518791199
86 176 0.5638518333435059
86 177 0.561229944229126
86 179 0.5544741153717041
86 180 0.572611927986145
86 181 0.5752606987953186
86 182 0.3951956033706665
86 183 0.5498864650726318
86 184 0.5664615631103516
86 185 0.12672926485538483
86 186 0.5433560013771057
86 187 0.5408787727355957
86 188 0.23235690593719482
86 189 0.6040868759155273
86 190 0.49503347277641296
86 191 0.5600847601890564
86 193 0.5653055310249329
86 194 0.052690908312797546
86 195 0.5819727182388306
86 196 0.58372563123703
86 198 0.09953000396490097
86 199 0.5461426377296448
86 200 0.5512028932571411
86 201 0.5759726166725159
86 202 0.5668736100196838
86 204 0.28363803029060364
86 205 0.495749831199646
86 206 0.583112359046936
86 208 0.5714008212089539
86 209 0.5924903154373169
86 210 0.47425591945648193
86 211 0.39595827460289
86 212 0.21920742094516754
86 213 0.29806479811668396
86 214 0.5588935613632202
86 215 0.20382286608219147
86 216 0.547527551651001
86 217 0.5851162672042847
86 218 0.5753340125083923
86 219 0.5495619773864746
86 220 0.5737335085868835
86 221 0.4237346351146698
86 222 0.5673332810401917
86 223 0.5635607838630676
86 224 0.29650282859802246
86 225 0.5673585534095764
86 227 0.5455663800239563
86 228 0.5362375378608704
86 229 0.5615218281745911
86 230 0.1662975251674652
86 231 0.5858436226844788
86 232 0.4843555986881256
86 234 0.5577340722084045
86 235 0.4272949695587158
86 236 0.569645345211029
86 237 0.5494959354400635
86 238 0.5734379887580872
86 239 0.5447472333908081
86 240 0.5876843929290771
86 241 0.5665125846862793
86 242 0.13740107417106628
86 243 0.5757741928100586
86 244 0.5494253635406494
86 245 0.5091255903244019
86 246 0.5654829740524292
86 247 0.5840299129486084
86 248 0.5568336248397827
86 249 0.5497438907623291
86 250 0.554214596748352
86 252 0.5776752233505249
86 253 0.08587567508220673
86 254 0.5501014590263367
86 255 0.3596254587173462
87 88 0.8562036752700806
87 89 0.3390706479549408
87 90 0.3939487040042877
87 91 0.867938756942749
87 92 0.2266780138015747
87 93 0.8776534199714661
87 94 0.8525333404541016
87 95 0.8485125303268433
87 96 0.8718641996383667
87 97 0.8557538986206055
87 98 0.20403319597244263
87 99 0.8772731423377991
87 100 0.8711172342300415
87 101 0.8566541075706482
87 102 0.8729208707809448
87 104 0.3220357596874237
87 105 0.8413845896720886
87 106 0.7507134079933167
87 107 0.871516764163971
87 108 0.8712089657783508
87 110 0.8383036851882935
87 111 0.8688980937004089
87 112 0.8710101842880249
87 113 0.8736221194267273
87 114 0.8773514628410339
87 115 0.8681332468986511
87 116 0.8687669634819031
87 117 0.08463121205568314
87 118 0.8713657259941101
87 120 0.851641058921814
87 121 0.8637201189994812
87 122 0.8731178045272827
87 123 0.8725677132606506
87 124 0.8794700503349304
87 125 0.5716228485107422
87 126 0.8627927303314209
87 127 0.8528183102607727
87 128 0.8647248148918152
87 129 0.8678746223449707
87 130 0.10308711975812912
87 131 0.8587909936904907
87 132 0.3285057544708252
87 133 0.21383866667747498
87 134 0.1758216768503189
87 135 0.8574309945106506
87 136 0.8726680278778076
87 137 0.8836805820465088
87 138 0.8739732503890991
87 139 0.857884407043457
87 140 0.09394227713346481
87 141 0.11489132046699524
87 142 0.8582342863082886
87 143 0.09566613286733627
87 144 0.1721990406513214
87 145 0.8669257164001465
87 146 0.8690451383590698
87 147 0.857818067073822
87 148 0.8508564829826355
87 149 0.8689582943916321
87 150 0.8705050945281982
87 151 0.8464376926422119
87 152 0.8547017574310303
87 153 0.12203460186719894
87 154 0.16914795339107513
87 155 0.8717132210731506
87 156 0.05858330428600311
87 157 0.8586027026176453
87 158 0.07571661472320557
87 159 0.877319872379303
87 160 0.4030951261520386
87 161 0.09262833744287491
87 162 0.8829600214958191
87 163 0.2187931090593338
87 164 0.849231481552124
87 165 0.8628278970718384
87 166 0.877972424030304
87 167 0.8463941812515259
87 168 0.8628608584403992
87 169 0.8637906312942505
87 170 0.08611375838518143
87 171 0.8552290201187134
87 172 0.8353217244148254
87 173 0.8666533827781677
87 174 0.8530985116958618
87 175 0.8686516880989075
87 176 0.869407057762146
87 177 0.8630510568618774
87 179 0.8498741388320923
87 180 0.8813672661781311
87 181 0.8711602091789246
87 182 0.26740339398384094
87 183 0.8763254284858704
87 184 0.8676888346672058
87 186 0.8676327466964722
87 187 0.870110809803009
87 188 0.3534635603427887
87 189 0.8184605836868286
87 190 0.8660922050476074
87 191 0.870876133441925
87 193 0.8666533827781677
87 194 0.1305137574672699
87 195 0.868390679359436
87 196 0.8579699993133545
87 197 0.08653327077627182
87 198 0.16216376423835754
87 199 0.8515851497650146
87 200 0.8097506165504456
87 201 0.8635854125022888
87 202 0.853007972240448
87 204 0.1498800367116928
87 205 0.8872592449188232
87 206 0.8305758833885193
87 208 0.8756710886955261
87 209 0.8637592196464539
87 210 0.8596380352973938
87 211 0.46923425793647766
87 212 0.48987963795661926
87 213 0.09228716045618057
87 214 0.879511296749115
87 215 0.18123283982276917
87 216 0.8816080093383789
87 217 0.8500312566757202
87 218 0.8627220392227173
87 219 0.8577885627746582
87 220 0.8777253031730652
87 221 0.8082846999168396
87 222 0.8805190920829773
87 223 0.8747206926345825
87 224 0.11921156197786331
87 225 0.8628608584403992
87 227 0.8479065895080566
87 228 0.8664785623550415
87 229 0.8642762899398804
87 230 0.13913534581661224
87 231 0.5141611099243164
87 232 0.6112077236175537
87 233 0.1069931611418724
87 234 0.881151020526886
87 235 0.7605878114700317
87 236 0.8695393800735474
87 237 0.8666735291481018
87 238 0.8692142367362976
87 239 0.8925386667251587
87 240 0.8662065863609314
87 241 0.8576288819313049
87 243 0.8655009269714355
87 244 0.8546690344810486
87 245 0.8502658605575562
87 246 0.8518986701965332
87 247 0.8642094731330872
87 248 0.8624737858772278
87 249 0.8632877469062805
87 250 0.8757940530776978
87 251 0.06341829150915146
87 252 0.8538769483566284
87 253 0.07941225916147232
87 254 0.8729827404022217
87 255 0.7772891521453857
88 89 0.326168417930603
88 90 0.32296544313430786
88 91 0.9539879560470581
88 92 0.2093484103679657
88 93 0.9555312395095825
88 94 0.9595812559127808
88 95 0.9417632222175598
88 96 0.9565778374671936
88 97 0.9511299729347229
88 98 0.3084357976913452
88 99 0.9605098962783813
88 100 0.9532820582389832
88 101 0.9479222893714905
88 102 0.9605617523193359
88 103 0.1413469761610031
88 104 0.33398520946502686
88 105 0.9410994052886963
88 106 0.8431077599525452
88 107 0.9625911712646484
88 108 0.9556355476379395
88 109 0.08025328069925308
88 110 0.9321945309638977
88 111 0.960857629776001
88 112 0.9583232402801514
88 113 0.9642246961593628
88 114 0.9461541771888733
88 115 0.9621982574462891
88 116 0.9620958566665649
88 117 0.21515098214149475
88 118 0.9512355923652649
88 119 0.0648544430732727
88 120 0.9564794301986694
88 121 0.9647200703620911
88 122 0.9589225649833679
88 123 0.9539879560470581
88 124 0.9516298770904541
88 125 0.6918890476226807
88 126 0.954931378364563
88 127 0.9450982213020325
88 128 0.9571766257286072
88 129 0.961107611656189
88 130 0.19184201955795288
88 131 0.9495803117752075
88 132 0.36136579513549805
88 133 0.3753722310066223
88 134 0.213413804769516
88 135 0.9454962015151978
88 136 0.9615505337715149
88 137 0.957673966884613
88 138 0.9550866484642029
88 139 0.9225266575813293
88 140 0.14860020577907562
88 141 0.1921229064464569
88 142 0.9587194323539734
88 143 0.09728167206048965
88 144 0.16213610768318176
88 145 0.9516811370849609
88 146 0.9533331394195557
88 147 0.9489744305610657
88 148 0.9438818693161011
88 149 0.9583754539489746
88 150 0.9624013900756836
88 151 0.9449926614761353
88 152 0.9477636814117432
88 153 0.15320421755313873
88 154 0.20235809683799744
88 155 0.9630393385887146
88 156 0.15886029601097107
88 157 0.9533331394195557
88 158 0.09777174890041351
88 159 0.9621982574462891
88 160 0.41229933500289917
88 161 0.12559008598327637
88 162 0.9526813626289368
88 163 0.35827356576919556
88 164 0.9433786273002625
88 165 0.9460508227348328
88 166 0.9620958566665649
88 167 0.9338805675506592
88 168 0.9566284418106079
88 169 0.944543182849884
88 170 0.14860020577907562
88 171 0.9421108365058899
88 172 0.92014479637146
88 173 0.9646257758140564
88 174 0.925771176815033
88 175 0.9643759727478027
88 176 0.9578281044960022
88 177 0.9539351463317871
88 179 0.9528239369392395
88 180 0.9555829167366028
88 181 0.9528879523277283
88 182 0.3452940881252289
88 183 0.9588702917098999
88 184 0.9627431631088257
88 185 0.09728167206048965
88 186 0.9574815034866333
88 187 0.9604588747024536
88 188 0.4897530972957611
88 189 0.921227216720581
88 190 0.9449412226676941
88 191 0.9637300968170166
88 192 0.09228949248790741
88 193 0.9594172239303589
88 194 0.13370086252689362
88 195 0.9534381031990051
88 196 0.9544847011566162
88 197 0.09777174890041351
88 198 0.26542824506759644
88 199 0.9397335052490234
88 200 0.9157421588897705
88 201 0.9493718147277832
88 202 0.9466051459312439
88 204 0.16370078921318054
88 205 0.9206055998802185
88 206 0.9387137293815613
88 208 0.9620958566665649
88 209 0.9534381031990051
88 210 0.9087260365486145
88 211 0.5840625762939453
88 212 0.4471646547317505
88 213 0.1779591143131256
88 214 0.9592181444168091
88 215 0.21998192369937897
88 216 0.9556355476379395
88 217 0.948819100856781
88 218 0.9366304278373718
88 219 0.9613564014434814
88 220 0.9589225649833679
88 221 0.8883017301559448
88 222 0.9631856679916382
88 223 0.9583754539489746
88 224 0.2616913914680481
88 225 0.957673966884613
88 226 0.1297088861465454
88 227 0.9420610070228577
88 228 0.9303973317146301
88 229 0.9556355476379395
88 230 0.15886029601097107
88 231 0.6250645518302917
88 232 0.6891494393348694
88 233 0.13390766084194183
88 234 0.9561842679977417
88 235 0.8240360021591187
88 236 0.9653615951538086
88 237 0.9516298770904541
88 238 0.963631808757782
88 239 0.9482661485671997
88 240 0.9589225649833679
88 241 0.9516811370849609
88 242 0.09228949248790741
88 243 0.9604588747024536
88 244 0.9360175728797913
88 245 0.930242657661438
88 246 0.9425690174102783
88 247 0.9528879523277283
88 248 0.9489744305610657
88 249 0.9423198103904724
88 250 0.9549822211265564
88 251 0.09171804040670395
88 252 0.9547844529151917
88 253 0.09228949248790741
88 254 0.9527828097343445
88 255 0.8552767634391785
89 90 0.2509652078151703
89 91 0.37201812863349915
89 92 0.19057074189186096
89 93 0.36381614208221436
89 94 0.3284625709056854
89 95 0.37391966581344604
89 96 0.35262176394462585
89 97 0.3344280421733856
89 98 0.0935298502445221
89 99 0.35896679759025574
89 100 0.3200404644012451
89 101 0.36572593450546265
89 102 0.3641573190689087
89 104 0.20483547449111938
89 105 0.3578794300556183
89 106 0.25370997190475464
89 107 0.3367052674293518
89 108 0.3714388310909271
89 109 0.09197089821100235
89 110 0.34915050864219666
89 111 0.3490966558456421
89 112 0.3513431251049042
89 113 0.35841354727745056
89 114 0.3699045181274414
89 115 0.36359724402427673
89 116 0.36434462666511536
89 117 0.07670903205871582
89 118 0.37018531560897827
89 120 0.3421410024166107
89 121 0.3558178246021271
89 122 0.36750414967536926
89 123 0.3496410846710205
89 124 0.3627218008041382
89 125 0.18263030052185059
89 126 0.36718887090682983
89 127 0.3699045181274414
89 128 0.35486629605293274
89 129 0.369527131319046
89 131 0.3623409867286682
89 132 0.17977653443813324
89 135 0.3623954653739929
89 136 0.3311398923397064
89 137 0.36064207553863525
89 138 0.3688373863697052
89 139 0.3412528932094574
89 140 0.13245323300361633
89 141 0.08330923318862915
89 142 0.3466636836528778
89 145 0.35391440987586975
89 146 0.3589676022529602
89 147 0.3713524639606476
89 148 0.33426153659820557
89 149 0.36212262511253357
89 150 0.3408952057361603
89 151 0.3225865364074707
89 152 0.3499531149864197
89 154 0.3006162941455841
89 155 0.31771767139434814
89 156 0.10619884729385376
89 157 0.3729897439479828
89 158 0.07843304425477982
89 159 0.369148313999176
89 160 0.07050848007202148
89 162 0.3514745831489563
89 164 0.35956424474716187
89 165 0.34522420167922974
89 166 0.3587821125984192
89 167 0.36858198046684265
89 168 0.3522550165653229
89 169 0.3446740508079529
89 170 0.13245323300361633
89 171 0.32698705792427063
89 172 0.2589983642101288
89 173 0.337052583694458
89 174 0.34703683853149414
89 175 0.35731470584869385
89 176 0.3483746349811554
89 177 0.3668058216571808
89 179 0.26670342683792114
89 180 0.3634377419948578
89 181 0.37240585684776306
89 182 0.20774763822555542
89 183 0.35952264070510864
89 184 0.36895936727523804
89 186 0.3144257068634033
89 187 0.34819480776786804
89 188 0.05620639771223068
89 189 0.331161767244339
89 190 0.33426153659820557
89 191 0.3498987853527069
89 193 0.35376593470573425
89 195 0.369413286447525
89 196 0.37221187353134155
89 197 0.07843304425477982
89 199 0.33161813020706177
89 200 0.2354530543088913
89 201 0.34976792335510254
89 202 0.3620097041130066
89 204 0.21132226288318634
89 205 0.32008135318756104
89 206 0.3626706600189209
89 208 0.3448758125305176
89 209 0.36381614208221436
89 210 0.3785792291164398
89 211 0.30213284492492676
89 212 0.19831563532352448
89 213 0.19332057237625122
89 214 0.34684398770332336
89 215 0.06257827579975128
89 216 0.3574749827384949
89 217 0.33019769191741943
89 218 0.37368831038475037
89 219 0.32971829175949097
89 220 0.37028828263282776
89 221 0.23965708911418915
89 222 0.369527131319046
89 223 0.3649081885814667
89 224 0.16465124487876892
89 225 0.3354809880256653
89 227 0.2732570767402649
89 228 0.3504893481731415
89 229 0.36585330963134766
89 230 0.0884990468621254
89 231 0.16887548565864563
89 232 0.2769968509674072
89 234 0.36287233233451843
89 235 0.3490990698337555
89 236 0.34658896923065186
89 237 0.36553359031677246
89 238 0.3645321726799011
89 239 0.36708083748817444
89 240 0.36750414967536926
89 241 0.3651498258113861
89 242 0.054840851575136185
89 243 0.3704792559146881
89 244 0.35143861174583435
89 245 0.3112960755825043
89 246 0.3446035087108612
89 247 0.3472054898738861
89 248 0.35728609561920166
89 249 0.33974573016166687
89 250 0.33040523529052734
89 252 0.3205448389053345
89 253 0.054840851575136185
89 254 0.36196136474609375
89 255 0.2838846743106842
90 91 0.3652164936065674
90 93 0.3791438043117523
90 94 0.2811165750026703
90 95 0.36986419558525085
90 96 0.35991185903549194
90 97 0.3641798198223114
90 98 0.1502506285905838
90 99 0.37699007987976074
90 100 0.33348140120506287
90 101 0.3507537841796875
90 102 0.376602441072464
90 104 0.08847980201244354
90 105 0.3792201578617096
90 106 0.1702512949705124
90 107 0.34694012999534607
90 108 0.3701311945915222
90 109 0.09028938412666321
90 110 0.33995741605758667
90 111 0.3619060516357422
90 112 0.3668191432952881
90 113 0.37095385789871216
90 114 0.3825460374355316
90 115 0.3542247414588928
90 116 0.36314406991004944
90 118 0.3799361288547516
90 120 0.3248729407787323
90 121 0.36568641662597656
90 122 0.3744511306285858
90 123 0.3707084655761719
90 124 0.36437124013900757
90 125 0.12862198054790497
90 126 0.34121349453926086
90 127 0.3520532250404358
90 128 0.3566076457500458
90 129 0.37640905380249023
90 131 0.3805336654186249
90 132 0.30150318145751953
90 134 0.23839952051639557
90 135 0.33075466752052307
90 136 0.36606281995773315
90 137 0.367771178483963
90 138 0.3703233301639557
90 139 0.3605656325817108
90 141 0.06815507262945175
90 142 0.3293473422527313
90 144 0.06810051947832108
90 145 0.3612312376499176
90 146 0.3744298219680786
90 147 0.3562774956226349
90 148 0.33371207118034363
90 149 0.3773789405822754
90 150 0.3593508005142212
90 151 0.31391069293022156
90 152 0.3629491329193115
90 154 0.24790090322494507
90 155 0.35294944047927856
90 156 0.06950480490922928
90 157 0.3551577031612396
90 158 0.05133269727230072
90 159 0.37602320313453674
90 160 0.16360938549041748
90 162 0.37817320227622986
90 164 0.3641081154346466
90 165 0.358358234167099
90 166 0.36041364073753357
90 167 0.36184313893318176
90 168 0.35404840111732483
90 169 0.3411458730697632
90 170 0.09287970513105392
90 171 0.37962767481803894
90 172 0.34383299946784973
90 173 0.31174781918525696
90 174 0.3634047210216522
90 175 0.33990490436553955
90 176 0.3693656623363495
90 177 0.3738436996936798
90 179 0.3509599268436432
90 180 0.3760048747062683
90 181 0.37109482288360596
90 182 0.15862728655338287
90 183 0.37210172414779663
90 184 0.34859657287597656
90 186 0.33899348974227905
90 187 0.3691750168800354
90 189 0.3507734537124634
90 190 0.3448357880115509
90 191 0.3653111457824707
90 193 0.3527672588825226
90 194 0.16516801714897156
90 195 0.3763963580131531
90 196 0.3736489415168762
90 197 0.20533078908920288
90 199 0.35081368684768677
90 200 0.31782883405685425
90 201 0.3516804873943329
90 202 0.3553910553455353
90 204 0.19264015555381775
90 205 0.37707510590553284
90 206 0.3560399115085602
90 208 0.3658744692802429
90 209 0.3626592457294464
90 210 0.3947061598300934
90 211 0.10951712727546692
90 212 0.5554385781288147
90 214 0.36247050762176514
90 216 0.372872918844223
90 217 0.2798309922218323
90 218 0.38085827231407166
90 219 0.34014883637428284
90 220 0.37718436121940613
90 221 0.3305768072605133
90 222 0.3736814558506012
90 223 0.37464430928230286
90 224 0.060615334659814835
90 225 0.30739083886146545
90 227 0.36327025294303894
90 228 0.3779253661632538
90 229 0.37561464309692383
90 230 0.06950480490922928
90 231 0.14453305304050446
90 232 0.11330520361661911
90 233 0.058587491512298584
90 234 0.3781602680683136
90 235 0.33642807602882385
90 236 0.3593063950538635
90 237 0.37817320227622986
90 238 0.34420832991600037
90 239 0.37977394461631775
90 240 0.3662514388561249
90 241 0.3584737181663513
90 242 0.05383818596601486
90 243 0.36370575428009033
90 244 0.34220823645591736
90 245 0.33956068754196167
90 246 0.3522825241088867
90 247 0.3463551700115204
90 248 0.3618011772632599
90 249 0.3696669638156891
90 250 0.3738436996936798
90 252 0.33676737546920776
90 253 0.080757275223732
90 254 0.3773804008960724
90 255 0.31627118587493896
91 92 0.2171183079481125
91 93 0.9609580039978027
91 94 0.9577087163925171
91 95 0.9516040086746216
91 96 0.9619991183280945
91 97 0.954532265663147
91 98 0.3226426839828491
91 99 0.9668866395950317
91 100 0.9577087163925171
91 101 0.958676278591156
91 102 0.9689948558807373
91 103 0.14060963690280914
91 104 0.3383391797542572
91 105 0.9478132724761963
91 106 0.8387097120285034
91 107 0.9648162722587585
91 108 0.9631180763244629
91 109 0.0912395790219307
91 110 0.9443665146827698
91 111 0.9620791673660278
91 112 0.9657723307609558
91 113 0.9664300680160522
91 114 0.9538241624832153
91 115 0.9716347455978394
91 116 0.9663891196250916
91 117 0.18549148738384247
91 118 0.9577497839927673
91 120 0.9619230031967163
91 121 0.9700289964675903
91 122 0.9746351838111877
91 123 0.9635796546936035
91 124 0.9581721425056458
91 125 0.6764639019966125
91 126 0.9645485877990723
91 127 0.9517232179641724
91 128 0.9625784754753113
91 129 0.9695308804512024
91 130 0.11995738744735718
91 131 0.9561212062835693
91 132 0.34833404421806335
91 133 0.3288273513317108
91 134 0.21681755781173706
91 135 0.9521499276161194
91 136 0.9648162722587585
91 137 0.9599584937095642
91 138 0.9615389704704285
91 139 0.9381557703018188
91 140 0.14782503247261047
91 141 0.1911206990480423
91 142 0.9620386362075806
91 143 0.09677419811487198
91 144 0.1483871042728424
91 145 0.9592560529708862
91 146 0.9567064642906189
91 147 0.9544899463653564
91 148 0.9484425187110901
91 149 0.9658114314079285
91 150 0.9625784754753113
91 151 0.9516426920890808
91 152 0.9512190222740173
91 153 0.17069363594055176
91 154 0.23261621594429016
91 155 0.9631996750831604
91 156 0.15803158283233643
91 157 0.9608796834945679
91 158 0.10698790103197098
91 159 0.9695696234703064
91 160 0.41730234026908875
91 161 0.10827695578336716
91 162 0.9571260213851929
91 163 0.3307434618473053
91 164 0.9468836188316345
91 165 0.9474319219589233
91 166 0.9684584736824036
91 167 0.9396384358406067
91 168 0.96099853515625
91 169 0.9543302655220032
91 170 0.14782503247261047
91 171 0.9435429573059082
91 172 0.9076804518699646
91 173 0.9647751450538635
91 174 0.9273970723152161
91 175 0.9696497917175293
91 176 0.9642365574836731
91 177 0.9583338499069214
91 179 0.9446869492530823
91 180 0.9630786776542664
91 181 0.9708338975906372
91 182 0.36352992057800293
91 183 0.9631996750831604
91 184 0.9721693396568298
91 185 0.09677419811487198
91 186 0.9556199312210083
91 187 0.9647751450538635
91 188 0.4913802444934845
91 189 0.9229057431221008
91 190 0.9505501985549927
91 191 0.9669674634933472
91 192 0.06120537221431732
91 193 0.9647751450538635
91 194 0.10170848667621613
91 195 0.9619991183280945
91 196 0.9588757753372192
91 197 0.09726172685623169
91 198 0.2206931859254837
91 199 0.9433395266532898
91 200 0.9098702073097229
91 201 0.9517649412155151
91 202 0.9490321278572083
91 204 0.1796930581331253
91 205 0.9287933707237244
91 206 0.938066303730011
91 208 0.9653544425964355
91 209 0.9609580039978027
91 210 0.9149033427238464
91 211 0.5983079075813293
91 212 0.44917184114456177
91 213 0.18809522688388824
91 214 0.9614984393119812
91 215 0.21883438527584076
91 216 0.9641570448875427
91 217 0.9533188343048096
91 218 0.9476627111434937
91 219 0.9615389704704285
91 220 0.9704921841621399
91 221 0.8814106583595276
91 222 0.9664300680160522
91 223 0.9668476581573486
91 224 0.27181127667427063
91 225 0.9620386362075806
91 226 0.12096773833036423
91 227 0.9413824081420898
91 228 0.9383689165115356
91 229 0.9631180763244629
91 230 0.14486229419708252
91 231 0.6201929450035095
91 232 0.7098852396011353
91 233 0.11840812116861343
91 234 0.962618887424469
91 235 0.8399925827980042
91 236 0.9685777425765991
91 237 0.9539879560470581
91 238 0.9668866395950317
91 239 0.9517232179641724
91 240 0.9725637435913086
91 241 0.9582111239433289
91 242 0.10200896114110947
91 243 0.9647751450538635
91 244 0.9385754466056824
91 245 0.9307514429092407
91 246 0.9429495334625244
91 247 0.9625005125999451
91 248 0.9555364847183228
91 249 0.9489901065826416
91 250 0.9583338499069214
91 251 0.07983463257551193
91 252 0.9539879560470581
91 253 0.0816071629524231
91 254 0.957207202911377
91 255 0.8413221836090088
92 93 0.2260979413986206
92 94 0.19123013317584991
92 95 0.21090658009052277
92 96 0.20836476981639862
92 97 0.2092384248971939
92 99 0.22040550410747528
92 100 0.2090189903974533
92 101 0.22728481888771057
92 102 0.2025645673274994
92 104 0.4023599624633789
92 105 0.18897458910942078
92 106 0.2187594175338745
92 107 0.23362983763217926
92 108 0.23447653651237488
92 110 0.22214514017105103
92 111 0.1990838497877121
92 112 0.20760925114154816
92 113 0.23326978087425232
92 114 0.22365376353263855
92 115 0.215443417429924
92 116 0.2335096150636673
92 117 0.14176896214485168
92 118 0.22212789952754974
92 119 0.0686802789568901
92 120 0.19102999567985535
92 121 0.2025645673274994
92 122 0.21169832348823547
92 123 0.22154928743839264
92 124 0.23161950707435608
92 125 0.10062892735004425
92 126 0.20869110524654388
92 127 0.22365376353263855
92 128 0.23017187416553497
92 129 0.22446714341640472
92 130 0.09287269413471222
92 131 0.17353226244449615
92 132 0.1067953109741211
92 133 0.14239373803138733
92 134 0.07693730294704437
92 135 0.22424906492233276
92 136 0.17191629111766815
92 137 0.2214341014623642
92 138 0.22574549913406372
92 139 0.21989908814430237
92 141 0.17596234381198883
92 142 0.2214341014623642
92 143 0.1373605579137802
92 144 0.1373605728149414
92 145 0.2269268035888672
92 146 0.23101301491260529
92 147 0.23619794845581055
92 148 0.1929570883512497
92 149 0.22504551708698273
92 150 0.20803996920585632
92 151 0.15689073503017426
92 152 0.19224034249782562
92 155 0.2339915931224823
92 157 0.2265704721212387
92 159 0.21984021365642548
92 160 0.2030797153711319
92 162 0.22716529667377472
92 164 0.22424906492233276
92 165 0.2375774085521698
92 166 0.21588625013828278
92 167 0.23536157608032227
92 168 0.1815759688615799
92 169 0.23272334039211273
92 170 0.20982173085212708
92 171 0.19818614423274994
92 172 0.20047982037067413
92 173 0.22945816814899445
92 174 0.2336428016424179
92 175 0.22816674411296844
92 176 0.1986721009016037
92 177 0.2217801958322525
92 179 0.2337178885936737
92 180 0.2214341014623642
92 181 0.22621580958366394
92 182 0.10969901084899902
92 183 0.22074677050113678
92 184 0.2329113632440567
92 186 0.2268078327178955
92 187 0.19415691494941711
92 188 0.1246526762843132
92 189 0.23008759319782257
92 190 0.17500758171081543
92 191 0.23315010964870453
92 193 0.22945816814899445
92 194 0.09994448721408844
92 195 0.2260979413986206
92 196 0.2216646522283554
92 199 0.131330668926239
92 200 0.21912910044193268
92 201 0.2368219941854477
92 202 0.21056975424289703
92 204 0.19129124283790588
92 205 0.13367603719234467
92 206 0.2307101935148239
92 208 0.2335096150636673
92 209 0.2305312305688858
92 210 0.21850067377090454
92 212 0.10163858532905579
92 214 0.23484225571155548
92 215 0.1387840211391449
92 216 0.2079320251941681
92 217 0.21459385752677917
92 218 0.1988285630941391
92 219 0.22131910920143127
92 220 0.22051909565925598
92 221 0.1874198615550995
92 222 0.23326978087425232
92 223 0.22945816814899445
92 225 0.1992906928062439
92 227 0.23447223007678986
92 228 0.23664984107017517
92 229 0.1946597695350647
92 230 0.19627025723457336
92 231 0.20578376948833466
92 232 0.2133036106824875
92 233 0.15756338834762573
92 234 0.23435503244400024
92 235 0.16742642223834991
92 236 0.23279224336147308
92 237 0.21380262076854706
92 238 0.23362983763217926
92 239 0.23707300424575806
92 240 0.2293398529291153
92 241 0.2269268035888672
92 243 0.22945816814899445
92 244 0.2398877739906311
92 245 0.19177283346652985
92 246 0.22557564079761505
92 247 0.23508702218532562
92 248 0.22728481888771057
92 249 0.2197640985250473
92 250 0.23508702218532562
92 252 0.17371462285518646
92 254 0.23113392293453217
92 255 0.15663959085941315
93 94 0.9550725817680359
93 95 0.9468276500701904
93 96 0.9645833373069763
93 97 0.9560753703117371
93 98 0.30698662996292114
93 99 0.9653186202049255
93 100 0.9561175107955933
93 101 0.9549869298934937
93 102 0.965360701084137
93 103 0.11846978217363358
93 104 0.34156501293182373
93 105 0.9430208206176758
93 106 0.8259974122047424
93 107 0.9642828702926636
93 108 0.9625800251960754
93 109 0.09128709137439728
93 110 0.9374017119407654
93 111 0.9656984806060791
93 112 0.9652373194694519
93 113 0.9690016508102417
93 114 0.9564228057861328
93 115 0.966975212097168
93 116 0.9648219347000122
93 117 0.17607073485851288
93 118 0.9603360891342163
93 120 0.9592922329902649
93 121 0.969499409198761
93 122 0.9668523073196411
93 123 0.959916889667511
93 124 0.9586710333824158
93 125 0.6635162234306335
93 126 0.9577476978302002
93 127 0.9490657448768616
93 128 0.9599595665931702
93 129 0.9669333696365356
93 130 0.1800297647714615
93 131 0.9587100148200989
93 132 0.3624560236930847
93 133 0.3206341564655304
93 134 0.2304886132478714
93 135 0.9473766088485718
93 136 0.9642828702926636
93 137 0.9667018055915833
93 138 0.960999608039856
93 139 0.9311093091964722
93 140 0.14085903763771057
93 141 0.1860521137714386
93 142 0.9594177603721619
93 143 0.09682458639144897
93 144 0.1613743007183075
93 145 0.9587100148200989
93 146 0.9572045803070068
93 147 0.9560340642929077
93 148 0.945773184299469
93 149 0.9652774333953857
93 150 0.9661998152732849
93 151 0.9479252696037292
93 152 0.9506637454032898
93 153 0.16468313336372375
93 154 0.2237858921289444
93 155 0.9647386074066162
93 156 0.15811389684677124
93 157 0.9572045803070068
93 158 0.10704360902309418
93 159 0.9721406698226929
93 160 0.4151337742805481
93 161 0.125
93 162 0.9565778374671936
93 163 0.3309157192707062
93 164 0.9473766088485718
93 165 0.9500318169593811
93 166 0.9668923020362854
93 167 0.9422546029090881
93 168 0.9614989161491394
93 169 0.9495694041252136
93 170 0.14085903763771057
93 171 0.9472092390060425
93 172 0.9125350117683411
93 173 0.9632037878036499
93 174 0.9343385696411133
93 175 0.9691237211227417
93 176 0.9668132662773132
93 177 0.9588328003883362
93 179 0.9451788067817688
93 180 0.9646207094192505
93 181 0.9598750472068787
93 182 0.352263480424881
93 183 0.9699253439903259
93 184 0.9675127267837524
93 185 0.09682458639144897
93 186 0.9561175107955933
93 187 0.9642406702041626
93 188 0.4560709595680237
93 189 0.925548791885376
93 190 0.9489363431930542
93 191 0.9664373397827148
93 192 0.08164965361356735
93 193 0.9632037878036499
93 194 0.13307267427444458
93 195 0.9604166746139526
93 196 0.9593750238418579
93 197 0.10704360902309418
93 198 0.22080810368061066
93 199 0.9417026042938232
93 200 0.9081531167030334
93 201 0.9522604942321777
93 202 0.9537370204925537
93 204 0.1854049563407898
93 205 0.9357753992080688
93 206 0.9374918341636658
93 208 0.9689627885818481
93 209 0.965624988079071
93 210 0.9241183996200562
93 211 0.5813183784484863
93 212 0.47762927412986755
93 213 0.1881931573152542
93 214 0.9609580039978027
93 215 0.2189483344554901
93 216 0.9625800251960754
93 217 0.9496133327484131
93 218 0.9492179155349731
93 219 0.9620397090911865
93 220 0.9668523073196411
93 221 0.8829988241195679
93 222 0.9783090353012085
93 223 0.9652774333953857
93 224 0.25280117988586426
93 225 0.9604583382606506
93 226 0.10489329695701599
93 227 0.9418726563453674
93 228 0.9409962296485901
93 229 0.9636195302009583
93 230 0.15811389684677124
93 231 0.6011751890182495
93 232 0.6816154718399048
93 233 0.1332785040140152
93 234 0.9662370681762695
93 235 0.846390426158905
93 236 0.9680500030517578
93 237 0.9576243758201599
93 238 0.9663543701171875
93 239 0.957473874092102
93 240 0.9637435078620911
93 241 0.9566190242767334
93 242 0.09185586124658585
93 243 0.9632037878036499
93 244 0.9422546029090881
93 245 0.9290904402732849
93 246 0.9455605745315552
93 247 0.9588328003883362
93 248 0.961269736289978
93 249 0.9547532796859741
93 250 0.9609172344207764
93 251 0.09128709137439728
93 252 0.9576243758201599
93 253 0.08164965361356735
93 254 0.9566612839698792
93 255 0.8405729532241821
94 95 0.9445120692253113
94 96 0.9582074284553528
94 97 0.9548798203468323
94 98 0.3079504668712616
94 99 0.9621154069900513
94 100 0.959119439125061
94 101 0.9537835717201233
94 102 0.962164044380188
94 103 0.14112456142902374
94 104 0.30898556113243103
94 105 0.9396185278892517
94 106 0.8573696613311768
94 107 0.9641934037208557
94 108 0.9572601318359375
94 109 0.057233572006225586
94 110 0.937139093875885
94 111 0.9645595550537109
94 112 0.9599387049674988
94 113 0.9647822380065918
94 114 0.9467739462852478
94 115 0.9679384827613831
94 116 0.9657742977142334
94 117 0.21003882586956024
94 118 0.9528800845146179
94 119 0.06475239247083664
94 120 0.9696340560913086
94 121 0.9652778506278992
94 122 0.9605321288108826
94 123 0.9566643834114075
94 124 0.9543318748474121
94 125 0.6967299580574036
94 126 0.9565684199333191
94 127 0.9457195997238159
94 128 0.959843635559082
94 129 0.9627074003219604
94 130 0.1805950105190277
94 131 0.9522812366485596
94 132 0.3328284025192261
94 133 0.3747815489768982
94 134 0.1858765333890915
94 135 0.9514082074165344
94 136 0.9673104286193848
94 137 0.9572108387947083
94 138 0.9588003158569336
94 139 0.9275538325309753
94 140 0.14836636185646057
94 141 0.1814519166946411
94 142 0.9645177721977234
94 143 0.07554445415735245
94 144 0.14893050491809845
94 145 0.9554275274276733
94 146 0.9528800845146179
94 147 0.9537835717201233
94 148 0.9582619071006775
94 149 0.9599875807762146
94 150 0.9608869552612305
94 151 0.9646366834640503
94 152 0.9483798146247864
94 153 0.17131872475147247
94 154 0.15265220403671265
94 155 0.9625645875930786
94 156 0.15200155973434448
94 157 0.9570686221122742
94 158 0.08785611391067505
94 159 0.963793158531189
94 160 0.39968398213386536
94 161 0.12539246678352356
94 162 0.9511822462081909
94 163 0.36629483103752136
94 164 0.9440084099769592
94 165 0.9456186294555664
94 166 0.9647358059883118
94 167 0.9356115460395813
94 168 0.963473916053772
94 169 0.9504409432411194
94 170 0.10597597062587738
94 171 0.9427517056465149
94 172 0.9143011569976807
94 173 0.9703883528709412
94 174 0.9286336302757263
94 175 0.9732006788253784
94 176 0.9646457433700562
94 177 0.9555704593658447
94 179 0.9502651691436768
94 180 0.9561669826507568
94 181 0.9555704593658447
94 182 0.33325904607772827
94 183 0.9594427347183228
94 184 0.9684788584709167
94 185 0.09712859243154526
94 186 0.9559748768806458
94 187 0.9651879668235779
94 188 0.49527835845947266
94 189 0.9230314493179321
94 190 0.954031229019165
94 191 0.9653241634368896
94 192 0.10238251835107803
94 193 0.9641479253768921
94 194 0.10208094865083694
94 195 0.9550725817680359
94 196 0.9561175107955933
94 197 0.06833253055810928
94 198 0.2650105655193329
94 199 0.9457266926765442
94 200 0.9099055528640747
94 201 0.9520907402038574
94 202 0.9514515399932861
94 204 0.11835543066263199
94 205 0.9235028624534607
94 206 0.9351040720939636
94 208 0.9647358059883118
94 209 0.9592523574829102
94 210 0.9062002897262573
94 211 0.5900856852531433
94 212 0.4050816595554352
94 213 0.17767909169197083
94 214 0.9587531089782715
94 215 0.2149626761674881
94 216 0.9593456387519836
94 217 0.9641861319541931
94 218 0.9351565837860107
94 219 0.9681901335716248
94 220 0.9605321288108826
94 221 0.8880366086959839
94 222 0.9627074003219604
94 223 0.9599875807762146
94 224 0.2574372887611389
94 225 0.9739124178886414
94 226 0.12950478494167328
94 227 0.9405786395072937
94 228 0.9278606176376343
94 229 0.9603884816169739
94 230 0.1255665123462677
94 231 0.6208473443984985
94 232 0.7053025364875793
94 233 0.13369695842266083
94 234 0.9578062295913696
94 235 0.8394811153411865
94 236 0.9659129977226257
94 237 0.950132429599762
94 238 0.9662714600563049
94 239 0.9457195997238159
94 240 0.9615716934204102
94 241 0.9522812366485596
94 242 0.09214426577091217
94 243 0.9620677828788757
94 244 0.9356115460395813
94 245 0.9309313297271729
94 246 0.9421491622924805
94 247 0.9597523808479309
94 248 0.9527331590652466
94 249 0.9461225867271423
94 250 0.9555704593658447
94 251 0.09157370775938034
94 252 0.962730884552002
94 253 0.07166776061058044
94 254 0.9523311853408813
94 255 0.8467850685119629
95 96 0.9468276500701904
95 97 0.9444448351860046
95 98 0.33315542340278625
95 99 0.9540298581123352
95 100 0.9434543251991272
95 101 0.9507379531860352
95 102 0.958285391330719
95 103 0.14239902794361115
95 104 0.2963414788246155
95 105 0.9459637999534607
95 106 0.8312337398529053
95 107 0.9519330859184265
95 108 0.9511743187904358
95 109 0.0924006849527359
95 110 0.9326635003089905
95 111 0.9501221776008606
95 112 0.9591526389122009
95 113 0.953606367111206
95 114 0.937238872051239
95 115 0.9557657837867737
95 116 0.9524911642074585
95 117 0.20230218768119812
95 118 0.9530327916145325
95 120 0.9445801377296448
95 121 0.9540961980819702
95 122 0.9608150720596313
95 123 0.9473887085914612
95 124 0.9407038688659668
95 125 0.6521650552749634
95 126 0.9461984634399414
95 127 0.943621814250946
95 128 0.9485098123550415
95 129 0.9609336853027344
95 130 0.19326989352703094
95 131 0.9492403268814087
95 132 0.36687758564949036
95 133 0.3471226096153259
95 134 0.22872577607631683
95 135 0.940800130367279
95 136 0.9540298581123352
95 137 0.9490026831626892
95 138 0.9495626091957092
95 139 0.9141391515731812
95 140 0.14970622956752777
95 141 0.20401518046855927
95 142 0.9490026831626892
95 143 0.09800572693347931
95 144 0.11107315868139267
95 145 0.9428908824920654
95 146 0.9519761204719543
95 147 0.9411988854408264
95 148 0.9348986148834229
95 149 0.9529150128364563
95 150 0.9495626091957092
95 151 0.9349685311317444
95 152 0.9409953951835632
95 153 0.1728658527135849
95 154 0.23557645082473755
95 155 0.9502570629119873
95 156 0.1600426882505417
95 157 0.9498630166053772
95 158 0.10834941267967224
95 159 0.9609942436218262
95 160 0.4322725832462311
95 161 0.12652485072612762
95 162 0.9417632222175598
95 163 0.3465025722980499
95 164 0.940800130367279
95 165 0.9339024424552917
95 166 0.9524911642074585
95 167 0.9419078826904297
95 168 0.9490026831626892
95 169 0.9377361536026001
95 170 0.1425773650407791
95 171 0.937339186668396
95 172 0.8937280774116516
95 173 0.9508160352706909
95 174 0.9108704924583435
95 175 0.9590310454368591
95 176 0.9513070583343506
95 177 0.9494310021400452
95 179 0.9310541152954102
95 180 0.9479494094848633
95 181 0.9547055959701538
95 182 0.36525729298591614
95 183 0.9502570629119873
95 184 0.9552765488624573
95 185 0.09800572693347931
95 186 0.9423966407775879
95 187 0.9529150128364563
95 188 0.4722224175930023
95 189 0.9116672873497009
95 190 0.9327641129493713
95 191 0.9541633725166321
95 192 0.10330711305141449
95 193 0.951865553855896
95 194 0.11884939670562744
95 195 0.9552625417709351
95 196 0.9542081952095032
95 197 0.10834941267967224
95 198 0.22350169718265533
95 199 0.9338032603263855
95 200 0.8981634378433228
95 201 0.9468736052513123
95 202 0.9397987127304077
95 204 0.18766666948795319
95 205 0.9077245593070984
95 206 0.9306381940841675
95 208 0.9524911642074585
95 209 0.9468276500701904
95 210 0.897799015045166
95 211 0.6059219241142273
95 212 0.45708543062210083
95 213 0.19048888981342316
95 214 0.9463348984718323
95 215 0.21218861639499664
95 216 0.9511743187904358
95 217 0.9388687610626221
95 218 0.938228189945221
95 219 0.9474570751190186
95 220 0.9545214772224426
95 221 0.8674830198287964
95 222 0.9546530842781067
95 223 0.956063449382782
95 224 0.2752703130245209
95 225 0.9468961954116821
95 226 0.1306743025779724
95 227 0.9276248216629028
95 228 0.9189221262931824
95 229 0.9522265195846558
95 230 0.14670580625534058
95 231 0.6411365866661072
95 232 0.702975332736969
95 233 0.11242028325796127
95 234 0.9485781192779541
95 235 0.8277560472488403
95 236 0.9558326601982117
95 237 0.9481192827224731
95 238 0.9519330859184265
95 239 0.9361750483512878
95 240 0.9555704593658447
95 241 0.9428908824920654
95 242 0.10330711305141449
95 243 0.951865553855896
95 244 0.9246844053268433
95 245 0.9197914004325867
95 246 0.9270519614219666
95 247 0.9483760595321655
95 248 0.9422587752342224
95 249 0.9333335161209106
95 250 0.9452112913131714
95 251 0.0924006849527359
95 252 0.9481192827224731
95 253 0.10330711305141449
95 254 0.9461315870285034
95 255 0.824388861656189
96 97 0.955029308795929
96 98 0.30698662996292114
96 99 0.9694616198539734
96 100 0.9582074284553528
96 101 0.961269736289978
96 102 0.966395378112793
96 103 0.1406828761100769
96 104 0.335465669631958
96 105 0.9430208206176758
96 106 0.8439278602600098
96 107 0.9663543701171875
96 108 0.9615405201911926
96 109 0.09128709137439728
96 110 0.9374017119407654
96 111 0.9615405201911926
96 112 0.9641993641853333
96 113 0.9658991694450378
96 114 0.950116753578186
96 115 0.9690413475036621
96 116 0.9679275751113892
96 117 0.17607073485851288
96 118 0.9592922329902649
96 120 0.9613799452781677
96 121 0.9674301147460938
96 122 0.9668523073196411
96 123 0.9609580039978027
96 124 0.9565778374671936
96 125 0.6901159286499023
96 126 0.9577476978302002
96 127 0.9522187113761902
96 128 0.9620397090911865
96 129 0.9658991694450378
96 130 0.16911886632442474
96 131 0.9566190242767334
96 132 0.3568797707557678
96 133 0.3513035178184509
96 134 0.2124110758304596
96 135 0.9515918493270874
96 136 0.9642828702926636
96 137 0.962539553642273
96 138 0.960999608039856
96 139 0.9289564490318298
96 140 0.1479019969701767
96 141 0.1963883489370346
96 142 0.962539553642273
96 143 0.08606629818677902
96 144 0.1613743007183075
96 145 0.9566190242767334
96 146 0.9572045803070068
96 147 0.9560340642929077
96 148 0.9499906897544861
96 149 0.9642406702041626
96 150 0.9620397090911865
96 151 0.9531915187835693
96 152 0.9548656344413757
96 153 0.17078250646591187
96 154 0.22826161980628967
96 155 0.9647386074066162
96 156 0.15811389684677124
96 157 0.9561607241630554
96 158 0.07784989476203918
96 159 0.968008279800415
96 160 0.42229124903678894
96 161 0.125
96 162 0.9576243758201599
96 163 0.36229562759399414
96 164 0.9484304189682007
96 165 0.9479252696037292
96 166 0.9689627885818481
96 167 0.9411911368370056
96 168 0.9646207094192505
96 169 0.9506209492683411
96 170 0.1479019969701767
96 171 0.9419175982475281
96 172 0.9169169068336487
96 173 0.9632037878036499
96 174 0.932185709476471
96 175 0.9701547026634216
96 176 0.9678506255149841
96 177 0.9577906131744385
96 179 0.9462348818778992
96 180 0.9646207094192505
96 181 0.9588328003883362
96 182 0.3579913079738617
96 183 0.9647386074066162
96 184 0.9695778489112854
96 185 0.09682458639144897
96 186 0.9561175107955933
96 187 0.9663142561912537
96 188 0.46653130650520325
96 189 0.9233862161636353
96 190 0.9510450959205627
96 191 0.9674709439277649
96 192 0.09185586124658585
96 193 0.9652774333953857
96 194 0.10176144540309906
96 195 0.9624999761581421
96 196 0.9583333134651184
96 197 0.07784989476203918
96 198 0.25235211849212646
96 199 0.9480869770050049
96 200 0.9103440642356873
96 201 0.9554101824760437
96 202 0.9474208950996399
96 204 0.17978663742542267
96 205 0.9379416108131409
96 206 0.9374918341636658
96 208 0.9679275751113892
96 209 0.965624988079071
96 210 0.9099180102348328
96 211 0.5847786068916321
96 212 0.46026095747947693
96 213 0.18265806138515472
96 214 0.9619991183280945
96 215 0.22360680997371674
96 216 0.9625800251960754
96 217 0.9569665789604187
96 218 0.9428473114967346
96 219 0.9630797505378723
96 220 0.9637435078620911
96 221 0.8886446356773376
96 222 0.9710699915885925
96 223 0.9632037878036499
96 224 0.26046183705329895
96 225 0.9646207094192505
96 226 0.12909944355487823
96 227 0.9439915418624878
96 228 0.9377882480621338
96 229 0.9646590352058411
96 230 0.12517350912094116
96 231 0.6076220870018005
96 232 0.704526960849762
96 233 0.09625669568777084
96 234 0.9651980996131897
96 235 0.840429961681366
96 236 0.9680500030517578
96 237 0.9534381031990051
96 238 0.9663543701171875
96 239 0.950116753578186
96 240 0.965816080570221
96 241 0.9555734992027283
96 242 0.08164965361356735
96 243 0.9683879017829895
96 244 0.9401276707649231
96 245 0.9376732110977173
96 246 0.9445005655288696
96 247 0.9598750472068787
96 248 0.9539398550987244
96 249 0.9536994695663452
96 250 0.9588328003883362
96 251 0.07987620681524277
96 252 0.9586710333824158
96 253 0.07144344598054886
96 254 0.9577056169509888
96 255 0.8381984829902649
97 98 0.3209861218929291
97 99 0.9610453248023987
97 100 0.9527812004089355
97 101 0.9484758377075195
97 102 0.9683693051338196
97 103 0.12640191614627838
97 104 0.3123724162578583
97 105 0.9480364322662354
97 106 0.8294606804847717
97 107 0.9600052237510681
97 108 0.9561774730682373
97 109 0.09166985005140305
97 110 0.9434714913368225
97 111 0.9572213292121887
97 112 0.9609465003013611
97 113 0.9637181758880615
97 114 0.9519897103309631
97 115 0.9658424854278564
97 116 0.9605507850646973
97 117 0.21503795683383942
97 118 0.9570252299308777
97 119 0.06482037156820297
97 120 0.9580734372138977
97 121 0.9610961675643921
97 122 0.9625812768936157
97 123 0.9628962278366089
97 124 0.9490280151367188
97 125 0.6752020120620728
97 126 0.9554774165153503
97 127 0.9467125535011292
97 128 0.9577181935310364
97 129 0.9657951593399048
97 130 0.1753062903881073
97 131 0.9543308019638062
97 132 0.3611759543418884
97 133 0.35277649760246277
97 134 0.20422503352165222
97 135 0.9439412355422974
97 136 0.9631255269050598
97 137 0.9561258554458618
97 138 0.958762526512146
97 139 0.9242038726806641
97 140 0.12730468809604645
97 141 0.16088329255580902
97 142 0.9561258554458618
97 143 0.08642716705799103
97 144 0.13612279295921326
97 145 0.9543308019638062
97 146 0.9528323411941528
97 147 0.9505788683891296
97 148 0.9518564343452454
97 149 0.9651601910591125
97 150 0.958762526512146
97 151 0.9444961547851562
97 152 0.9504303932189941
97 153 0.15924867987632751
97 154 0.2112407684326172
97 155 0.9614917039871216
97 156 0.14554545283317566
97 157 0.9580734372138977
97 158 0.10749242454767227
97 159 0.9627301692962646
97 160 0.40489527583122253
97 161 0.11715584248304367
97 162 0.9511299729347229
97 163 0.3552206754684448
97 164 0.9418247938156128
97 165 0.9423807859420776
97 166 0.9657486081123352
97 167 0.9365938901901245
97 168 0.9561258554458618
97 169 0.9503828287124634
97 170 0.09194226562976837
97 171 0.9501180648803711
97 172 0.9108608365058899
97 173 0.9609954953193665
97 174 0.9252848625183105
97 175 0.9649046659469604
97 176 0.9614917039871216
97 177 0.9586668610572815
97 179 0.9491419196128845
97 180 0.9561258554458618
97 181 0.9586668610572815
97 182 0.31635329127311707
97 183 0.9635751247406006
97 184 0.9632743000984192
97 185 0.0756237655878067
97 186 0.9569784998893738
97 187 0.9630778431892395
97 188 0.48739495873451233
97 189 0.9196574687957764
97 190 0.9507976174354553
97 191 0.9652997255325317
97 192 0.10249000787734985
97 193 0.9651601910591125
97 194 0.12577000260353088
97 195 0.9602594971656799
97 196 0.9571213722229004
97 197 0.10749242454767227
97 198 0.2454911321401596
97 199 0.9435139298439026
97 200 0.9108608365058899
97 201 0.9478187561035156
97 202 0.9513933062553406
97 204 0.15797290205955505
97 205 0.9212096333503723
97 206 0.9403553009033203
97 208 0.9615904092788696
97 209 0.9539833068847656
97 210 0.9126362800598145
97 211 0.5785436034202576
97 212 0.4730914831161499
97 213 0.15007412433624268
97 214 0.954532265663147
97 215 0.16840827465057373
97 216 0.9624406099319458
97 217 0.9483206868171692
97 218 0.9372046589851379
97 219 0.9629401564598083
97 220 0.9636219143867493
97 221 0.8810316920280457
97 222 0.9626796841621399
97 223 0.9651601910591125
97 224 0.24616841971874237
97 225 0.9561258554458618
97 226 0.12964074313640594
97 227 0.9458218216896057
97 228 0.9309823513031006
97 229 0.9572213292121887
97 230 0.1521611511707306
97 231 0.6134067177772522
97 232 0.6772835850715637
97 233 0.14127273857593536
97 234 0.9588118195533752
97 235 0.8415595293045044
97 236 0.9658907651901245
97 237 0.9605886936187744
97 238 0.9620854258537292
97 239 0.9467125535011292
97 240 0.9625812768936157
97 241 0.9574804306030273
97 242 0.10249000787734985
97 243 0.9589132070541382
97 244 0.9344580173492432
97 245 0.9362180829048157
97 246 0.9378158450126648
97 247 0.9565736651420593
97 248 0.9589911103248596
97 249 0.9460577368736267
97 250 0.9607599973678589
97 251 0.09166985005140305
97 252 0.9542828798294067
97 253 0.10249000787734985
97 254 0.9533310532569885
97 255 0.8584041595458984
98 99 0.31468331813812256
98 100 0.30160099267959595
98 101 0.33086806535720825
98 102 0.3269340991973877
98 103 0.0674881860613823
98 104 0.07412493228912354
98 105 0.32119986414909363
98 106 0.22517038881778717
98 107 0.29894915223121643
98 108 0.30319082736968994
98 109 0.20801256597042084
98 110 0.33011266589164734
98 111 0.31266555190086365
98 112 0.32794681191444397
98 113 0.29848840832710266
98 114 0.32890063524246216
98 115 0.3138761818408966
98 116 0.3113762140274048
98 118 0.3234853148460388
98 120 0.32031387090682983
98 121 0.3237905204296112
98 122 0.32429084181785583
98 123 0.3226426839828491
98 124 0.2893573045730591
98 125 0.21999876201152802
98 126 0.3106372058391571
98 127 0.32570743560791016
98 128 0.303348183631897
98 129 0.32362428307533264
98 130 0.0994490310549736
98 131 0.32399407029151917
98 132 0.16094760596752167
98 133 0.0847092717885971
98 134 0.30207929015159607
98 135 0.2721453011035919
98 136 0.32097697257995605
98 137 0.29718276858329773
98 138 0.2907086908817291
98 139 0.29106733202934265
98 140 0.08559209853410721
98 141 0.1413167119026184
98 142 0.316151887178421
98 143 0.0980580672621727
98 145 0.3049355745315552
98 146 0.3234853148460388
98 147 0.2990538477897644
98 148 0.29791781306266785
98 149 0.327608197927475
98 150 0.3159876763820648
98 151 0.2976003885269165
98 152 0.3319179117679596
98 153 0.20384357869625092
98 154 0.2583659589290619
98 155 0.3057154417037964
98 156 0.1601281613111496
98 157 0.2981139123439789
98 158 0.05913124233484268
98 159 0.3264312446117401
98 160 0.21745984256267548
98 162 0.3084357976913452
98 163 0.12134066969156265
98 164 0.31696924567222595
98 165 0.2912003695964813
98 166 0.2925049066543579
98 167 0.29080110788345337
98 168 0.3129903972148895
98 169 0.306710809469223
98 170 0.1283881515264511
98 171 0.3215450644493103
98 172 0.22299660742282867
98 173 0.30870774388313293
98 174 0.19622518122196198
98 175 0.32576441764831543
98 176 0.3183222711086273
98 177 0.31981247663497925
98 179 0.2759360074996948
98 180 0.29718276858329773
98 181 0.3293118476867676
98 182 0.3828548491001129
98 183 0.324625700712204
98 184 0.31371554732322693
98 185 0.0653720498085022
98 186 0.30160099267959595
98 187 0.32130804657936096
98 188 0.36230117082595825
98 189 0.3055114150047302
98 190 0.2690870761871338
98 191 0.3234582841396332
98 193 0.30870774388313293
98 195 0.32281067967414856
98 196 0.3259755074977875
98 197 0.08869685977697372
98 199 0.32328787446022034
98 200 0.33948737382888794
98 201 0.31579309701919556
98 202 0.300640344619751
98 204 0.1877669245004654
98 205 0.29615518450737
98 206 0.31324896216392517
98 208 0.2862145006656647
98 209 0.3133162558078766
98 210 0.2986886501312256
98 211 0.3206443190574646
98 212 0.22426737844944
98 213 0.15135139226913452
98 214 0.3036636710166931
98 215 0.07076732069253922
98 216 0.3158237934112549
98 217 0.3159603178501129
98 218 0.3258132338523865
98 219 0.303348183631897
98 220 0.32429084181785583
98 221 0.26415756344795227
98 222 0.31734031438827515
98 223 0.32130804657936096
98 224 0.22110968828201294
98 225 0.3035058081150055
98 226 0.0980580747127533
98 227 0.29614007472991943
98 228 0.25015828013420105
98 229 0.3095073103904724
98 231 0.31339430809020996
98 232 0.3045436143875122
98 234 0.2998770773410797
98 235 0.17747101187705994
98 236 0.31669068336486816
98 237 0.31161555647850037
98 238 0.3115364909172058
98 239 0.2682296633720398
98 240 0.32429084181785583
98 241 0.31128841638565063
98 242 0.21706077456474304
98 243 0.30240756273269653
98 244 0.3166500926017761
98 245 0.2998795807361603
98 246 0.32206493616104126
98 247 0.3229789435863495
98 248 0.3276866674423218
98 249 0.3009606897830963
98 250 0.27548202872276306
98 251 0.10400628298521042
98 252 0.3179750442504883
98 253 0.06201736629009247
98 254 0.3173084557056427
98 255 0.23085595667362213
99 100 0.9610764384269714
99 101 0.9589328765869141
99 102 0.973251461982727
99 103 0.13988372683525085
99 104 0.3335600793361664
99 105 0.9502783417701721
99 106 0.841511070728302
99 107 0.9701338410377502
99 108 0.9695153832435608
99 109 0.09076854586601257
99 110 0.9437277913093567
99 111 0.9674481749534607
99 112 0.9680102467536926
99 113 0.972751796245575
99 114 0.9562151432037354
99 115 0.972781777381897
99 116 0.9737520217895508
99 117 0.1987287849187851
99 118 0.9673359990119934
99 120 0.9621464014053345
99 121 0.9711939096450806
99 122 0.9726946353912354
99 123 0.9679219126701355
99 124 0.9625911712646484
99 125 0.6847264170646667
99 126 0.9626809358596802
99 127 0.9562151432037354
99 128 0.9669162631034851
99 129 0.9717234969139099
99 130 0.18985602259635925
99 131 0.9667782783508301
99 132 0.3603971302509308
99 133 0.34653568267822266
99 134 0.22917935252189636
99 135 0.9545691013336182
99 136 0.975283145904541
99 137 0.9663839340209961
99 138 0.9689844846725464
99 139 0.9397342205047607
99 140 0.14005890488624573
99 141 0.19013400375843048
99 142 0.9705225825309753
99 143 0.09627458453178406
99 144 0.16045762598514557
99 145 0.9667782783508301
99 146 0.9642221927642822
99 147 0.9599740505218506
99 148 0.9592717289924622
99 149 0.9711344838142395
99 150 0.9669162631034851
99 151 0.9530133008956909
99 152 0.9577975273132324
99 153 0.1698123961687088
99 154 0.2269650101661682
99 155 0.96854168176651
99 156 0.15721572935581207
99 157 0.9631842970848083
99 158 0.09675959497690201
99 159 0.9748362898826599
99 160 0.4222647547721863
99 161 0.11600395292043686
99 162 0.9657130837440491
99 163 0.3375455141067505
99 164 0.9566647410392761
99 165 0.9561551213264465
99 166 0.9706640243530273
99 167 0.9443044662475586
99 168 0.9653492569923401
99 169 0.9556769728660583
99 170 0.14706185460090637
99 171 0.9502472877502441
99 172 0.9149762392044067
99 173 0.969072699546814
99 174 0.9375936388969421
99 175 0.9748950004577637
99 176 0.9736989736557007
99 177 0.9647854566574097
99 179 0.953460693359375
99 180 0.9715573191642761
99 181 0.9647854566574097
99 182 0.3616531491279602
99 183 0.9747304320335388
99 184 0.9733105897903442
99 185 0.09627458453178406
99 186 0.9621154069900513
99 187 0.9742273092269897
99 188 0.4680415391921997
99 189 0.9331924915313721
99 190 0.9540298581123352
99 191 0.9722528457641602
99 192 0.08118585497140884
99 193 0.9701035618782043
99 194 0.12453342229127884
99 195 0.9663543701171875
99 196 0.9653186202049255
99 197 0.10643555223941803
99 198 0.2509186565876007
99 199 0.9458755850791931
99 200 0.9160654544830322
99 201 0.9593784809112549
99 202 0.9545996785163879
99 204 0.18435178697109222
99 205 0.9315367937088013
99 206 0.9437922239303589
99 208 0.9716933965682983
99 209 0.9642828702926636
99 210 0.9253858923912048
99 211 0.5780162215232849
99 212 0.4684399962425232
99 213 0.1816204935312271
99 214 0.9658514261245728
99 215 0.22233660519123077
99 216 0.9684817790985107
99 217 0.9567530751228333
99 218 0.9501603245735168
99 219 0.9658820629119873
99 220 0.969603419303894
99 221 0.8970695734024048
99 222 0.9737800359725952
99 223 0.969072699546814
99 224 0.2665994465351105
99 225 0.9663839340209961
99 226 0.1283661127090454
99 227 0.9491637945175171
99 228 0.947346568107605
99 229 0.9695153832435608
99 230 0.11791180074214935
99 231 0.629811704158783
99 232 0.704796552658081
99 233 0.13988372683525085
99 234 0.9679798483848572
99 235 0.8415825963020325
99 236 0.9738389849662781
99 237 0.9605098962783813
99 238 0.9701338410377502
99 239 0.9593502879142761
99 240 0.969603419303894
99 241 0.9605409502983093
99 242 0.09133408963680267
99 243 0.969072699546814
99 244 0.9474767446517944
99 245 0.936613917350769
99 246 0.9507297277450562
99 247 0.9658217430114746
99 248 0.9599740505218506
99 249 0.9556168913841248
99 250 0.9647854566574097
99 251 0.09076854586601257
99 252 0.9594692587852478
99 253 0.08118585497140884
99 254 0.9678423404693604
99 255 0.8417007327079773
100 101 0.9495818614959717
100 102 0.9632019400596619
100 103 0.14112456142902374
100 104 0.33040037751197815
100 105 0.9438605904579163
100 106 0.8309890031814575
100 107 0.970427393913269
100 108 0.958302915096283
100 109 0.057233572006225586
100 110 0.9446191191673279
100 111 0.9603884816169739
100 112 0.9599387049674988
100 113 0.9637447595596313
100 114 0.9520455002784729
100 115 0.9710475206375122
100 116 0.9616204500198364
100 117 0.17662353813648224
100 118 0.9560214877128601
100 120 0.963351309299469
100 121 0.9642398953437805
100 122 0.9605321288108826
100 123 0.9618863463401794
100 124 0.9511822462081909
100 125 0.6730114817619324
100 126 0.9628478288650513
100 127 0.9478282332420349
100 128 0.9567137360572815
100 129 0.9637447595596313
100 130 0.1641772836446762
100 131 0.9522812366485596
100 132 0.3356252610683441
100 133 0.3496096432209015
100 134 0.19947727024555206
100 135 0.9492939710617065
100 136 0.9652323722839355
100 137 0.9613862633705139
100 138 0.9577570557594299
100 139 0.9232345819473267
100 140 0.12717117369174957
100 141 0.15553021430969238
100 142 0.9613862633705139
100 143 0.09712859243154526
100 144 0.1618809700012207
100 145 0.9522812366485596
100 146 0.9528800845146179
100 147 0.9495818614959717
100 148 0.9434543251991272
100 149 0.9610276818275452
100 150 0.9661034941673279
100 151 0.9540711045265198
100 152 0.947326123714447
100 153 0.14072610437870026
100 154 0.19754990935325623
100 155 0.9625645875930786
100 156 0.11895774304866791
100 157 0.9560214877128601
100 158 0.10737969726324081
100 159 0.9648295044898987
100 160 0.4188305139541626
100 161 0.10031396895647049
100 162 0.9532820582389832
100 163 0.3605714738368988
100 164 0.9450654983520508
100 165 0.946675181388855
100 166 0.9688896536827087
100 167 0.9388120770454407
100 168 0.9582546949386597
100 169 0.9525507092475891
100 170 0.08478077501058578
100 171 0.9469982385635376
100 172 0.9143011569976807
100 173 0.9693482518196106
100 174 0.9243144392967224
100 175 0.9659611582756042
100 176 0.9594427347183228
100 177 0.9545249342918396
100 179 0.948146402835846
100 180 0.9582546949386597
100 181 0.9566159248352051
100 182 0.327513188123703
100 183 0.9625645875930786
100 184 0.9643356204032898
100 185 0.05396032705903053
100 186 0.9654088020324707
100 187 0.9599875807762146
100 188 0.4868837893009186
100 189 0.9165236353874207
100 190 0.9572042226791382
100 191 0.9632503986358643
100 192 0.10238251835107803
100 193 0.9703883528709412
100 194 0.10993333160877228
100 195 0.9571624994277954
100 196 0.9550725817680359
100 197 0.07809432595968246
100 198 0.20963524281978607
100 199 0.9393222332000732
100 200 0.9077076315879822
100 201 0.9489311575889587
100 202 0.9482836127281189
100 204 0.12962737679481506
100 205 0.9321946501731873
100 206 0.9340378046035767
100 208 0.9616204500198364
100 209 0.9550725817680359
100 210 0.9138706922531128
100 211 0.5866146683692932
100 212 0.45517241954803467
100 213 0.1665741503238678
100 214 0.9577087163925171
100 215 0.1822509467601776
100 216 0.9645595550537109
100 217 0.9589173793792725
100 218 0.9383519291877747
100 219 0.9629735946655273
100 220 0.9626112580299377
100 221 0.8891692757606506
100 222 0.9668569564819336
100 223 0.9693482518196106
100 224 0.2574372887611389
100 225 0.9645177721977234
100 226 0.12950478494167328
100 227 0.9427042007446289
100 228 0.9321512579917908
100 229 0.958302915096283
100 230 0.15200155973434448
100 231 0.6095297932624817
100 232 0.6780098080635071
100 233 0.14112456142902374
100 234 0.9578062295913696
100 235 0.8394811153411865
100 236 0.9669482707977295
100 237 0.9543318748474121
100 238 0.9652323722839355
100 239 0.9499368667602539
100 240 0.9688484072685242
100 241 0.9533299803733826
100 242 0.09214426577091217
100 243 0.9599875807762146
100 244 0.9345447421073914
100 245 0.956760585308075
100 246 0.937895655632019
100 247 0.9618433117866516
100 248 0.9506322741508484
100 249 0.9503510594367981
100 250 0.9587069153785706
100 251 0.09157370775938034
100 252 0.9574815034866333
100 253 0.10238251835107803
100 254 0.9533788561820984
100 255 0.8670316934585571
101 102 0.9600270390510559
101 103 0.1414213478565216
101 104 0.32496386766433716
101 105 0.9384063482284546
101 106 0.8363415598869324
101 107 0.9589328765869141
101 108 0.9603182673454285
101 109 0.09176629036664963
101 110 0.9305433630943298
101 111 0.9613631963729858
101 112 0.9598708152770996
101 113 0.960573673248291
101 114 0.944538950920105
101 115 0.9637430310249329
101 116 0.9615614414215088
101 117 0.20569688081741333
101 118 0.9517361521720886
101 119 0.06488857418298721
101 120 0.9527854323387146
101 121 0.9652276635169983
101 122 0.9635940194129944
101 123 0.9555364847183228
101 124 0.9489744305610657
101 125 0.6744269132614136
101 126 0.9575313925743103
101 127 0.9498215913772583
101 128 0.9576802253723145
101 129 0.960573673248291
101 130 0.18645890057086945
101 131 0.9532329440116882
101 132 0.3391338884830475
101 133 0.36155596375465393
101 134 0.22261232137680054
101 135 0.948112428188324
101 136 0.9589328765869141
101 137 0.956085741519928
101 138 0.9576802253723145
101 139 0.9316686987876892
101 140 0.14867839217185974
101 141 0.20261448621749878
101 142 0.9550396800041199
101 143 0.09733285009860992
101 144 0.12977713346481323
101 145 0.9500799775123596
101 146 0.9517361521720886
101 147 0.9505263566970825
101 148 0.9401388764381409
101 149 0.9578374028205872
101 150 0.9555891752243042
101 151 0.9433722496032715
101 152 0.9482623934745789
101 153 0.17167900502681732
101 154 0.23395906388759613
101 155 0.9572893381118774
101 156 0.15894387662410736
101 157 0.9538347721099854
101 158 0.10760551691055298
101 159 0.9627045392990112
101 160 0.4317030608654022
101 161 0.12565617263317108
101 162 0.9489744305610657
101 163 0.33838820457458496
101 164 0.9491717219352722
101 165 0.9423134922981262
101 166 0.9626021385192871
101 167 0.9461318254470825
101 168 0.961315929889679
101 169 0.9450401663780212
101 170 0.14159847795963287
101 171 0.9372870922088623
101 172 0.9008067846298218
101 173 0.9609642028808594
101 174 0.9186837673187256
101 175 0.9659197926521301
101 176 0.9593749046325684
101 177 0.9523416757583618
101 179 0.9384627342224121
101 180 0.956085741519928
101 181 0.9544370770454407
101 182 0.36562851071357727
101 183 0.9572893381118774
101 184 0.9694775938987732
101 185 0.09733285009860992
101 186 0.9495818614959717
101 187 0.9578374028205872
101 188 0.4668772518634796
101 189 0.9141034483909607
101 190 0.9422587752342224
101 191 0.961120069026947
101 192 0.08207826316356659
101 193 0.9578374028205872
101 194 0.10229562222957611
101 195 0.9570811986923218
101 196 0.9560340642929077
101 197 0.08804087340831757
101 198 0.25367680191993713
101 199 0.9434369206428528
101 200 0.9074141979217529
101 201 0.9498713612556458
101 202 0.9460449814796448
101 204 0.18637821078300476
101 205 0.920001208782196
101 206 0.9327966570854187
101 208 0.9594801664352417
101 209 0.961269736289978
101 210 0.9037137627601624
101 211 0.5948050618171692
101 212 0.45831212401390076
101 213 0.18918107450008392
101 214 0.9534433484077454
101 215 0.22478057444095612
101 216 0.9561384320259094
101 217 0.9461504220962524
101 218 0.943527340888977
101 219 0.9555891752243042
101 220 0.9594271183013916
101 221 0.8706077337265015
101 222 0.960573673248291
101 223 0.9578374028205872
101 224 0.2733803987503052
101 225 0.956085741519928
101 226 0.12977714836597443
101 227 0.9351013898849487
101 228 0.9319617748260498
101 229 0.9561384320259094
101 230 0.15894387662410736
101 231 0.6059511303901672
101 232 0.7226201295852661
101 233 0.06698906421661377
101 234 0.9556428790092468
101 235 0.8388499021530151
101 236 0.9627571702003479
101 237 0.9479222893714905
101 238 0.9610152244567871
101 239 0.9434824585914612
101 240 0.9625522494316101
101 241 0.9542838931083679
101 242 0.10259783267974854
101 243 0.9640910029411316
101 244 0.9333028793334961
101 245 0.9253396987915039
101 246 0.9366713166236877
101 247 0.9586277604103088
101 248 0.9484210014343262
101 249 0.9449343681335449
101 250 0.9523416757583618
101 251 0.06882471591234207
101 252 0.9552868604660034
101 253 0.09233804792165756
101 254 0.9501345157623291
101 255 0.8246963024139404
102 103 0.12503042817115784
102 104 0.31504160165786743
102 105 0.964002788066864
102 106 0.8382711410522461
102 107 0.9711939096450806
102 108 0.9674859046936035
102 109 0.09067521244287491
102 110 0.9512220621109009
102 111 0.9685184359550476
102 112 0.9701077342033386
102 113 0.9727786779403687
102 114 0.9625397324562073
102 115 0.9758861660957336
102 116 0.972750723361969
102 117 0.20797798037528992
102 118 0.9673781394958496
102 120 0.9632307291030884
102 121 0.9732785224914551
102 122 0.974782407283783
102 123 0.9720973372459412
102 124 0.9605617523193359
102 125 0.6693438291549683
102 126 0.9658363461494446
102 127 0.9614957571029663
102 128 0.969021201133728
102 129 0.976887583732605
102 130 0.18424193561077118
102 131 0.966822624206543
102 132 0.37110430002212524
102 133 0.3295627534389496
102 134 0.22894369065761566
102 135 0.9546342492103577
102 136 0.9753091335296631
102 137 0.9695246815681458
102 138 0.9669550657272339
102 139 0.9344910383224487
102 140 0.1399148851633072
102 141 0.20020544528961182
102 142 0.9695246815681458
102 143 0.09617558866739273
102 144 0.14746923744678497
102 145 0.9637071490287781
102 146 0.9673781394958496
102 147 0.9600270390510559
102 148 0.9572380781173706
102 149 0.9783748984336853
102 150 0.9700543284416199
102 151 0.9541257619857788
102 152 0.9651600122451782
102 153 0.1696377843618393
102 154 0.23117734491825104
102 155 0.9696065187454224
102 156 0.13087840378284454
102 157 0.9632307291030884
102 158 0.10632611066102982
102 159 0.9799908399581909
102 160 0.4289400577545166
102 161 0.09932971745729446
102 162 0.9636805057525635
102 163 0.35136646032333374
102 164 0.9556809663772583
102 165 0.9541257619857788
102 166 0.972750723361969
102 167 0.9475588798522949
102 168 0.9664239287376404
102 169 0.9567833542823792
102 170 0.13291914761066437
102 171 0.954526424407959
102 172 0.915123462677002
102 173 0.9701359272003174
102 174 0.9323526620864868
102 175 0.9759407639503479
102 176 0.9716672897338867
102 177 0.9679343104362488
102 179 0.9514313340187073
102 180 0.9705583453178406
102 181 0.9689695239067078
102 182 0.3584365248680115
102 183 0.9716672897338867
102 184 0.974361002445221
102 185 0.0854894146323204
102 186 0.962164044380188
102 187 0.9721956849098206
102 188 0.48210662603378296
102 189 0.9322329759597778
102 190 0.9540961980819702
102 191 0.9733064770698547
102 192 0.10137796401977539
102 193 0.974255383014679
102 194 0.11663001775741577
102 195 0.9674301147460938
102 196 0.966395378112793
102 197 0.10632611066102982
102 198 0.23891094326972961
102 199 0.9501875638961792
102 200 0.9194760322570801
102 201 0.9573491811752319
102 202 0.9546637535095215
102 204 0.1841622143983841
102 205 0.9316547513008118
102 206 0.952323853969574
102 208 0.971722424030304
102 209 0.965360701084137
102 210 0.9255193471908569
102 211 0.5877329707145691
102 212 0.4765842854976654
102 213 0.1759357452392578
102 214 0.966926634311676
102 215 0.18971724808216095
102 216 0.9695510268211365
102 217 0.9568126797676086
102 218 0.9523472785949707
102 219 0.9669550657272339
102 220 0.975811779499054
102 221 0.8894177079200745
102 222 0.9738059639930725
102 223 0.9783748984336853
102 224 0.2625206708908081
102 225 0.9664239287376404
102 226 0.12021948397159576
102 227 0.9481878280639648
102 228 0.9410616755485535
102 229 0.9705835580825806
102 230 0.15705406665802002
102 231 0.6243613362312317
102 232 0.6941152215003967
102 233 0.13238516449928284
102 234 0.968016505241394
102 235 0.8371648788452148
102 236 0.9748879075050354
102 237 0.9667991995811462
102 238 0.9711939096450806
102 239 0.9562759399414062
102 240 0.975811779499054
102 241 0.9637071490287781
102 242 0.10137796401977539
102 243 0.9701359272003174
102 244 0.944389820098877
102 245 0.9420447945594788
102 246 0.9476462006568909
102 247 0.965863823890686
102 248 0.9600270390510559
102 249 0.9556809663772583
102 250 0.965863823890686
102 251 0.09067521244287491
102 252 0.9605617523193359
102 253 0.10137796401977539
102 254 0.9658097624778748
102 255 0.8502694964408875
103 104 0.06503324955701828
103 105 0.10520666092634201
103 106 0.15294381976127625
103 107 0.13988372683525085
103 108 0.14039067924022675
103 110 0.12114956229925156
103 111 0.14039067924022675
103 112 0.14017273485660553
103 113 0.12496621906757355
103 114 0.1045912578701973
103 115 0.13952495157718658
103 116 0.13245323300361633
103 117 0.13530200719833374
103 118 0.11129752546548843
103 120 0.14097686111927032
103 121 0.13973988592624664
103 122 0.1399558037519455
103 123 0.14060963690280914
103 124 0.13390766084194183
103 125 0.1470591425895691
103 126 0.14090318977832794
103 127 0.14194528758525848
103 128 0.14046356081962585
103 129 0.13966813683509827
103 131 0.14119857549667358
103 133 0.1585480123758316
103 135 0.13483241200447083
103 136 0.13988372683525085
103 137 0.11834655702114105
103 138 0.11089228093624115
103 139 0.10712020844221115
103 142 0.13313987851142883
103 145 0.11890406161546707
103 146 0.10387768596410751
103 147 0.1414213478565216
103 148 0.1274096518754959
103 149 0.11791832745075226
103 150 0.13307073712348938
103 151 0.1422473043203354
103 152 0.14187008142471313
103 155 0.14010031521320343
103 156 0.09365858137607574
103 157 0.14097686111927032
103 159 0.1101512759923935
103 160 0.050876691937446594
103 162 0.13390766084194183
103 163 0.2433321177959442
103 164 0.1423230916261673
103 165 0.13476060330867767
103 166 0.13981175422668457
103 167 0.1360711008310318
103 168 0.14053654670715332
103 169 0.11959629505872726
103 170 0.10012523084878922
103 171 0.12036540359258652
103 172 0.12459003925323486
103 173 0.14002801477909088
103 174 0.12242309749126434
103 175 0.13923993706703186
103 176 0.14010031521320343
103 177 0.11853152513504028
103 179 0.13512082397937775
103 180 0.14053654670715332
103 181 0.13334797322750092
103 182 0.12214411795139313
103 183 0.1253529042005539
103 184 0.13945353031158447
103 185 0.07647190988063812
103 186 0.14112456142902374
103 187 0.13265812397003174
103 188 0.14870813488960266
103 189 0.09222859144210815
103 190 0.14239902794361115
103 191 0.13959649205207825
103 193 0.14002801477909088
103 195 0.1332785040140152
103 196 0.1406828761100769
103 198 0.08408277481794357
103 199 0.14370864629745483
103 200 0.147950679063797
103 201 0.1343320906162262
103 202 0.11972346156835556
103 205 0.13087768852710724
103 206 0.12088648229837418
103 208 0.13981175422668457
103 209 0.1406828761100769
103 210 0.062116365879774094
103 211 0.09838379174470901
103 213 0.11803340911865234
103 214 0.13320913910865784
103 216 0.14039067924022675
103 217 0.14187008142471313
103 218 0.12075556814670563
103 219 0.14046356081962585
103 220 0.11785752326250076
103 221 0.12841984629631042
103 222 0.13966813683509827
103 223 0.1252882182598114
103 224 0.13613319396972656
103 225 0.14053654670715332
103 226 0.05735393241047859
103 227 0.14308787882328033
103 228 0.1368158906698227
103 229 0.14039067924022675
103 231 0.08019532263278961
103 232 0.14250147342681885
103 234 0.11077730357646942
103 235 0.08473663777112961
103 236 0.13204632699489594
103 237 0.08927176892757416
103 238 0.13988372683525085
103 239 0.08217884600162506
103 240 0.1399558037519455
103 241 0.11890406161546707
103 243 0.14002801477909088
103 244 0.14363060891628265
103 245 0.13726866245269775
103 246 0.14316502213478088
103 247 0.13334797322750092
103 248 0.10420520603656769
103 249 0.13483241200447083
103 250 0.12593974173069
103 252 0.1413469761610031
103 254 0.1187795028090477
103 255 0.11814872175455093
104 105 0.2847546935081482
104 106 0.2974720299243927
104 107 0.3365924656391144
104 108 0.33781230449676514
104 109 0.13363061845302582
104 110 0.3368165194988251
104 111 0.3104221224784851
104 112 0.30386292934417725
104 113 0.3300182819366455
104 114 0.3384759724140167
104 115 0.3266553580760956
104 116 0.33338844776153564
104 118 0.32088643312454224
104 120 0.3269985616207123
104 121 0.3241293728351593
104 122 0.3337319493293762
104 123 0.32309865951538086
104 124 0.34317746758461
104 125 0.2855457663536072
104 126 0.3329365849494934
104 127 0.3384759724140167
104 128 0.3318977952003479
104 129 0.323962926864624
104 131 0.284660667181015
104 132 0.08979068696498871
104 133 0.1224418431520462
104 134 0.10585121810436249
104 135 0.30235394835472107
104 136 0.3002040684223175
104 137 0.3046515882015228
104 138 0.3166730999946594
104 139 0.3277513384819031
104 141 0.06052275747060776
104 142 0.3168376386165619
104 143 0.09449111670255661
104 144 0.26457512378692627
104 145 0.3244519829750061
104 146 0.3300546109676361
104 147 0.32496386766433716
104 148 0.30560216307640076
104 149 0.3278331458568573
104 150 0.3288528323173523
104 151 0.2806077003479004
104 152 0.2983161211013794
104 154 0.10482849180698395
104 155 0.3280024230480194
104 156 0.09643959999084473
104 157 0.32088643312454224
104 159 0.32363080978393555
104 160 0.11175975203514099
104 162 0.33092111349105835
104 163 0.10022296011447906
104 164 0.30235394835472107
104 165 0.3453633189201355
104 166 0.3303576409816742
104 167 0.29267728328704834
104 168 0.289419025182724
104 169 0.32634082436561584
104 170 0.2474358230829239
104 171 0.2664697766304016
104 172 0.29506587982177734
104 173 0.3278331458568573
104 174 0.3277513384819031
104 175 0.3229696750640869
104 176 0.31281715631484985
104 177 0.3142815828323364
104 179 0.3308272957801819
104 180 0.32902371883392334
104 181 0.3386918008327484
104 182 0.28508085012435913
104 183 0.3310394883155823
104 184 0.33858034014701843
104 186 0.34263744950294495
104 187 0.31569117307662964
104 188 0.220498189330101
104 189 0.3197227418422699
104 190 0.29942837357521057
104 191 0.33287513256073
104 193 0.324797660112381
104 194 0.06875238567590714
104 195 0.33241596817970276
104 196 0.32021722197532654
104 199 0.255452960729599
104 200 0.33355268836021423
104 201 0.3043058514595032
104 202 0.30511409044265747
104 204 0.23028309643268585
104 205 0.3012368679046631
104 206 0.30807802081108093
104 208 0.3303576409816742
104 209 0.33851534128189087
104 210 0.30061575770378113
104 211 0.15702292323112488
104 212 0.13347937166690826
104 213 0.12964074313640594
104 214 0.3413872718811035
104 215 0.1773020327091217
104 216 0.3195521831512451
104 217 0.33522120118141174
104 218 0.3046359121799469
104 219 0.3288528323173523
104 220 0.33069804310798645
104 221 0.3173592686653137
104 222 0.3391013443470001
104 223 0.324797660112381
104 224 0.08971225470304489
104 225 0.32902371883392334
104 227 0.34120050072669983
104 228 0.3287161886692047
104 229 0.3225955367088318
104 230 0.13501542806625366
104 231 0.2736823558807373
104 232 0.3311968743801117
104 233 0.06503324955701828
104 234 0.34067898988723755
104 235 0.21289664506912231
104 236 0.32934272289276123
104 237 0.27576759457588196
104 238 0.3396247923374176
104 239 0.33539891242980957
104 240 0.3367658853530884
104 241 0.32751283049583435
104 243 0.3278331458568573
104 244 0.3300403654575348
104 245 0.3046761155128479
104 246 0.34759148955345154
104 247 0.32038411498069763
104 248 0.33722662925720215
104 249 0.33012115955352783
104 250 0.32038411498069763
104 252 0.2941521108150482
104 254 0.32411205768585205
104 255 0.27807295322418213
105 106 0.8164758682250977
105 107 0.9492271542549133
105 108 0.9452823400497437
105 109 0.0926482081413269
105 110 0.9373241662979126
105 111 0.9495023488998413
105 112 0.9490816593170166
105 113 0.9530121088027954
105 114 0.939749538898468
105 115 0.9572776556015015
105 116 0.9508400559425354
105 117 0.21733298897743225
105 118 0.951348066329956
105 120 0.9428728222846985
105 121 0.9545517563819885
105 122 0.9518198370933533
105 123 0.9530965685844421
105 124 0.9379128217697144
105 125 0.6314151287078857
105 126 0.9444977641105652
105 127 0.9376161694526672
105 128 0.9489396214485168
105 129 0.9614087343215942
105 130 0.17164048552513123
105 131 0.9443556666374207
105 132 0.3735197186470032
105 133 0.3339040279388428
105 134 0.2064046561717987
105 135 0.9304860830307007
105 136 0.9555342793464661
105 137 0.9473205208778381
105 138 0.9521062970161438
105 139 0.9176804423332214
105 140 0.1501072645187378
105 141 0.18358102440834045
105 142 0.9462644457817078
105 143 0.09826827049255371
105 144 0.11137070506811142
105 145 0.9432945847511292
105 146 0.9524074792861938
105 147 0.9373435974121094
105 148 0.9395431876182556
105 149 0.955467700958252
105 150 0.9499951601028442
105 151 0.9331973195075989
105 152 0.9392516016960144
105 153 0.14856766164302826
105 154 0.236207515001297
105 155 0.9475384950637817
105 156 0.14041249454021454
105 157 0.9460510611534119
105 158 0.108639657497406
105 159 0.9551807045936584
105 160 0.4019523561000824
105 161 0.10149102658033371
105 162 0.9410994052886963
105 163 0.3445355296134949
105 164 0.93369460105896
105 165 0.9310594201087952
105 166 0.9518907070159912
105 167 0.929320216178894
105 168 0.9452083110809326
105 169 0.9381137490272522
105 170 0.11436743289232254
105 171 0.9377018809318542
105 172 0.8927866816520691
105 173 0.9481016993522644
105 174 0.9111256003379822
105 175 0.9542756676673889
105 176 0.9485912919044495
105 177 0.9498588442802429
105 179 0.9303327798843384
105 180 0.9452083110809326
105 181 0.9466855525970459
105 182 0.3575158715248108
105 183 0.9506970047950745
105 184 0.9536437392234802
105 185 0.07643087208271027
105 186 0.9396185278892517
105 187 0.9533631205558777
105 188 0.4756106436252594
105 189 0.9086226224899292
105 190 0.9299123287200928
105 191 0.9514742493629456
105 192 0.10358384996652603
105 193 0.9533631205558777
105 194 0.11916778236627579
105 195 0.9525355696678162
105 196 0.9440780282020569
105 197 0.108639657497406
105 198 0.22410041093826294
105 199 0.9287452101707458
105 200 0.8938984870910645
105 201 0.9355577826499939
105 202 0.9348375797271729
105 204 0.18816940486431122
105 205 0.9057592749595642
105 206 0.9320523738861084
105 208 0.9497894048690796
105 209 0.9430208206176758
105 210 0.9135075807571411
105 211 0.5899859666824341
105 212 0.4737337529659271
105 213 0.16852867603302002
105 214 0.9435867071151733
105 215 0.14656595885753632
105 216 0.950557291507721
105 217 0.9349871277809143
105 218 0.9288879036903381
105 219 0.9468284845352173
105 220 0.9560267925262451
105 221 0.8686607480049133
105 222 0.9530121088027954
105 223 0.9617813229560852
105 224 0.26045799255371094
105 225 0.9452083110809326
105 226 0.1310243457555771
105 227 0.9268838763237
105 228 0.9159574508666992
105 229 0.953722357749939
105 230 0.1537851095199585
105 231 0.6330395340919495
105 232 0.6598057150840759
105 233 0.13526570796966553
105 234 0.9469013810157776
105 235 0.8287635445594788
105 236 0.9542034864425659
105 237 0.9570322036743164
105 238 0.9502783417701721
105 239 0.9354827404022217
105 240 0.9549750685691833
105 241 0.9517831206321716
105 242 0.10358384996652603
105 243 0.9481016993522644
105 244 0.9206854104995728
105 245 0.9309660792350769
105 246 0.9241560697555542
105 247 0.9435123205184937
105 248 0.9426573514938354
105 249 0.9358336925506592
105 250 0.9466855525970459
105 251 0.0926482081413269
105 252 0.9410994052886963
105 253 0.10358384996652603
105 254 0.9465462565422058
105 255 0.8615407943725586
106 107 0.8498311638832092
106 108 0.8421751260757446
106 110 0.8214557766914368
106 111 0.8374035954475403
106 112 0.8372946381568909
106 113 0.8485214114189148
106 114 0.8177303075790405
106 115 0.8464660048484802
106 116 0.8505818843841553
106 117 0.19658927619457245
106 118 0.8313171863555908
106 119 0.0555555559694767
106 120 0.837306559085846
106 121 0.8430205583572388
106 122 0.8383772969245911
106 123 0.8315412402153015
106 124 0.8383037447929382
106 125 0.5884459018707275
106 126 0.836868941783905
106 127 0.8201424479484558
106 128 0.8342578411102295
106 129 0.8425877094268799
106 130 0.1752912551164627
106 131 0.8326245546340942
106 132 0.31355226039886475
106 133 0.3967396020889282
106 134 0.13484178483486176
106 135 0.8428835868835449
106 136 0.8391339778900146
106 137 0.8334971070289612
106 138 0.8414188027381897
106 139 0.8078563213348389
106 140 0.15356074273586273
106 141 0.1601281464099884
106 142 0.8442442417144775
106 144 0.08888888359069824
106 145 0.8434222936630249
106 146 0.8301193714141846
106 147 0.8339382410049438
106 148 0.84212327003479
106 149 0.837619960308075
106 150 0.8366448283195496
106 151 0.8363913297653198
106 152 0.8197079300880432
106 153 0.11898881942033768
106 154 0.13353893160820007
106 155 0.8368620276451111
106 156 0.15876322984695435
106 157 0.8432958722114563
106 158 0.055835433304309845
106 159 0.8369817733764648
106 160 0.37508636713027954
106 161 0.13388091325759888
106 162 0.8383037447929382
106 163 0.37319526076316833
106 164 0.8162789344787598
106 165 0.8412259221076965
106 166 0.8422661423683167
106 167 0.8298800587654114
106 168 0.8490207195281982
106 169 0.8229911923408508
106 170 0.1373964548110962
106 171 0.8246402740478516
106 172 0.8058132529258728
106 173 0.853087306022644
106 174 0.8350319266319275
106 175 0.8506523966789246
106 176 0.8475757837295532
106 177 0.8336038589477539
106 179 0.8374152779579163
106 180 0.8334971070289612
106 181 0.8347998261451721
106 182 0.32207754254341125
106 183 0.8368620276451111
106 184 0.853142261505127
106 185 0.09876542538404465
106 186 0.840582013130188
106 187 0.8435689806938171
106 188 0.4393380880355835
106 189 0.820160448551178
106 190 0.8276038765907288
106 191 0.843341588973999
106 192 0.09369711577892303
106 193 0.8411893248558044
106 194 0.08084520697593689
106 195 0.8367556929588318
106 196 0.8355603218078613
106 198 0.2669628858566284
106 199 0.815678060054779
106 200 0.803299069404602
106 201 0.8421657085418701
106 202 0.8359463214874268
106 204 0.13539373874664307
106 205 0.7867439985275269
106 206 0.8013755679130554
106 208 0.8470180034637451
106 209 0.8475139737129211
106 210 0.7671504616737366
106 211 0.4606112837791443
106 212 0.2466467022895813
106 213 0.16514676809310913
106 214 0.848267674446106
106 215 0.19245010614395142
106 216 0.8374035954475403
106 217 0.84743332862854
106 218 0.81756591796875
106 219 0.840225338935852
106 220 0.8312421441078186
106 221 0.7904147505760193
106 222 0.836654007434845
106 223 0.8316709399223328
106 224 0.2549382746219635
106 225 0.8514090180397034
106 226 0.12962962687015533
106 227 0.834039032459259
106 228 0.8172430992126465
106 229 0.8350178599357605
106 230 0.09828199446201324
106 231 0.5844550728797913
106 232 0.662230908870697
106 233 0.09346567094326019
106 234 0.8298160433769226
106 235 0.7195649147033691
106 236 0.8467843532562256
106 237 0.8250926733016968
106 238 0.8462653756141663
106 239 0.8213486075401306
106 240 0.8371881246566772
106 241 0.8230266571044922
106 242 0.07027283310890198
106 243 0.8507077693939209
106 244 0.8066922426223755
106 245 0.8064050674438477
106 246 0.8284065127372742
106 247 0.8407797813415527
106 248 0.8219218254089355
106 249 0.8271626234054565
106 250 0.8455637097358704
106 251 0.05237828195095062
106 252 0.8322986960411072
106 254 0.8293552994728088
106 255 0.7288997769355774
107 108 0.9695153832435608
107 109 0.06807640939950943
107 110 0.9469053745269775
107 111 0.9684817790985107
107 112 0.9680102467536926
107 113 0.974808394908905
107 114 0.9562151432037354
107 115 0.9738090634346008
107 116 0.9706640243530273
107 117 0.20819206535816193
107 118 0.9621464014053345
107 119 0.0641830563545227
107 120 0.9642221927642822
107 121 0.9711939096450806
107 122 0.969603419303894
107 123 0.9668866395950317
107 124 0.9667537212371826
107 125 0.6891345381736755
107 126 0.9637182950973511
107 127 0.9562151432037354
107 128 0.9679503440856934
107 129 0.9717234969139099
107 130 0.18443156778812408
107 131 0.9605409502983093
107 132 0.34653568267822266
107 133 0.37148627638816833
107 134 0.20221707224845886
107 135 0.9577125310897827
107 136 0.9701338410377502
107 137 0.9663839340209961
107 138 0.9658820629119873
107 139 0.9365233182907104
107 140 0.13305595517158508
107 141 0.20041151344776154
107 142 0.9684532880783081
107 143 0.09627458453178406
107 144 0.16045762598514557
107 145 0.9615805149078369
107 146 0.9621464014053345
107 147 0.9589328765869141
107 148 0.9540298581123352
107 149 0.969072699546814
107 150 0.9700186252593994
107 151 0.9582496285438538
107 152 0.9557085037231445
107 153 0.1637476682662964
107 154 0.2091638296842575
107 155 0.9726674556732178
107 156 0.1375637799501419
107 157 0.9621464014053345
107 158 0.09675959497690201
107 159 0.972781777381897
107 160 0.4270092844963074
107 161 0.12428995221853256
107 162 0.9615505337715149
107 163 0.3630741834640503
107 164 0.9535212516784668
107 165 0.9613914489746094
107 166 0.9727227091789246
107 167 0.9453619122505188
107 168 0.9674186110496521
107 169 0.9556769728660583
107 170 0.14005890488624573
107 171 0.9502472877502441
107 172 0.9269580245018005
107 173 0.9731963872909546
107 174 0.9375936388969421
107 175 0.9748950004577637
107 176 0.9695731401443481
107 177 0.9637491703033447
107 179 0.957660973072052
107 180 0.9663839340209961
107 181 0.9637491703033447
107 182 0.3360241949558258
107 183 0.96854168176651
107 184 0.9733105897903442
107 185 0.09627458453178406
107 186 0.9683493971824646
107 187 0.969072699546814
107 188 0.48676320910453796
107 189 0.9278169870376587
107 190 0.9561266303062439
107 191 0.9732806086540222
107 192 0.1014823243021965
107 193 0.9711344838142395
107 194 0.13231676816940308
107 195 0.9642828702926636
107 196 0.9642828702926636
107 197 0.09675959497690201
107 198 0.25875985622406006
107 199 0.9437595009803772
107 200 0.925868809223175
107 201 0.9593784809112549
107 202 0.9545996785163879
107 204 0.17876537144184113
107 205 0.9304597973823547
107 206 0.9437922239303589
107 208 0.9758107662200928
107 209 0.9653186202049255
107 210 0.9166968464851379
107 211 0.5711351037025452
107 212 0.4446942210197449
107 213 0.18712414801120758
107 214 0.9689571261405945
107 215 0.21770460903644562
107 216 0.9664146304130554
107 217 0.9630199670791626
107 218 0.9459373950958252
107 219 0.9700186252593994
107 220 0.969603419303894
107 221 0.9026832580566406
107 222 0.9717234969139099
107 223 0.969072699546814
107 224 0.2589823305606842
107 225 0.9694879651069641
107 226 0.1283661127090454
107 227 0.9533776640892029
107 228 0.9388406276702881
107 229 0.9664146304130554
107 230 0.15066508948802948
107 231 0.6282091736793518
107 232 0.7062203288078308
107 233 0.13252142071723938
107 234 0.9669467806816101
107 235 0.8415825963020325
107 236 0.9789698719978333
107 237 0.9594692587852478
107 238 0.9732234477996826
107 239 0.9593502879142761
107 240 0.9716641902923584
107 241 0.9605409502983093
107 242 0.08118585497140884
107 243 0.969072699546814
107 244 0.9506491422653198
107 245 0.9419476985931396
107 246 0.9496756196022034
107 247 0.9668580293655396
107 248 0.9589328765869141
107 249 0.9598082304000854
107 250 0.9658217430114746
107 251 0.06807640939950943
107 252 0.9615505337715149
107 253 0.1014823243021965
107 254 0.9636884927749634
107 255 0.8511447310447693
108 109 0.09109750390052795
108 110 0.9386438727378845
108 111 0.9626556038856506
108 112 0.9642683863639832
108 113 0.9700852036476135
108 114 0.9565341472625732
108 115 0.9701216220855713
108 116 0.9690165519714355
108 117 0.20419777929782867
108 118 0.9614666700363159
108 119 0.06441566348075867
108 120 0.9604250192642212
108 121 0.9695510268211365
108 122 0.9710491895675659
108 123 0.961040198802948
108 124 0.9587688446044922
108 125 0.6783598065376282
108 126 0.9588820338249207
108 127 0.9523388147354126
108 128 0.9673068523406982
108 129 0.9690532088279724
108 130 0.1850999891757965
108 131 0.9577622413635254
108 132 0.35057392716407776
108 133 0.3450092673301697
108 134 0.22549991309642792
108 135 0.9527704119682312
108 136 0.9664146304130554
108 137 0.9615789651870728
108 138 0.9641931653022766
108 139 0.933472216129303
108 140 0.14759483933448792
108 141 0.19598045945167542
108 142 0.9615789651870728
108 143 0.096623495221138
108 144 0.16103914380073547
108 145 0.958805501461029
108 146 0.9593833684921265
108 147 0.9634531736373901
108 148 0.9480177760124207
108 149 0.9663767218589783
108 150 0.9621174335479736
108 151 0.9501607418060303
108 152 0.9539307951927185
108 153 0.1704278290271759
108 154 0.2277875542640686
108 155 0.9658405184745789
108 156 0.15778550505638123
108 157 0.9666750431060791
108 158 0.09711026400327682
108 159 0.9732145071029663
108 160 0.42379510402679443
108 161 0.12474039196968079
108 162 0.9587688446044922
108 163 0.32168805599212646
108 164 0.9527704119682312
108 165 0.9543650150299072
108 166 0.9669504165649414
108 167 0.9434816241264343
108 168 0.9667710661888123
108 169 0.9507453441619873
108 170 0.14759483933448792
108 171 0.9462981820106506
108 172 0.9106398224830627
108 173 0.9653420448303223
108 174 0.933472216129303
108 175 0.9712263345718384
108 176 0.9648053646087646
108 177 0.9599616527557373
108 179 0.9463774561882019
108 180 0.9646941423416138
108 181 0.9610016942024231
108 182 0.34867390990257263
108 183 0.9658405184745789
108 184 0.9727163314819336
108 185 0.096623495221138
108 186 0.9572601318359375
108 187 0.9653420448303223
108 188 0.4592992067337036
108 189 0.9268634915351868
108 190 0.9490699768066406
108 191 0.9706190228462219
108 192 0.07129507511854172
108 193 0.9653420448303223
108 194 0.1327963024377823
108 195 0.9625800251960754
108 196 0.9605010151863098
108 197 0.10682129114866257
108 198 0.232153981924057
108 199 0.9408086538314819
108 200 0.9095465540885925
108 201 0.9555214047431946
108 202 0.9528067708015442
108 204 0.18501989543437958
108 205 0.9241045117378235
108 206 0.9397876858711243
108 208 0.9710826873779297
108 209 0.9646590352058411
108 210 0.9167488217353821
108 211 0.5766580104827881
108 212 0.47230422496795654
108 213 0.18780232965946198
108 214 0.9641570448875427
108 215 0.22314240038394928
108 216 0.9626556038856506
108 217 0.9518342614173889
108 218 0.9578421711921692
108 219 0.9621174335479736
108 220 0.9658784866333008
108 221 0.8822917342185974
108 222 0.9690532088279724
108 223 0.9653420448303223
108 224 0.2637432813644409
108 225 0.9615789651870728
108 226 0.10467544943094254
108 227 0.9430882930755615
108 228 0.9433102607727051
108 229 0.9626556038856506
108 230 0.15121112763881683
108 231 0.6240523457527161
108 232 0.7116377353668213
108 233 0.10344576835632324
108 234 0.9663039445877075
108 235 0.843442976474762
108 236 0.970159113407135
108 237 0.9556355476379395
108 238 0.9695153832435608
108 239 0.9554853439331055
108 240 0.9679467678070068
108 241 0.956718921661377
108 242 0.10185010731220245
108 243 0.9674113988876343
108 244 0.9424203634262085
108 245 0.9314433932304382
108 246 0.9457125663757324
108 247 0.9610016942024231
108 248 0.958228349685669
108 249 0.951718807220459
108 250 0.9599616527557373
108 251 0.09109750390052795
108 252 0.9566799998283386
108 253 0.10185010731220245
108 254 0.9578010439872742
108 255 0.8364576697349548
109 110 0.09335200488567352
109 112 0.09095608443021774
109 114 0.09210626035928726
109 115 0.0792187750339508
109 116 0.09072183817625046
109 118 0.0914778783917427
109 120 0.0914778783917427
109 121 0.09067521244287491
109 122 0.09081532061100006
109 123 0.0912395790219307
109 124 0.06878852844238281
109 125 0.11331667751073837
109 126 0.09143006801605225
109 127 0.09210626035928726
109 128 0.09114479273557663
109 129 0.09062865376472473
109 130 0.05976143106818199
109 131 0.09162174165248871
109 134 0.24753688275814056
109 135 0.057719636708498
109 136 0.0794224739074707
109 137 0.07979313284158707
109 138 0.07975169271230698
109 139 0.058958329260349274
109 141 0.05661385506391525
109 142 0.09119214862585068
109 143 0.1178511306643486
109 145 0.08016902208328247
109 146 0.0914778783917427
109 147 0.09176629036664963
109 148 0.06930050998926163
109 149 0.09086216986179352
109 150 0.06835859268903732
109 151 0.05768889561295509
109 152 0.09205746650695801
109 153 0.06681530922651291
109 154 0.0980580747127533
109 155 0.09090908616781235
109 156 0.07216878980398178
109 157 0.0914778783917427
109 159 0.09053574502468109
109 160 0.052270837128162384
109 162 0.09171804040670395
109 164 0.09235142171382904
109 165 0.06922666728496552
109 166 0.0680413767695427
109 167 0.09319984167814255
109 169 0.08063574135303497
109 170 0.07715167105197906
109 171 0.08115430176258087
109 173 0.07950439304113388
109 175 0.09035079926252365
109 176 0.07954545319080353
109 177 0.09133467823266983
109 179 0.0809803381562233
109 180 0.06839410960674286
109 181 0.09133467823266983
109 182 0.21960952877998352
109 183 0.09090908616781235
109 184 0.07917822152376175
109 186 0.08012699335813522
109 187 0.07950439304113388
109 188 0.11458731442689896
109 189 0.0947558730840683
109 190 0.05775042995810509
109 191 0.09058216214179993
109 193 0.07950439304113388
109 195 0.09128709137439728
109 196 0.09128709137439728
109 199 0.0582815520465374
109 200 0.09600307792425156
109 201 0.06900654733181
109 202 0.08072147518396378
109 204 0.12309149652719498
109 205 0.08305132389068604
109 206 0.09314928203821182
109 208 0.09072183817625046
109 209 0.09128709137439728
109 210 0.09572775661945343
109 212 0.07134772092103958
109 213 0.060633908957242966
109 214 0.0912395790219307
109 216 0.07971031218767166
109 217 0.09205746650695801
109 218 0.09304842352867126
109 219 0.09114479273557663
109 220 0.09081532061100006
109 222 0.09062865376472473
109 223 0.09086216986179352
109 224 0.08391813933849335
109 225 0.06839410960674286
109 227 0.08124171197414398
109 228 0.05856873467564583
109 229 0.07971031218767166
109 231 0.08827807009220123
109 232 0.1254911571741104
109 234 0.09105028957128525
109 236 0.09044312685728073
109 237 0.09171804040670395
109 238 0.09076854586601257
109 240 0.09081532061100006
109 241 0.09162174165248871
109 243 0.07950439304113388
109 244 0.09319984167814255
109 245 0.0587625615298748
109 246 0.09289773553609848
109 247 0.07991784065961838
109 248 0.09176629036664963
109 249 0.08080749213695526
109 250 0.05708417296409607
109 254 0.08008503168821335
110 111 0.9407699108123779
110 112 0.9424935579299927
110 113 0.9433308243751526
110 114 0.9468882083892822
110 115 0.9560977816581726
110 116 0.9432422518730164
110 117 0.16058820486068726
110 118 0.9404281377792358
110 120 0.9414955973625183
110 121 0.9438154101371765
110 122 0.946333646774292
110 123 0.9518193006515503
110 124 0.9343350529670715
110 125 0.6770137548446655
110 126 0.9495388269424438
110 127 0.9436638355255127
110 128 0.9455125331878662
110 129 0.9602516293525696
110 130 0.17852318286895752
110 131 0.9333540797233582
110 132 0.3022262156009674
110 133 0.2993750274181366
110 134 0.18948613107204437
110 135 0.9278556108474731
110 136 0.942668616771698
110 137 0.9385549426078796
110 138 0.9423218369483948
110 139 0.9048375487327576
110 140 0.10803394764661789
110 141 0.16383551061153412
110 142 0.9449397325515747
110 143 0.0990147590637207
110 144 0.11881770938634872
110 145 0.9472528696060181
110 146 0.9372257590293884
110 147 0.9337558746337891
110 148 0.9315852522850037
110 149 0.9563642144203186
110 150 0.9412582516670227
110 151 0.9284384846687317
110 152 0.9356443881988525
110 153 0.15593357384204865
110 154 0.22427096962928772
110 155 0.9451889991760254
110 156 0.12126781791448593
110 157 0.9446979761123657
110 158 0.09951357543468475
110 159 0.9508154988288879
110 160 0.4050057530403137
110 161 0.1022619977593422
110 162 0.9311243295669556
110 163 0.34423553943634033
110 164 0.9235450029373169
110 165 0.9262842535972595
110 166 0.9443008303642273
110 167 0.9189788699150085
110 168 0.9364266991615295
110 169 0.9463154077529907
110 170 0.14404526352882385
110 171 0.9242618680000305
110 172 0.881644606590271
110 173 0.9500025510787964
110 174 0.9004344940185547
110 175 0.9478187561035156
110 176 0.9430674314498901
110 177 0.938956081867218
110 179 0.9233605861663818
110 180 0.9374908208847046
110 181 0.9549428224563599
110 182 0.3602316677570343
110 183 0.9451889991760254
110 184 0.9471609592437744
110 185 0.05500819906592369
110 186 0.9435505270957947
110 187 0.9425806999206543
110 188 0.49205994606018066
110 189 0.8989392518997192
110 190 0.9251159429550171
110 191 0.9439039826393127
110 192 0.10437072068452835
110 193 0.9595449566841125
110 194 0.07204382121562958
110 195 0.9544453024864197
110 196 0.9395321011543274
110 197 0.08956221491098404
110 198 0.14515893161296844
110 199 0.9140375256538391
110 200 0.8939674496650696
110 201 0.9297809600830078
110 202 0.9387094974517822
110 204 0.18959881365299225
110 205 0.8971337676048279
110 206 0.9250021576881409
110 208 0.9421836137771606
110 209 0.9405973553657532
110 210 0.9025741219520569
110 211 0.5962370038032532
110 212 0.42404884099960327
110 213 0.18678978085517883
110 214 0.9358491897583008
110 215 0.12862393260002136
110 216 0.9460850358009338
110 217 0.9474607706069946
110 218 0.9185715913772583
110 219 0.9401947259902954
110 220 0.9537516832351685
110 221 0.8637125492095947
110 222 0.9443884491920471
110 223 0.9574244618415833
110 224 0.26243653893470764
110 225 0.95026034116745
110 226 0.13201966881752014
110 227 0.9198401570320129
110 228 0.9076064229011536
110 229 0.9386438727378845
110 230 0.14821621775627136
110 231 0.634552001953125
110 232 0.6823900938034058
110 233 0.13629326224327087
110 234 0.9402822852134705
110 235 0.8070207238197327
110 236 0.9519535899162292
110 237 0.9396862983703613
110 238 0.9437277913093567
110 239 0.92646723985672
110 240 0.9601100087165833
110 241 0.9461837410926819
110 242 0.0834965705871582
110 243 0.9425806999206543
110 244 0.915716290473938
110 245 0.9139015078544617
110 246 0.9203361868858337
110 247 0.9517455101013184
110 248 0.940180778503418
110 249 0.9278556108474731
110 250 0.934692919254303
110 251 0.08168300241231918
110 252 0.9300540089607239
110 253 0.09393364191055298
110 254 0.935580313205719
110 255 0.8328763842582703
111 112 0.9642683863639832
111 113 0.9721491932868958
111 114 0.9533876776695251
111 115 0.9690907001495361
111 116 0.9690165519714355
111 117 0.21369536221027374
111 118 0.958341658115387
111 119 0.06441566348075867
111 120 0.9635500907897949
111 121 0.972648561000824
111 122 0.9658784866333008
111 123 0.9620791673660278
111 124 0.9587688446044922
111 125 0.668036937713623
111 126 0.9609642624855042
111 127 0.9565341472625732
111 128 0.9631552696228027
111 129 0.9680211544036865
111 130 0.17965586483478546
111 131 0.9619354605674744
111 132 0.37005025148391724
111 133 0.3477915823459625
111 134 0.21196992695331573
111 135 0.9527704119682312
111 136 0.9705489873886108
111 137 0.9657326340675354
111 138 0.9631552696228027
111 139 0.9345464110374451
111 140 0.14759483933448792
111 141 0.20113784074783325
111 142 0.9636557698249817
111 143 0.08588755130767822
111 144 0.1481560319662094
111 145 0.958805501461029
111 146 0.9593833684921265
111 147 0.9571834206581116
111 148 0.9501221776008606
111 149 0.9653420448303223
111 150 0.9683446884155273
111 151 0.9564671516418457
111 152 0.9560273289680481
111 153 0.16434112191200256
111 154 0.2233211249113083
111 155 0.9648053646087646
111 156 0.15121112763881683
111 157 0.958341658115387
111 158 0.10682129114866257
111 159 0.9721835255622864
111 160 0.41903337836265564
111 161 0.12474039196968079
111 162 0.9566799998283386
111 163 0.3387688398361206
111 164 0.9485639929771423
111 165 0.9522628784179688
111 166 0.9690165519714355
111 167 0.9445428848266602
111 168 0.9730015397071838
111 169 0.9507453441619873
111 170 0.13353818655014038
111 171 0.9484105110168457
111 172 0.9204787015914917
111 173 0.9653420448303223
111 174 0.933472216129303
111 175 0.9732840061187744
111 176 0.9689461588859558
111 177 0.9620417952537537
111 179 0.9474313259124756
111 180 0.9636557698249817
111 181 0.9610016942024231
111 182 0.3429579436779022
111 183 0.9648053646087646
111 184 0.9727163314819336
111 185 0.096623495221138
111 186 0.958302915096283
111 187 0.9684460759162903
111 188 0.47808873653411865
111 189 0.9268634915351868
111 190 0.9522265195846558
111 191 0.9706190228462219
111 192 0.07129507511854172
111 193 0.9653420448303223
111 194 0.1327963024377823
111 195 0.9605010151863098
111 196 0.9636195302009583
111 197 0.09711026400327682
111 198 0.24395841360092163
111 199 0.950365424156189
111 200 0.9117330312728882
111 201 0.9555214047431946
111 202 0.9528067708015442
111 204 0.16819991171360016
111 205 0.9316703081130981
111 206 0.9472126364707947
111 208 0.9679834842681885
111 209 0.9605010151863098
111 210 0.921109139919281
111 211 0.5904701352119446
111 212 0.47013768553733826
111 213 0.18780232965946198
111 214 0.9631180763244629
111 215 0.22314240038394928
111 216 0.9626556038856506
111 217 0.9528825283050537
111 218 0.9461870193481445
111 219 0.9662689566612244
111 220 0.9710491895675659
111 221 0.8867989778518677
111 222 0.9700852036476135
111 223 0.9674113988876343
111 224 0.26756563782691956
111 225 0.9646941423416138
111 226 0.11272741109132767
111 227 0.9430882930755615
111 228 0.9401089549064636
111 229 0.9668049812316895
111 230 0.15121112763881683
111 231 0.6079685688018799
111 232 0.6973478198051453
111 233 0.13300170004367828
111 234 0.9631934762001038
111 235 0.843442976474762
111 236 0.970159113407135
111 237 0.9566799998283386
111 238 0.9695153832435608
111 239 0.9586318135261536
111 240 0.9669126868247986
111 241 0.9598488211631775
111 242 0.10185010731220245
111 243 0.9653420448303223
111 244 0.9424203634262085
111 245 0.9357258081436157
111 246 0.9435968399047852
111 247 0.9599616527557373
111 248 0.9561384320259094
111 249 0.9527704119682312
111 250 0.9630818367004395
111 251 0.09109750390052795
111 252 0.9681684970855713
111 253 0.10185010731220245
111 254 0.9598855376243591
111 255 0.8459360003471375
112 113 0.9696096181869507
112 114 0.9581907987594604
112 115 0.9706743359565735
112 116 0.9695751667022705
112 117 0.1943979561328888
112 118 0.9620542526245117
112 119 0.06431566923856735
112 120 0.9630942940711975
112 121 0.9721695780754089
112 122 0.9716067314147949
112 123 0.9647349715232849
112 124 0.9572804570198059
112 125 0.6831963658332825
112 126 0.9615514278411865
112 127 0.9550492167472839
112 128 0.9647688865661621
112 129 0.9696096181869507
112 130 0.18481262028217316
112 131 0.9583587646484375
112 132 0.34725168347358704
112 133 0.3583637475967407
112 134 0.22965285181999207
112 135 0.9533913135528564
112 136 0.9700742959976196
112 137 0.9663069844245911
112 138 0.9647688865661621
112 139 0.9330956935882568
112 140 0.14736570417881012
112 141 0.19567623734474182
112 142 0.9663069844245911
112 143 0.09647350013256073
112 144 0.15435758233070374
112 145 0.961483895778656
112 146 0.9610141515731812
112 147 0.9588274359703064
112 148 0.9507482647895813
112 149 0.96900874376297
112 150 0.9647688865661621
112 151 0.9507846236228943
112 152 0.9587298035621643
112 153 0.17016324400901794
112 154 0.21851494908332825
112 155 0.9684755206108093
112 156 0.15754055976867676
112 157 0.9630942940711975
112 158 0.10665546357631683
112 159 0.9727330803871155
112 160 0.43502309918403625
112 161 0.12454674392938614
112 162 0.9593660235404968
112 163 0.3524548411369324
112 164 0.9544413089752197
112 165 0.9518341422080994
112 166 0.9685437083244324
112 167 0.9420169591903687
112 168 0.970454216003418
112 169 0.9576515555381775
112 170 0.14034828543663025
112 171 0.9553741216659546
112 172 0.9135921001434326
112 173 0.9679757356643677
112 174 0.9288055896759033
112 175 0.9748548269271851
112 176 0.9705427289009094
112 177 0.9615867137908936
112 179 0.9501694440841675
112 180 0.9631965160369873
112 181 0.9667788743972778
112 182 0.3566932678222656
112 183 0.9695091247558594
112 184 0.9712063074111938
112 185 0.08575422316789627
112 186 0.9588975310325623
112 187 0.9679757356643677
112 188 0.47317755222320557
112 189 0.9286566972732544
112 190 0.9507482647895813
112 191 0.970142126083374
112 192 0.10169199109077454
112 193 0.9669426679611206
112 194 0.12479071319103241
112 195 0.9693887829780579
112 196 0.9641993641853333
112 197 0.10665546357631683
112 198 0.23572227358818054
112 199 0.9499502182006836
112 200 0.9201412200927734
112 201 0.9592685103416443
112 202 0.9555231928825378
112 204 0.17913472652435303
112 205 0.9280656576156616
112 206 0.9415059685707092
112 208 0.9695751667022705
112 209 0.9641993641853333
112 210 0.9196791648864746
112 211 0.5912773609161377
112 212 0.469407856464386
112 213 0.18199573457241058
112 214 0.9657723307609558
112 215 0.2135128378868103
112 216 0.9694470763206482
112 217 0.9576831459999084
112 218 0.9500076770782471
112 219 0.9647688865661621
112 220 0.9695417284965515
112 221 0.88542240858078
112 222 0.9706400036811829
112 223 0.96900874376297
112 224 0.26333385705947876
112 225 0.9642333984375
112 226 0.1286313384771347
112 227 0.9458467364311218
112 228 0.9375841021537781
112 229 0.9642683863639832
112 230 0.15097637474536896
112 231 0.6262953281402588
112 232 0.7133865356445312
112 233 0.11804019659757614
112 234 0.9648038148880005
112 235 0.8433213829994202
112 236 0.9727662205696106
112 237 0.9604088068008423
112 238 0.9690423011779785
112 239 0.9529548287391663
112 240 0.9695417284965515
112 241 0.9594005346298218
112 242 0.10169199109077454
112 243 0.96900874376297
112 244 0.9441362023353577
112 245 0.9332042336463928
112 246 0.9453005790710449
112 247 0.9678173065185547
112 248 0.9609141945838928
112 249 0.9502413272857666
112 250 0.9636635780334473
112 251 0.07958657294511795
112 252 0.9645799994468689
112 253 0.10169199109077454
112 254 0.9604765772819519
112 255 0.8387080430984497
113 114 0.9589151740074158
113 115 0.9743594527244568
113 116 0.9743068218231201
113 117 0.21259552240371704
113 118 0.9637725353240967
113 119 0.06408413499593735
113 120 0.9648088216781616
113 121 0.9727786779403687
113 122 0.9711955189704895
113 123 0.9664300680160522
113 124 0.9631856679916382
113 125 0.6792698502540588
113 126 0.9643046259880066
113 127 0.9568283557891846
113 128 0.9685235619544983
113 129 0.9743326902389526
113 130 0.18414732813835144
113 131 0.9642502665519714
113 132 0.3653777241706848
113 133 0.3653777241706848
113 134 0.20639219880104065
113 135 0.9541440606117249
113 136 0.9717234969139099
113 137 0.9669607281684875
113 138 0.9726537466049194
113 139 0.9361485838890076
113 140 0.14683520793914795
113 141 0.19497181475162506
113 142 0.9679937958717346
113 143 0.06408412754535675
113 144 0.15380191802978516
113 145 0.9673641324043274
113 146 0.9648088216781616
113 147 0.9636924266815186
113 148 0.9567466378211975
113 149 0.9706671237945557
113 150 0.9695561528205872
113 151 0.9557271003723145
113 152 0.9573642015457153
113 153 0.14532914757728577
113 154 0.2043980211019516
113 155 0.9732280969619751
113 156 0.15697342157363892
113 157 0.9637725353240967
113 158 0.09661047160625458
113 159 0.9743594527244568
113 160 0.41687673330307007
113 161 0.12409839779138565
113 162 0.9621466398239136
113 163 0.3455217480659485
113 164 0.9541440606117249
113 165 0.9651380181312561
113 166 0.9732790589332581
113 167 0.9470723271369934
113 168 0.9752253890037537
113 169 0.9573360681533813
113 170 0.13984304666519165
113 171 0.954036295413971
113 172 0.9287921786308289
113 173 0.9716964960098267
113 174 0.9500412344932556
113 175 0.9764631986618042
113 176 0.9742580056190491
113 177 0.9664025902748108
113 179 0.9551365971565247
113 180 0.9710930585861206
113 181 0.9653679132461548
113 182 0.3298197388648987
113 183 0.9711683392524719
113 184 0.9759109020233154
113 185 0.08544550836086273
113 186 0.9647822380065918
113 187 0.9737551808357239
113 188 0.47147420048713684
113 189 0.9349746108055115
113 190 0.9577933549880981
113 191 0.9748590588569641
113 192 0.10132590681314468
113 193 0.9706671237945557
113 194 0.13211283087730408
113 195 0.9658991694450378
113 196 0.9669333696365356
113 197 0.10627152025699615
113 198 0.2583610713481903
113 199 0.9465305209159851
113 200 0.9168288111686707
113 201 0.9589422345161438
113 202 0.9604440927505493
113 204 0.17848984897136688
113 205 0.9301010966300964
113 206 0.9486690759658813
113 208 0.9784177541732788
113 209 0.9658991694450378
113 210 0.9239596724510193
113 211 0.5771253705024719
113 212 0.4612518846988678
113 213 0.17035023868083954
113 214 0.9674636721611023
113 215 0.22199395298957825
113 216 0.9680211544036865
113 217 0.9573642015457153
113 218 0.9529123902320862
113 219 0.9685235619544983
113 220 0.9722242951393127
113 221 0.8934450149536133
113 222 0.9743326902389526
113 223 0.9706671237945557
113 224 0.24337239563465118
113 225 0.9679937958717346
113 226 0.11214722692966461
113 227 0.9540119767189026
113 228 0.9437633156776428
113 229 0.9700852036476135
113 230 0.15043286979198456
113 231 0.6128399968147278
113 232 0.6966020464897156
113 233 0.1323171705007553
113 234 0.9737083315849304
113 235 0.8485699892044067
113 236 0.9774610996246338
113 237 0.9621466398239136
113 238 0.9717234969139099
113 239 0.9641323685646057
113 240 0.9711955189704895
113 241 0.9632123112678528
113 242 0.10132590681314468
113 243 0.9758138656616211
113 244 0.9481282234191895
113 245 0.9373006224632263
113 246 0.9534739851951599
113 247 0.9653679132461548
113 248 0.9616132974624634
113 249 0.9593750834465027
113 250 0.9705413579940796
113 251 0.09062865376472473
113 252 0.9631856679916382
113 253 0.0911933183670044
113 254 0.9642770290374756
113 255 0.8533689975738525
114 115 0.9610592722892761
114 116 0.9578121900558472
114 117 0.1344383805990219
114 118 0.9510491490364075
114 120 0.9499959349632263
114 121 0.9625397324562073
114 122 0.9650726318359375
114 123 0.9632784128189087
114 124 0.9472101330757141
114 125 0.6694703102111816
114 126 0.9537100791931152
114 127 0.9437963962554932
114 128 0.9507343769073486
114 129 0.9683060646057129
114 130 0.17063646018505096
114 131 0.9462156891822815
114 132 0.33757710456848145
114 133 0.2728748321533203
114 134 0.22343704104423523
114 135 0.9388656616210938
114 136 0.9562151432037354
114 137 0.9554280638694763
114 138 0.957030713558197
114 139 0.917742908000946
114 140 0.10659228265285492
114 141 0.1616491973400116
114 142 0.9512283802032471
114 143 0.09769343584775925
114 144 0.14328372478485107
114 145 0.9557095170021057
114 146 0.9521023631095886
114 147 0.9455955028533936
114 148 0.937238872051239
114 149 0.9655704498291016
114 150 0.954931914806366
114 151 0.9373028874397278
114 152 0.9464760422706604
114 153 0.13539038598537445
114 154 0.22127816081047058
114 155 0.957695722579956
114 156 0.11964953690767288
114 157 0.9510491490364075
114 158 0.0883670449256897
114 159 0.9641863703727722
114 160 0.4092300534248352
114 161 0.1177135780453682
114 162 0.9482661485671997
114 163 0.3137369453907013
114 164 0.9378023743629456
114 165 0.9383655786514282
114 166 0.9588567018508911
114 167 0.9335414171218872
114 168 0.9512283802032471
114 169 0.9506632685661316
114 170 0.1421230435371399
114 171 0.9428951144218445
114 172 0.8975121378898621
114 173 0.9561553597450256
114 174 0.9210011959075928
114 175 0.9611763954162598
114 176 0.9545558094978333
114 177 0.9516635537147522
114 179 0.9355461597442627
114 180 0.9512283802032471
114 181 0.960076093673706
114 182 0.3438659906387329
114 183 0.9618824124336243
114 184 0.9584835767745972
114 186 0.955208420753479
114 187 0.9551092386245728
114 188 0.46227437257766724
114 189 0.9174899458885193
114 190 0.9383026361465454
114 191 0.9573804140090942
114 192 0.08238234370946884
114 193 0.9603398442268372
114 194 0.12636874616146088
114 195 0.9606268405914307
114 196 0.950116753578186
114 197 0.10800416767597198
114 198 0.1631137579679489
114 199 0.9265333414077759
114 200 0.9041439890861511
114 201 0.9427971243858337
114 202 0.9516741037368774
114 204 0.18706868588924408
114 205 0.9223167896270752
114 206 0.9308901429176331
114 208 0.9578121900558472
114 209 0.9522187113761902
114 210 0.9202874898910522
114 211 0.5760610103607178
114 212 0.48191529512405396
114 213 0.16754287481307983
114 214 0.9506727457046509
114 215 0.15980945527553558
114 216 0.9575830101966858
114 217 0.9411765933036804
114 218 0.9395237565040588
114 219 0.9528331756591797
114 220 0.9692549705505371
114 221 0.8795295357704163
114 222 0.9589151740074158
114 223 0.9645243287086487
114 224 0.24347563087940216
114 225 0.9512283802032471
114 226 0.1221168041229248
114 227 0.9310828447341919
114 228 0.9235464334487915
114 229 0.9523388147354126
114 230 0.1528855264186859
114 231 0.6293365359306335
114 232 0.6761735081672668
114 233 0.14194528758525848
114 234 0.9549901485443115
114 235 0.8203073143959045
114 236 0.960076093673706
114 237 0.9535460472106934
114 238 0.9583052396774292
114 239 0.9459173083305359
114 240 0.9619358777999878
114 241 0.9588741064071655
114 242 0.09268013387918472
114 243 0.9561553597450256
114 244 0.9335414171218872
114 245 0.9276853203773499
114 246 0.933724045753479
114 247 0.9516635537147522
114 248 0.9582738876342773
114 249 0.9388656616210938
114 250 0.9506120085716248
114 251 0.09210626035928726
114 252 0.9450982213020325
114 253 0.1029779314994812
114 254 0.9494393467903137
114 255 0.8529074788093567
115 116 0.974334716796875
115 117 0.21709708869457245
115 118 0.9648550152778625
115 120 0.967960774898529
115 121 0.9748600125312805
115 122 0.9732831120491028
115 123 0.9716347455978394
115 124 0.9621982574462891
115 125 0.690298318862915
115 126 0.9715937376022339
115 127 0.9631439447402954
115 128 0.9685623049736023
115 129 0.9774364233016968
115 130 0.18395856022834778
115 131 0.9653355479240417
115 132 0.35117727518081665
115 133 0.3539424538612366
115 134 0.2016984224319458
115 135 0.9636173248291016
115 136 0.9738090634346008
115 137 0.9711295366287231
115 138 0.9695937633514404
115 139 0.9362564086914062
115 140 0.1466846764087677
115 141 0.18964636325836182
115 142 0.972161591053009
115 143 0.0960276648402214
115 144 0.13443872332572937
115 145 0.9684461951255798
115 146 0.9648550152778625
115 147 0.9658200740814209
115 148 0.9578571915626526
115 149 0.9727569222450256
115 150 0.9685623049736023
115 151 0.9641485810279846
115 152 0.961591899394989
115 153 0.16937686502933502
115 154 0.22638288140296936
115 155 0.9712016582489014
115 156 0.1437448114156723
115 157 0.9700312614440918
115 158 0.10616257041692734
115 159 0.9764344096183777
115 160 0.4140831530094147
115 161 0.10744168609380722
115 162 0.9621982574462891
115 163 0.36214298009872437
115 164 0.9583916068077087
115 165 0.9557919502258301
115 166 0.9753614068031311
115 167 0.9492656588554382
115 168 0.968033492565155
115 169 0.9646980166435242
115 170 0.13271470367908478
115 171 0.9509589672088623
115 172 0.9180617928504944
115 173 0.9748135209083557
115 174 0.934121310710907
115 175 0.9785296320915222
115 176 0.9712016582489014
115 177 0.9685128331184387
115 179 0.9531100392341614
115 180 0.968033492565155
115 181 0.9736809730529785
115 182 0.3550448715686798
115 183 0.9712016582489014
115 184 0.9790067672729492
115 185 0.0960276648402214
115 186 0.963793158531189
115 187 0.9717286229133606
115 188 0.48758965730667114
115 189 0.930799126625061
115 190 0.9568114876747131
115 191 0.9748848080635071
115 192 0.10122203826904297
115 193 0.9789265990257263
115 194 0.09316051006317139
115 195 0.970074474811554
115 196 0.968008279800415
115 197 0.0868602842092514
115 198 0.23854346573352814
115 199 0.9487261772155762
115 200 0.9180617928504944
115 201 0.9600417017936707
115 202 0.9605035185813904
115 204 0.17273478209972382
115 205 0.9291476011276245
115 206 0.9476965665817261
115 208 0.9733080267906189
115 209 0.9690413475036621
115 210 0.9240958094596863
115 211 0.5954083800315857
115 212 0.4414004981517792
115 213 0.17566514015197754
115 214 0.9685370326042175
115 215 0.19404558837413788
115 216 0.9732145071029663
115 217 0.9668009281158447
115 218 0.947723388671875
115 219 0.9695937633514404
115 220 0.9732831120491028
115 221 0.8914092779159546
115 222 0.9753851294517517
115 223 0.9737851619720459
115 224 0.2659156620502472
115 225 0.974225640296936
115 226 0.12803688645362854
115 227 0.9498817324638367
115 228 0.9417353272438049
115 229 0.9701216220855713
115 230 0.15027865767478943
115 231 0.6281963586807251
115 232 0.7058292031288147
115 233 0.1321815401315689
115 234 0.9696188569068909
115 235 0.8453356027603149
115 236 0.9764590859413147
115 237 0.9642741680145264
115 238 0.9738090634346008
115 239 0.95793217420578
115 240 0.9804773926734924
115 241 0.9653355479240417
115 242 0.10122203826904297
115 243 0.9737851619720459
115 244 0.9461014270782471
115 245 0.9416598677635193
115 246 0.9493426084518433
115 247 0.9726473689079285
115 248 0.9627045392990112
115 249 0.9552561640739441
115 250 0.9664455652236938
115 251 0.09053574502468109
115 252 0.9632362127304077
115 253 0.0910998284816742
115 254 0.9643242359161377
115 255 0.853671669960022
116 117 0.20808492600917816
116 118 0.9637261033058167
116 119 0.06415002793073654
116 120 0.9637261033058167
116 121 0.971722424030304
116 122 0.9711642265319824
116 123 0.9663891196250916
116 124 0.9631359577178955
116 125 0.6961231231689453
116 126 0.9632225036621094
116 127 0.9567676782608032
116 128 0.9684858918190002
116 129 0.9732790589332581
116 130 0.1897583305835724
116 131 0.962124764919281
116 132 0.34635740518569946
116 133 0.354669988155365
116 134 0.22457002103328705
116 135 0.9551252126693726
116 136 0.9706640243530273
116 137 0.9669209122657776
116 138 0.9664187431335449
116 139 0.9424600005149841
116 140 0.14698617160320282
116 141 0.2003083974123001
116 142 0.9689891338348389
116 143 0.09622504562139511
116 144 0.16037507355213165
116 145 0.9673198461532593
116 146 0.9647635221481323
116 147 0.9698866605758667
116 148 0.9608739018440247
116 149 0.9737260341644287
116 150 0.9664187431335449
116 151 0.9577566385269165
116 152 0.9583486318588257
116 153 0.16972501575946808
116 154 0.20460820198059082
116 155 0.9711360335350037
116 156 0.15713483095169067
116 157 0.9637261033058167
116 158 0.06769686937332153
116 159 0.9733080267906189
116 160 0.41493430733680725
116 161 0.12422599643468857
116 162 0.9610557556152344
116 163 0.34304195642471313
116 164 0.9572197198867798
116 165 0.9577566385269165
116 166 0.9711934328079224
116 167 0.9448754787445068
116 168 0.9689891338348389
116 169 0.9551852345466614
116 170 0.14698617160320282
116 171 0.9497584104537964
116 172 0.9145054817199707
116 173 0.9696044325828552
116 174 0.9371111989021301
116 175 0.9784918427467346
116 176 0.9762907028198242
116 177 0.96946781873703
116 179 0.9529701471328735
116 180 0.9669209122657776
116 181 0.9653248190879822
116 182 0.35008224844932556
116 183 0.9701051115989685
116 184 0.9779406189918518
116 185 0.09622504562139511
116 186 0.9626588821411133
116 187 0.9706348180770874
116 188 0.4719589650630951
116 189 0.9370105862617493
116 190 0.9535389542579651
116 191 0.9758614897727966
116 192 0.09128709137439728
116 193 0.9696044325828552
116 194 0.1244693398475647
116 195 0.9668923020362854
116 196 0.9710332155227661
116 197 0.09670981019735336
116 198 0.25862669944763184
116 199 0.9453888535499573
116 200 0.9155941605567932
116 201 0.9588848948478699
116 202 0.9562008380889893
116 204 0.1842569261789322
116 205 0.9289047718048096
116 206 0.9443629384040833
116 208 0.9753086566925049
116 209 0.9689627885818481
116 210 0.9205673933029175
116 211 0.5794382691383362
116 212 0.457410991191864
116 213 0.18702787160873413
116 214 0.9663891196250916
116 215 0.2222222238779068
116 216 0.9669504165649414
116 217 0.9604365229606628
116 218 0.9496714472770691
116 219 0.9674522876739502
116 220 0.9711642265319824
116 221 0.8909971714019775
116 222 0.9732790589332581
116 223 0.9696044325828552
116 224 0.2550424635410309
116 225 0.9679549932479858
116 226 0.12028130143880844
116 227 0.9486754536628723
116 228 0.9500471949577332
116 229 0.9679834842681885
116 230 0.13749298453330994
116 231 0.6214788556098938
116 232 0.7186647653579712
116 233 0.13245323300361633
116 234 0.9685142636299133
116 235 0.8494426012039185
116 236 0.9743635654449463
116 237 0.9600156545639038
116 238 0.976840078830719
116 239 0.9599011540412903
116 240 0.9701343774795532
116 241 0.9610857963562012
116 242 0.09128709137439728
116 243 0.9747564196586609
116 244 0.9448754787445068
116 245 0.935065746307373
116 246 0.9491869211196899
116 247 0.9642890691757202
116 248 0.9594801664352417
116 249 0.9551252126693726
116 250 0.9653248190879822
116 251 0.09072183817625046
116 252 0.9600156545639038
116 253 0.08114407956600189
116 254 0.9683822393417358
116 255 0.8412676453590393
117 118 0.2002817839384079
117 119 0.07372097671031952
117 120 0.1812073290348053
117 121 0.2032511979341507
117 122 0.16569264233112335
117 123 0.19024768471717834
117 124 0.200807586312294
117 125 0.12151626497507095
117 126 0.1811126172542572
117 127 0.21606169641017914
117 128 0.21380627155303955
117 129 0.19842249155044556
117 130 0.12461119890213013
117 131 0.21014899015426636
117 132 0.2037927210330963
117 133 0.43305954337120056
117 135 0.21182262897491455
117 136 0.20819206535816193
117 137 0.1949024796485901
117 138 0.2043037712574005
117 139 0.2065335065126419
117 140 0.19304682314395905
117 141 0.25970569252967834
117 142 0.21391735970973969
117 145 0.17671619355678558
117 146 0.20505037903785706
117 147 0.21048054099082947
117 148 0.2119356393814087
117 149 0.17051464319229126
117 150 0.19480127096176147
117 151 0.19727502763271332
117 152 0.20155073702335358
117 153 0.08359172195196152
117 154 0.06133955717086792
117 155 0.21325336396694183
117 157 0.2002817839384079
117 158 0.08891084790229797
117 159 0.18406057357788086
117 160 0.14168988168239594
117 162 0.16255852580070496
117 163 0.23457872867584229
117 164 0.2166367620229721
117 165 0.21170979738235474
117 166 0.2128141224384308
117 167 0.2089102417230606
117 168 0.21391735970973969
117 169 0.18735282123088837
117 171 0.19339248538017273
117 172 0.21018926799297333
117 173 0.21314330399036407
117 174 0.2114509642124176
117 175 0.21665358543395996
117 176 0.20377543568611145
117 177 0.21425171196460724
117 179 0.20745126903057098
117 180 0.20440992712974548
117 181 0.1761625111103058
117 183 0.19429750740528107
117 184 0.21698595583438873
117 185 0.14744193851947784
117 186 0.18139716982841492
117 187 0.20367026329040527
117 188 0.2102593332529068
117 189 0.21239812672138214
117 190 0.19266875088214874
117 191 0.2172084003686905
117 192 0.13987571001052856
117 193 0.21314330399036407
117 195 0.19034674763679504
117 196 0.21889875829219818
117 198 0.432309627532959
117 199 0.19930170476436615
117 200 0.23020729422569275
117 201 0.20624034106731415
117 202 0.18274299800395966
117 204 0.10266539454460144
117 205 0.10885222256183624
117 206 0.22336414456367493
117 208 0.2175433337688446
117 209 0.17131207883358002
117 210 0.1596849411725998
117 214 0.1997600793838501
117 215 0.127688467502594
117 216 0.19944900274276733
117 217 0.19195307791233063
117 218 0.16006596386432648
117 219 0.20905503630638123
117 220 0.17989487946033478
117 221 0.18570028245449066
117 222 0.2078711837530136
117 223 0.18946072459220886
117 225 0.1949024796485901
117 226 0.11058146506547928
117 227 0.21780087053775787
117 228 0.214938685297966
117 229 0.21369536221027374
117 230 0.09028938412666321
117 231 0.1546209156513214
117 232 0.21587540209293365
117 233 0.06765100359916687
117 234 0.1993456333875656
117 235 0.20149803161621094
117 236 0.21687500178813934
117 237 0.18646417558193207
117 238 0.21292369067668915
117 239 0.20165757834911346
117 240 0.20829933881759644
117 241 0.1862684190273285
117 242 0.13987571001052856
117 243 0.21787983179092407
117 244 0.19919347763061523
117 245 0.171539768576622
117 246 0.19854778051376343
117 247 0.20472940802574158
117 248 0.2009132355451584
117 249 0.19256602227687836
117 250 0.21901287138462067
117 251 0.05212860554456711
117 252 0.21036985516548157
117 254 0.20038661360740662
117 255 0.13016974925994873
118 120 0.9539749026298523
118 121 0.9642676711082458
118 122 0.962642252445221
118 123 0.9577497839927673
118 124 0.9512355923652649
118 125 0.648613452911377
118 126 0.954521894454956
118 127 0.9468362927436829
118 128 0.9577968716621399
118 129 0.9730993509292603
118 130 0.19133968651294708
118 131 0.9659519195556641
118 132 0.3660074770450592
118 133 0.3408619165420532
118 134 0.23097030818462372
118 135 0.9483005404472351
118 136 0.9642221927642822
118 137 0.9582945704460144
118 138 0.9703035354614258
118 139 0.9298191070556641
118 140 0.14821109175682068
118 141 0.19161982834339142
118 142 0.9582945704460144
118 143 0.09702693670988083
118 144 0.12936924397945404
118 145 0.9565228819847107
118 146 0.9571129679679871
118 147 0.9527854323387146
118 148 0.9477497935295105
118 149 0.9662558436393738
118 150 0.9588391184806824
118 151 0.9446290731430054
118 152 0.9505453109741211
118 153 0.1711394190788269
118 154 0.23322372138500214
118 155 0.9605176448822021
118 156 0.15844431519508362
118 157 0.9560669660568237
118 158 0.10726731270551682
118 159 0.9689960479736328
118 160 0.42556461691856384
118 161 0.11691047996282578
118 162 0.9575282335281372
118 163 0.35447677969932556
118 164 0.9451324939727783
118 165 0.9446290731430054
118 166 0.9626887440681458
118 167 0.9388952255249023
118 168 0.9572518467903137
118 169 0.9483925104141235
118 170 0.12703807651996613
118 171 0.9502493739128113
118 172 0.9045621752738953
118 173 0.9610608816146851
118 174 0.9265830516815186
118 175 0.9670164585113525
118 176 0.9636362195014954
118 177 0.9618811011314392
118 179 0.9418628215789795
118 180 0.9624655842781067
118 181 0.9608367085456848
118 182 0.35012978315353394
118 183 0.9667548537254333
118 184 0.9653958082199097
118 185 0.09702693670988083
118 186 0.9528800845146179
118 187 0.9631388187408447
118 188 0.46540987491607666
118 189 0.9253160357475281
118 190 0.9435235857963562
118 191 0.9643139243125916
118 192 0.10227537155151367
118 193 0.9610608816146851
118 194 0.12550660967826843
118 195 0.9634675979614258
118 196 0.9603360891342163
118 197 0.10726731270551682
118 198 0.21336708962917328
118 199 0.9436706304550171
118 200 0.9045621752738953
118 201 0.9542505741119385
118 202 0.9515107274055481
118 204 0.18579243123531342
118 205 0.9214510321617126
118 206 0.9383860230445862
118 208 0.9626887440681458
118 209 0.9561607241630554
118 210 0.9140089154243469
118 211 0.5929355621337891
118 212 0.47427627444267273
118 213 0.18303978443145752
118 214 0.9567064642906189
118 215 0.2194059044122696
118 216 0.9614666700363159
118 217 0.9473873376846313
118 218 0.945881724357605
118 219 0.9577968716621399
118 220 0.9616038203239441
118 221 0.8780550360679626
118 222 0.9689540863037109
118 223 0.9652168154716492
118 224 0.2686828374862671
118 225 0.9572518467903137
118 226 0.12936924397945404
118 227 0.9385325908660889
118 228 0.9343903660774231
118 229 0.9625083804130554
118 230 0.1452406346797943
118 231 0.6315033435821533
118 232 0.6844750046730042
118 233 0.14097686111927032
118 234 0.9588861465454102
118 235 0.8589105606079102
118 236 0.9659363031387329
118 237 0.9564794301986694
118 238 0.9631842970848083
118 239 0.9521023631095886
118 240 0.9636806845664978
118 241 0.9565228819847107
118 242 0.10227537155151367
118 243 0.9610608816146851
118 244 0.9356980323791504
118 245 0.9321072101593018
118 246 0.9379763603210449
118 247 0.9577035307884216
118 248 0.9559334516525269
118 249 0.9440764784812927
118 250 0.9577035307884216
118 251 0.0914778783917427
118 252 0.9564794301986694
118 253 0.09204783290624619
118 254 0.9586605429649353
118 255 0.8423296213150024
119 120 0.06468462198972702
119 121 0.06411705911159515
119 124 0.0648544430732727
119 125 0.09157370775938034
119 126 0.06465081870555878
119 128 0.06444909423589706
119 133 0.17277368903160095
119 136 0.0641830563545227
119 138 0.06444909423589706
119 139 0.06670373678207397
119 142 0.06448258459568024
119 145 0.06478635221719742
119 146 0.06468462198972702
119 147 0.06488857418298721
119 148 0.0653371512889862
119 151 0.06526753306388855
119 155 0.06428243219852448
119 156 0.10206206887960434
119 157 0.06468462198972702
119 164 0.06530231237411499
119 165 0.06526753306388855
119 166 0.06415002793073654
119 168 0.06448258459568024
119 171 0.06558258086442947
119 172 0.0678844228386879
119 173 0.06424925476312637
119 174 0.06670373678207397
119 175 0.06388765573501587
119 176 0.06428243219852448
119 177 0.06458336859941483
119 179 0.06544199585914612
119 184 0.0639856681227684
119 186 0.06475239247083664
119 188 0.06482037156820297
119 189 0.06700251996517181
119 190 0.0653371512889862
119 191 0.06405126303434372
119 194 0.24253563582897186
119 196 0.06454972177743912
119 198 0.12216944247484207
119 200 0.0678844228386879
119 202 0.06523280590772629
119 205 0.050336699932813644
119 206 0.06586649268865585
119 208 0.06415002793073654
119 209 0.06454972177743912
119 214 0.06451612710952759
119 215 0.07216878980398178
119 217 0.06509445607662201
119 219 0.06444909423589706
119 220 0.06421612948179245
119 221 0.0524783581495285
119 225 0.06448258459568024
119 227 0.06565321981906891
119 228 0.06626295298337936
119 231 0.07490642368793488
119 232 0.0887356549501419
119 234 0.06438227742910385
119 235 0.05540376156568527
119 236 0.06395295262336731
119 238 0.0641830563545227
119 239 0.06512895971536636
119 243 0.06424925476312637
119 244 0.0659022405743599
119 246 0.0656886175274849
119 247 0.06458336859941483
119 248 0.06488857418298721
119 249 0.06530231237411499
119 250 0.06458336859941483
119 252 0.0648544430732727
119 254 0.06471847742795944
119 255 0.05517838895320892
120 121 0.9715255498886108
120 122 0.9647191166877747
120 123 0.958793044090271
120 124 0.9522843956947327
120 125 0.7004433274269104
120 126 0.9587038159370422
120 127 0.947889506816864
120 128 0.9598813652992249
120 129 0.9658451080322266
120 130 0.16400545835494995
120 131 0.9533798694610596
120 132 0.32968613505363464
120 133 0.36321353912353516
120 134 0.185682013630867
120 135 0.9535806179046631
120 136 0.9673359990119934
120 137 0.9572518467903137
120 138 0.9609235525131226
120 139 0.9244257211685181
120 140 0.14821109175682068
120 141 0.17090417444705963
120 142 0.9624655842781067
120 143 0.07546538859605789
120 144 0.1487746387720108
120 145 0.9607135653495789
120 146 0.9539749026298523
120 147 0.9569827318191528
120 148 0.9477497935295105
120 149 0.9620998501777649
120 150 0.9661346673965454
120 151 0.9583499431610107
120 152 0.9515979290008545
120 153 0.1711394190788269
120 154 0.21079836785793304
120 155 0.9625967144966125
120 156 0.15844431519508362
120 157 0.965481162071228
120 158 0.09751573950052261
120 159 0.9658902287483215
120 160 0.3753575384616852
120 161 0.12526123225688934
120 162 0.9543818831443787
120 163 0.3630528151988983
120 164 0.9461885094642639
120 165 0.9456844925880432
120 166 0.9668383002281189
120 167 0.9388952255249023
120 168 0.9624655842781067
120 169 0.9515538811683655
120 170 0.11292273551225662
120 171 0.9449466466903687
120 172 0.911148726940155
120 173 0.9641777873039246
120 174 0.9255043864250183
120 175 0.9711490273475647
120 176 0.9615572094917297
120 177 0.958747923374176
120 179 0.946095883846283
120 180 0.9572518467903137
120 181 0.9608367085456848
120 182 0.3415200114250183
120 183 0.9625967144966125
120 184 0.9716041684150696
120 185 0.09702693670988083
120 186 0.9581156969070435
120 187 0.9641777873039246
120 188 0.490567147731781
120 189 0.9209819436073303
120 190 0.954089343547821
120 191 0.9643139243125916
120 192 0.10227537155151367
120 193 0.9631388187408447
120 194 0.09412994980812073
120 195 0.9582484364509583
120 196 0.9561607241630554
120 197 0.10726731270551682
120 198 0.24497704207897186
120 199 0.945803165435791
120 200 0.9089532494544983
120 201 0.9489901065826416
120 202 0.952565610408783
120 204 0.12949170172214508
120 205 0.9279630184173584
120 206 0.9351905584335327
120 208 0.9637261033058167
120 209 0.9645114541053772
120 210 0.9085357785224915
120 211 0.6016042232513428
120 212 0.4416425824165344
120 213 0.18303978443145752
120 214 0.9567064642906189
120 215 0.2194059044122696
120 216 0.9593833684921265
120 217 0.9600191712379456
120 218 0.9426897764205933
120 219 0.9682190418243408
120 220 0.962642252445221
120 221 0.883712649345398
120 222 0.9648088216781616
120 223 0.9641777873039246
120 224 0.2686828374862671
120 225 0.9687221646308899
120 226 0.12936924397945404
120 227 0.9395942687988281
120 228 0.93010413646698
120 229 0.9604250192642212
120 230 0.1320369392633438
120 231 0.6137372851371765
120 232 0.6959546208381653
120 233 0.11129752546548843
120 234 0.9588861465454102
120 235 0.8374079465866089
120 236 0.9659363031387329
120 237 0.9533331394195557
120 238 0.9673359990119934
120 239 0.9468362927436829
120 240 0.9657576084136963
120 241 0.9565228819847107
120 242 0.09204783290624619
120 243 0.9631388187408447
120 244 0.9346323609352112
120 245 0.9364075660705566
120 246 0.9422253966331482
120 247 0.958747923374176
120 248 0.9590813517570496
120 249 0.9504125714302063
120 250 0.9577035307884216
120 251 0.08004313707351685
120 252 0.9617233276367188
120 253 0.0818202942609787
120 254 0.9534277319908142
120 255 0.8542270064353943
121 122 0.975811779499054
121 123 0.9658924341201782
121 124 0.9626409411430359
121 125 0.6825545430183411
121 126 0.9648000597953796
121 127 0.9573199152946472
121 128 0.9669550657272339
121 129 0.9748331904411316
121 130 0.16798529028892517
121 131 0.9647456407546997
121 132 0.3655654191970825
121 133 0.3600265681743622
121 134 0.22894369065761566
121 135 0.9546342492103577
121 136 0.9742802977561951
121 137 0.9674574732780457
121 138 0.969021201133728
121 139 0.9366295337677002
121 140 0.1469106376171112
121 141 0.1848050355911255
121 142 0.9664239287376404
121 143 0.09617558866739273
121 144 0.14105752110481262
121 145 0.9637071490287781
121 146 0.9642676711082458
121 147 0.9600270390510559
121 148 0.9551435112953186
121 149 0.9711657762527466
121 150 0.9721204042434692
121 151 0.9572643041610718
121 152 0.9578561186790466
121 153 0.1696377843618393
121 154 0.22673162817955017
121 155 0.9696065187454224
121 156 0.15705406665802002
121 157 0.9642676711082458
121 158 0.09666009992361069
121 159 0.9748600125312805
121 160 0.4099813997745514
121 161 0.12416214495897293
121 162 0.9636805057525635
121 163 0.3542000353336334
121 164 0.9535874724388123
121 165 0.9541257619857788
121 166 0.9737789630889893
121 167 0.9465025067329407
121 168 0.9726255536079407
121 169 0.9557387828826904
121 170 0.1399148851633072
121 171 0.9513726830482483
121 172 0.9172998070716858
121 173 0.9711657762527466
121 174 0.9344910383224487
121 175 0.9759407639503479
121 176 0.9706369042396545
121 177 0.964828610420227
121 179 0.9524803161621094
121 180 0.9664239287376404
121 181 0.9679343104362488
121 182 0.36128127574920654
121 183 0.9706369042396545
121 184 0.9805148839950562
121 185 0.09617558866739273
121 186 0.9642398953437805
121 187 0.9721956849098206
121 188 0.4883407652378082
121 189 0.9311590194702148
121 190 0.956190824508667
121 191 0.9733064770698547
121 192 0.09124016761779785
121 193 0.9701359272003174
121 194 0.13218069076538086
121 195 0.965360701084137
121 196 0.965360701084137
121 197 0.09666009992361069
121 198 0.24282750487327576
121 199 0.9533584117889404
121 200 0.9238286018371582
121 201 0.9573491811752319
121 202 0.9598919153213501
121 204 0.16742020845413208
121 205 0.9316547513008118
121 206 0.9459890723228455
121 208 0.971722424030304
121 209 0.966395378112793
121 210 0.9179242253303528
121 211 0.5980440974235535
121 212 0.4701147973537445
121 213 0.18693174421787262
121 214 0.9658924341201782
121 215 0.22210799157619476
121 216 0.9674859046936035
121 217 0.9568126797676086
121 218 0.9544565081596375
121 219 0.9721204042434692
121 220 0.9716944098472595
121 221 0.8939040303230286
121 222 0.9727786779403687
121 223 0.9701359272003174
121 224 0.2701299488544464
121 225 0.9695246815681458
121 226 0.1282341182231903
121 227 0.9481878280639648
121 228 0.9410616755485535
121 229 0.9716160893440247
121 230 0.15705406665802002
121 231 0.6259623169898987
121 232 0.6998046636581421
121 233 0.12503042817115784
121 234 0.968016505241394
121 235 0.8466377854347229
121 236 0.9748879075050354
121 237 0.9605617523193359
121 238 0.9783955216407776
121 239 0.9562759399414062
121 240 0.9716944098472595
121 241 0.9637071490287781
121 242 0.10137796401977539
121 243 0.9711657762527466
121 244 0.9454461336135864
121 245 0.9377821683883667
121 246 0.9508050084114075
121 247 0.964828610420227
121 248 0.9641875624656677
121 249 0.9567276835441589
121 250 0.965863823890686
121 251 0.09067521244287491
121 252 0.9667991995811462
121 253 0.09124016761779785
121 254 0.9626975655555725
121 255 0.8538074493408203
122 123 0.9684207439422607
122 124 0.9599636793136597
122 125 0.6909598708152771
122 126 0.9652529358863831
122 127 0.957753598690033
122 128 0.9663798213005066
122 129 0.9763395190238953
122 130 0.14653584361076355
122 131 0.961035966873169
122 132 0.3494880199432373
122 133 0.32452458143234253
122 134 0.2292974591255188
122 135 0.952964186668396
122 136 0.969603419303894
122 137 0.9668819308280945
122 138 0.9663798213005066
122 139 0.9391476511955261
122 140 0.13312453031539917
122 141 0.1696663647890091
122 142 0.9648115634918213
122 143 0.09632419049739838
122 144 0.15411870181560516
122 145 0.9631161689758301
122 146 0.9636806845664978
122 147 0.9583853483200073
122 148 0.9545214772224426
122 149 0.9726664423942566
122 150 0.9663798213005066
122 151 0.9524566531181335
122 152 0.9582911729812622
122 153 0.16383205354213715
122 154 0.23153455555438995
122 155 0.9680087566375732
122 156 0.15729676187038422
122 157 0.962642252445221
122 158 0.10649040341377258
122 159 0.976366400718689
122 160 0.40586787462234497
122 161 0.11606372892856598
122 162 0.963087260723114
122 163 0.3178536295890808
122 164 0.952964186668396
122 165 0.9524566531181335
122 166 0.9711642265319824
122 167 0.9447910785675049
122 168 0.9679172039031982
122 169 0.9593079090118408
122 170 0.14713764190673828
122 171 0.948631227016449
122 172 0.9143579602241516
122 173 0.9685406684875488
122 174 0.9316516518592834
122 175 0.9743717908859253
122 176 0.9680087566375732
122 177 0.9642459154129028
122 179 0.9497496485710144
122 180 0.9658467173576355
122 181 0.974614143371582
122 182 0.3589904010295868
122 183 0.9711048007011414
122 184 0.9748393893241882
122 185 0.08562150597572327
122 186 0.9615716934204102
122 187 0.9685406684875488
122 188 0.4703640341758728
122 189 0.9261438250541687
122 190 0.9524236917495728
122 191 0.971725583076477
122 192 0.0710742324590683
122 193 0.9685406684875488
122 194 0.12459760159254074
122 195 0.967888593673706
122 196 0.964779794216156
122 197 0.10649040341377258
122 198 0.2196669578552246
122 199 0.9442458748817444
122 200 0.9143579602241516
122 201 0.9556950330734253
122 202 0.955091655254364
122 204 0.1844467967748642
122 205 0.9309393167495728
122 206 0.9442785382270813
122 208 0.9701343774795532
122 209 0.9668523073196411
122 210 0.9204292893409729
122 211 0.5972470045089722
122 212 0.4686813950538635
122 213 0.18171408772468567
122 214 0.9653134942054749
122 215 0.20854800939559937
122 216 0.9700150489807129
122 217 0.9551560282707214
122 218 0.9569876790046692
122 219 0.9653451442718506
122 220 0.9752577543258667
122 221 0.8862987160682678
122 222 0.9722242951393127
122 223 0.9706035852432251
122 224 0.26673680543899536
122 225 0.9648115634918213
122 226 0.1284322589635849
122 227 0.946491003036499
122 228 0.9425158500671387
122 229 0.9679467678070068
122 230 0.15729676187038422
122 231 0.626929521560669
122 232 0.7051597237586975
122 233 0.11049142479896545
122 234 0.9664115309715271
122 235 0.8396444320678711
122 236 0.9733142256736755
122 237 0.9610048532485962
122 238 0.9716641902923584
122 239 0.9567079544067383
122 240 0.9742268323898315
122 241 0.9631161689758301
122 242 0.09138115495443344
122 243 0.9685406684875488
122 244 0.9479650259017944
122 245 0.9349620342254639
122 246 0.9480559825897217
122 247 0.9642459154129028
122 248 0.9604688286781311
122 249 0.952964186668396
122 250 0.9632090330123901
122 251 0.09081532061100006
122 252 0.9599636793136597
122 253 0.09138115495443344
122 254 0.9621071219444275
122 255 0.8468589186668396
123 124 0.9571260213851929
123 125 0.686802864074707
123 126 0.9687195420265198
123 127 0.9569755792617798
123 128 0.9604994654655457
123 129 0.9736653566360474
123 130 0.17993606626987457
123 131 0.955076277256012
123 132 0.3232539892196655
123 133 0.3344006836414337
123 134 0.21681755781173706
123 135 0.9479368925094604
123 136 0.9710274934768677
123 137 0.9641186594963074
123 138 0.9604994654655457
123 139 0.9295487999916077
123 140 0.11966788023710251
123 141 0.17562443017959595
123 142 0.9620386362075806
123 143 0.09677419811487198
123 144 0.1483871042728424
123 145 0.9634358286857605
123 146 0.958793044090271
123 147 0.9534433484077454
123 148 0.949496328830719
123 149 0.9678839445114136
123 150 0.9646574854850769
123 151 0.9516426920890808
123 152 0.9543687701225281
123 153 0.14021264016628265
123 154 0.21919605135917664
123 155 0.9652733206748962
123 156 0.12510834634304047
123 157 0.9577497839927673
123 158 0.0875355526804924
123 159 0.9695696234703064
123 160 0.41730234026908875
123 161 0.0999479591846466
123 162 0.9581721425056458
123 163 0.359255850315094
123 164 0.9468836188316345
123 165 0.9505900144577026
123 166 0.9705278277397156
123 167 0.9438901543617249
123 168 0.9599584937095642
123 169 0.961687445640564
123 170 0.11966788023710251
123 171 0.9477741122245789
123 172 0.9131549596786499
123 173 0.9678839445114136
123 174 0.9273970723152161
123 175 0.9696497917175293
123 176 0.9673469662666321
123 177 0.9583338499069214
123 179 0.9457424283027649
123 180 0.9620386362075806
123 181 0.9645838737487793
123 182 0.35208016633987427
123 183 0.9694206118583679
123 184 0.9680412411689758
123 185 0.06451612710952759
123 186 0.9650194644927979
123 187 0.9689202904701233
123 188 0.4871982932090759
123 189 0.9207443594932556
123 190 0.9526578187942505
123 191 0.9690335988998413
123 192 0.10200896114110947
123 193 0.9699565172195435
123 194 0.10953222215175629
123 195 0.9619991183280945
123 196 0.9588757753372192
123 197 0.10698790103197098
123 198 0.22857509553432465
123 199 0.9390854239463806
123 200 0.921914279460907
123 201 0.9507155418395996
123 202 0.9521884918212891
123 204 0.16284683346748352
123 205 0.9287933707237244
123 206 0.9423157572746277
123 208 0.9653544425964355
123 209 0.9588757753372192
123 210 0.9181786179542542
123 211 0.5792865753173828
123 212 0.4708709418773651
123 213 0.16596637666225433
123 214 0.9614984393119812
123 215 0.16296178102493286
123 216 0.970390796661377
123 217 0.9543687701225281
123 218 0.9391730427742004
123 219 0.9615389704704285
123 220 0.9725637435913086
123 221 0.8938249349594116
123 222 0.9674636721611023
123 223 0.9709928035736084
123 224 0.24501299858093262
123 225 0.9641186594963074
123 226 0.12903225421905518
123 227 0.9445591568946838
123 228 0.9383689165115356
123 229 0.9631180763244629
123 230 0.15144695341587067
123 231 0.6153603196144104
123 232 0.6984354853630066
123 233 0.14060963690280914
123 234 0.9646956920623779
123 235 0.829269289970398
123 236 0.9706407189369202
123 237 0.9581721425056458
123 238 0.9648162722587585
123 239 0.9517232179641724
123 240 0.9715279340744019
123 241 0.9634358286857605
123 242 0.07140626758337021
123 243 0.9637388586997986
123 244 0.941764235496521
123 245 0.940402090549469
123 246 0.944009006023407
123 247 0.9635422229766846
123 248 0.9576296806335449
123 249 0.9489901065826416
123 250 0.9604172110557556
123 251 0.0912395790219307
123 252 0.9539879560470581
123 253 0.10200896114110947
123 254 0.9645140767097473
123 255 0.8543751239776611
124 125 0.6755568981170654
124 126 0.9538831114768982
124 127 0.9461541771888733
124 128 0.9624013900756836
124 129 0.961107611656189
124 130 0.1534736156463623
124 131 0.9506307244300842
124 132 0.3585645258426666
124 133 0.3557632267475128
124 134 0.20887309312820435
124 135 0.9486725330352783
124 136 0.9615505337715149
124 137 0.9587194323539734
124 138 0.9571766257286072
124 139 0.9311787486076355
124 140 0.13444779813289642
124 141 0.1765453815460205
124 142 0.9545374512672424
124 143 0.08647259324789047
124 144 0.16213610768318176
124 145 0.9548324346542358
124 146 0.9533331394195557
124 147 0.9552868604660034
124 148 0.9502379894256592
124 149 0.9583754539489746
124 150 0.9603114128112793
124 151 0.9460508227348328
124 152 0.9445974230766296
124 153 0.171588733792305
124 154 0.2068549543619156
124 155 0.9599125981330872
124 156 0.1323835849761963
124 157 0.9543818831443787
124 158 0.06844022125005722
124 159 0.9621982574462891
124 160 0.4003139138221741
124 161 0.12559008598327637
124 162 0.9516298770904541
124 163 0.3468088209629059
124 164 0.9412610530853271
124 165 0.9513419270515442
124 166 0.9620958566665649
124 167 0.9328120350837708
124 168 0.9555829167366028
124 169 0.9508823752403259
124 170 0.14860020577907562
124 171 0.9399842023849487
124 172 0.9212453961372375
124 173 0.9594172239303589
124 174 0.9355047941207886
124 175 0.9654118418693542
124 176 0.9640816450119019
124 177 0.9560293555259705
124 179 0.9443355202674866
124 180 0.9597648978233337
124 181 0.9549822211265564
124 182 0.3424166440963745
124 183 0.9630393385887146
124 184 0.9637805819511414
124 185 0.09728167206048965
124 186 0.9553817510604858
124 187 0.9667091369628906
124 188 0.4666317403316498
124 189 0.9190544486045837
124 190 0.9481192827224731
124 191 0.9678841233253479
124 192 0.08203510195016861
124 193 0.9604588747024536
124 194 0.13370086252689362
124 195 0.9544847011566162
124 196 0.9565778374671936
124 197 0.10754892975091934
124 198 0.2535434067249298
124 199 0.9354571104049683
124 200 0.9113395810127258
124 201 0.9462072253227234
124 202 0.9466051459312439
124 204 0.1749904900789261
124 205 0.9238701462745667
124 206 0.9333739876747131
124 208 0.9662562608718872
124 209 0.9555312395095825
124 210 0.9142135381698608
124 211 0.5666797757148743
124 212 0.4493459463119507
124 213 0.1835203319787979
124 214 0.9613102078437805
124 215 0.21530146896839142
124 216 0.9566799998283386
124 217 0.9498745203018188
124 218 0.9387640357017517
124 219 0.9550866484642029
124 220 0.9599636793136597
124 221 0.8951085805892944
124 222 0.9663028120994568
124 223 0.9583754539489746
124 224 0.2155105620622635
124 225 0.9597648978233337
124 226 0.09728166460990906
124 227 0.9441899657249451
124 228 0.9357691407203674
124 229 0.9619020819664001
124 230 0.13900277018547058
124 231 0.6169678568840027
124 232 0.70209801197052
124 233 0.1413469761610031
124 234 0.965579092502594
124 235 0.8431996703147888
124 236 0.9643247127532959
124 237 0.949526846408844
124 238 0.9657130837440491
124 239 0.9598819017410278
124 240 0.9589225649833679
124 241 0.9506307244300842
124 242 0.07178071141242981
124 243 0.9594172239303589
124 244 0.9381545782089233
124 245 0.9280868768692017
124 246 0.9425690174102783
124 247 0.9549822211265564
124 248 0.9500264525413513
124 249 0.9497312903404236
124 250 0.9612650275230408
124 251 0.06878852844238281
124 252 0.949526846408844
124 253 0.10254388302564621
124 254 0.9548814296722412
124 255 0.844541072845459
125 126 0.6808362603187561
125 127 0.6813985109329224
125 128 0.683138370513916
125 129 0.6763356328010559
125 130 0.1006120890378952
125 131 0.6585326790809631
125 132 0.07910764217376709
125 133 0.3006090223789215
125 134 0.12822884321212769
125 135 0.668262243270874
125 136 0.6876651644706726
125 137 0.6687309741973877
125 138 0.6610064506530762
125 139 0.6658055782318115
125 141 0.0953129380941391
125 142 0.6953030824661255
125 143 0.1068359911441803
125 144 0.18314741551876068
125 145 0.6941289901733398
125 146 0.6782305240631104
125 147 0.6744269132614136
125 148 0.6985345482826233
125 149 0.6810200810432434
125 150 0.6742855906486511
125 151 0.6813540458679199
125 152 0.691469132900238
125 153 0.12114062905311584
125 154 0.05714545026421547
125 155 0.6975598931312561
125 156 0.13084684312343597
125 157 0.670826256275177
125 159 0.6756423115730286
125 160 0.14215579628944397
125 161 0.13004326820373535
125 162 0.6636790037155151
125 163 0.3035268187522888
125 164 0.6652722358703613
125 165 0.6843424439430237
125 166 0.6829055547714233
125 167 0.639700710773468
125 168 0.6834933161735535
125 169 0.6922027468681335
125 170 0.1598641723394394
125 171 0.645606279373169
125 172 0.6496167182922363
125 173 0.6869035959243774
125 174 0.6383181810379028
125 175 0.6918132901191711
125 176 0.6902016401290894
125 177 0.6904756426811218
125 179 0.6906663179397583
125 180 0.6628261208534241
125 181 0.6816045045852661
125 182 0.2803419232368469
125 183 0.6872583031654358
125 184 0.6914098262786865
125 185 0.09157370030879974
125 186 0.6996947526931763
125 187 0.6927871704101562
125 188 0.40957310795783997
125 189 0.6396435499191284
125 190 0.6820809245109558
125 191 0.6950513124465942
125 192 0.10135351866483688
125 193 0.6898453831672668
125 195 0.6738605499267578
125 196 0.6856826543807983
125 198 0.25731271505355835
125 199 0.6506151556968689
125 200 0.688469409942627
125 201 0.6553564667701721
125 202 0.6720311045646667
125 204 0.08767515420913696
125 205 0.6606976389884949
125 206 0.6619724035263062
125 208 0.6917172074317932
125 209 0.6871604323387146
125 210 0.616760790348053
125 211 0.4786144495010376
125 212 0.20635712146759033
125 213 0.12563809752464294
125 214 0.686802864074707
125 215 0.20487166941165924
125 216 0.6739357113838196
125 217 0.7093519568443298
125 218 0.6582430005073547
125 219 0.6875647306442261
125 220 0.6747884750366211
125 221 0.6807986497879028
125 222 0.673401415348053
125 223 0.6618985533714294
125 224 0.141281396150589
125 225 0.6997318267822266
125 226 0.14880727231502533
125 227 0.6718531250953674
125 228 0.6659568548202515
125 229 0.6798344850540161
125 231 0.42071348428726196
125 232 0.6399109363555908
125 234 0.6794821619987488
125 235 0.5124263167381287
125 236 0.6866638660430908
125 237 0.653285801410675
125 238 0.6891345381736755
125 239 0.6560510993003845
125 240 0.6850793361663818
125 241 0.6733644604682922
125 243 0.6854327321052551
125 244 0.6774189472198486
125 245 0.6361987590789795
125 246 0.6917652487754822
125 247 0.6860401034355164
125 248 0.6833400130271912
125 249 0.6667672395706177
125 250 0.669776201248169
125 252 0.6770416498184204
125 254 0.6845120191574097
125 255 0.5945567488670349
126 127 0.9537100791931152
126 128 0.9593797326087952
126 129 0.9694834351539612
126 130 0.16391974687576294
126 131 0.9560230374336243
126 132 0.31555140018463135
126 133 0.34626877307891846
126 134 0.18105851113796234
126 135 0.9520268440246582
126 136 0.9626809358596802
126 137 0.9619625806808472
126 138 0.9625046849250793
126 139 0.9282551407814026
126 140 0.12697169184684753
126 141 0.1552862524986267
126 142 0.9640470743179321
126 143 0.09697623550891876
126 144 0.12930165231227875
126 145 0.9591644406318665
126 146 0.9555673599243164
126 147 0.952287495136261
126 148 0.9483105540275574
126 149 0.9657508730888367
126 150 0.9593797326087952
126 151 0.9536294341087341
126 152 0.950048565864563
126 153 0.16494105756282806
126 154 0.21068820357322693
126 155 0.9610546827316284
126 156 0.13856633007526398
126 157 0.9607947468757629
126 158 0.10721126198768616
126 159 0.9674549102783203
126 160 0.41817352175712585
126 161 0.10850300639867783
126 162 0.9517866969108582
126 163 0.35143429040908813
126 164 0.9456940293312073
126 165 0.9451902508735657
126 166 0.9663330316543579
126 167 0.9394697546958923
126 168 0.9588359594345093
126 169 0.9510565400123596
126 170 0.12697169184684753
126 171 0.9402128458023071
126 172 0.9106726050376892
126 173 0.9688661694526672
126 174 0.9282551407814026
126 175 0.9716741442680359
126 176 0.9631326198577881
126 177 0.956159234046936
126 179 0.9456014037132263
126 180 0.9577937722206116
126 181 0.9634660482406616
126 182 0.3499467968940735
126 183 0.9610546827316284
126 184 0.9700621962547302
126 185 0.09697623550891876
126 186 0.955521821975708
126 187 0.9626355171203613
126 188 0.49031075835227966
126 189 0.9205006957054138
126 190 0.9567587375640869
126 191 0.9648452401161194
126 192 0.10222192108631134
126 193 0.9657508730888367
126 194 0.0784006416797638
126 195 0.9598342776298523
126 196 0.9567043781280518
126 197 0.09746478497982025
126 198 0.22510311007499695
126 199 0.9357172250747681
126 200 0.9062837958335876
126 201 0.9495457410812378
126 202 0.9562851190567017
126 204 0.1463054120540619
126 205 0.9263933300971985
126 206 0.9410893321037292
126 208 0.9632225036621094
126 209 0.9608775973320007
126 210 0.9168134331703186
126 211 0.5943585634231567
126 212 0.4392373561859131
126 213 0.16631287336349487
126 214 0.9582920074462891
126 215 0.18196506798267365
126 216 0.9620053768157959
126 217 0.9553090929985046
126 218 0.9368799924850464
126 219 0.9583380222320557
126 220 0.9683666229248047
126 221 0.8809889554977417
126 222 0.9643046259880066
126 223 0.9657508730888367
126 224 0.2647061049938202
126 225 0.9650892615318298
126 226 0.12122028321027756
126 227 0.94016432762146
126 228 0.9306890964508057
126 229 0.9599231481552124
126 230 0.14516472816467285
126 231 0.6053452491760254
126 232 0.6941567659378052
126 233 0.14090318977832794
126 234 0.9594255685806274
126 235 0.836970329284668
126 236 0.9674988389015198
126 237 0.9538831114768982
126 238 0.9637182950973511
126 239 0.9473941326141357
126 240 0.9683666229248047
126 241 0.9633528590202332
126 242 0.08177753537893295
126 243 0.9615970849990845
126 244 0.9394697546958923
126 245 0.933769166469574
126 246 0.9406713247299194
126 247 0.9655537605285645
126 248 0.9575313925743103
126 249 0.9467494487762451
126 250 0.9572030305862427
126 251 0.08000130206346512
126 252 0.9528349041938782
126 253 0.10222192108631134
126 254 0.9550215005874634
126 255 0.8454567790031433
127 128 0.9580800533294678
127 129 0.9589151740074158
127 130 0.1816452592611313
127 131 0.9483254551887512
127 132 0.3432033956050873
127 133 0.33757710456848145
127 134 0.22343704104423523
127 135 0.9367391467094421
127 136 0.9551700949668884
127 137 0.9522783756256104
127 138 0.9507343769073486
127 139 0.9220872521400452
127 140 0.14922919869422913
127 141 0.20336511731147766
127 142 0.9543781876564026
127 143 0.09769343584775925
127 144 0.15630951523780823
127 145 0.9472705721855164
127 146 0.9542087316513062
127 147 0.9487650990486145
127 148 0.9393664598464966
127 149 0.9561553597450256
127 150 0.9507343769073486
127 151 0.9383655786514282
127 152 0.9560149908065796
127 153 0.17231503129005432
127 154 0.23482580482959747
127 155 0.9545558094978333
127 156 0.13959112763404846
127 157 0.9489427208900452
127 158 0.10800416767597198
127 159 0.9631439447402954
127 160 0.42608070373535156
127 161 0.1177135780453682
127 162 0.9461541771888733
127 163 0.3482767939567566
127 164 0.9409922361373901
127 165 0.9383655786514282
127 166 0.9588567018508911
127 167 0.9324683547019958
127 168 0.9501785039901733
127 169 0.947480320930481
127 170 0.14922919869422913
127 171 0.9322167634963989
127 172 0.8986174464225769
127 173 0.9561553597450256
127 174 0.9144846796989441
127 175 0.9611763954162598
127 176 0.9556024670600891
127 177 0.9506120085716248
127 179 0.934480607509613
127 180 0.9543781876564026
127 181 0.9527150988578796
127 182 0.3669830560684204
127 183 0.9556024670600891
127 184 0.9584835767745972
127 185 0.09769343584775925
127 186 0.9467739462852478
127 187 0.9540631175041199
127 188 0.4812719523906708
127 189 0.9153080582618713
127 190 0.9361750483512878
127 191 0.9573804140090942
127 192 0.1029779314994812
127 193 0.9582476615905762
127 194 0.10267460346221924
127 195 0.9543207883834839
127 196 0.9595758318901062
127 197 0.09818560630083084
127 198 0.23870305716991425
127 199 0.9276069402694702
127 200 0.9074599742889404
127 201 0.9406785368919373
127 202 0.9399906396865845
127 204 0.18706868588924408
127 205 0.9124816656112671
127 206 0.9437596201896667
127 208 0.9557231664657593
127 209 0.9511677026748657
127 210 0.907061755657196
127 211 0.5917717814445496
127 212 0.4490574300289154
127 213 0.18988192081451416
127 214 0.9506727457046509
127 215 0.20681223273277283
127 216 0.9554853439331055
127 217 0.9464760422706604
127 218 0.9341672658920288
127 219 0.9507343769073486
127 220 0.957753598690033
127 221 0.8715545535087585
127 222 0.9578717350959778
127 223 0.9561553597450256
127 224 0.2666638195514679
127 225 0.9575279951095581
127 226 0.10583455860614777
127 227 0.9310828447341919
127 228 0.9267831444740295
127 229 0.9544364809989929
127 230 0.15953271090984344
127 231 0.6212055683135986
127 232 0.7151834964752197
127 233 0.14194528758525848
127 234 0.953941822052002
127 235 0.8215100765228271
127 236 0.95903480052948
127 237 0.9450982213020325
127 238 0.9572601914405823
127 239 0.9427359700202942
127 240 0.9608902931213379
127 241 0.953599750995636
127 242 0.1029779314994812
127 243 0.9561553597450256
127 244 0.9313953518867493
127 245 0.9222729206085205
127 246 0.9347935914993286
127 247 0.9558697938919067
127 248 0.9477085471153259
127 249 0.9367391467094421
127 250 0.9485089182853699
127 251 0.09210626035928726
127 252 0.9472101330757141
127 253 0.1029779314994812
127 254 0.9483855962753296
127 255 0.8265536427497864
128 129 0.9685235619544983
128 130 0.17430217564105988
128 131 0.9572155475616455
128 132 0.35353970527648926
128 133 0.3563234806060791
128 134 0.19854295253753662
128 135 0.9501084685325623
128 136 0.9658820629119873
128 137 0.9620780944824219
128 138 0.9657320976257324
128 139 0.935031533241272
128 140 0.1265755146741867
128 141 0.18060201406478882
128 142 0.9662339091300964
128 143 0.08593212813138962
128 144 0.15467782318592072
128 145 0.9561716914176941
128 146 0.9598813652992249
128 147 0.9618622064590454
128 148 0.9558789730072021
128 149 0.9679136276245117
128 150 0.9615784287452698
128 151 0.9506540298461914
128 152 0.9586212635040283
128 153 0.16442641615867615
128 154 0.22343704104423523
128 155 0.9684134125709534
128 156 0.15128961205482483
128 157 0.9682190418243408
128 158 0.09716066718101501
128 159 0.9716566801071167
128 160 0.40495821833610535
128 161 0.12480514496564865
128 162 0.9550866484642029
128 163 0.3190067708492279
128 164 0.9532648921012878
128 165 0.9496024250984192
128 166 0.9695194959640503
128 167 0.9397239685058594
128 168 0.9641559720039368
128 169 0.9596383571624756
128 170 0.1476714313030243
128 171 0.9446760416030884
128 172 0.9143937826156616
128 173 0.9648079872131348
128 174 0.931807279586792
128 175 0.9707010388374329
128 176 0.9642704129219055
128 177 0.9635816812515259
128 179 0.9510864019393921
128 180 0.9662339091300964
128 181 0.959419310092926
128 182 0.3488548994064331
128 183 0.9642704129219055
128 184 0.9701282978057861
128 185 0.0966736450791359
128 186 0.959843635559082
128 187 0.965843141078949
128 188 0.4678928256034851
128 189 0.92518550157547
128 190 0.9495626091957092
128 191 0.9700908660888672
128 192 0.10190297663211823
128 193 0.9710191488265991
128 194 0.12504960596561432
128 195 0.9661998152732849
128 196 0.960999608039856
128 197 0.08744460344314575
128 198 0.2637692987918854
128 199 0.9412969946861267
128 200 0.9176751375198364
128 201 0.953920841217041
128 202 0.9501482248306274
128 204 0.17950637638568878
128 205 0.9267470240592957
128 206 0.9477043151855469
128 208 0.9674522876739502
128 209 0.9599595665931702
128 210 0.9248591065406799
128 211 0.5735025405883789
128 212 0.4595434367656708
128 213 0.17684687674045563
128 214 0.9646574854850769
128 215 0.213955819606781
128 216 0.9621174335479736
128 217 0.9596700668334961
128 218 0.9456179738044739
128 219 0.9636552333831787
128 220 0.9674144983291626
128 221 0.892896294593811
128 222 0.9685235619544983
128 223 0.966878354549408
128 224 0.2562314569950104
128 225 0.9683117866516113
128 226 0.0966736450791359
128 227 0.9435778260231018
128 228 0.9405969977378845
128 229 0.9621174335479736
128 230 0.14471180737018585
128 231 0.6259855031967163
128 232 0.7048584818840027
128 233 0.13307073712348938
128 234 0.9678428173065186
128 235 0.843880832195282
128 236 0.9716930389404297
128 237 0.9603114128112793
128 238 0.9710527658462524
128 239 0.9580800533294678
128 240 0.9674144983291626
128 241 0.963478684425354
128 242 0.10190297663211823
128 243 0.965843141078949
128 244 0.9460949897766113
128 245 0.9308556318283081
128 246 0.9440865516662598
128 247 0.9615004658699036
128 248 0.9576802253723145
128 249 0.9490562677383423
128 250 0.959419310092926
128 251 0.09114479273557663
128 252 0.956131637096405
128 253 0.0815223827958107
128 254 0.9582982063293457
128 255 0.844004213809967
129 130 0.18956342339515686
129 131 0.9694399833679199
129 132 0.3543056845664978
129 133 0.3376975953578949
129 134 0.21536576747894287
129 135 0.9562364220619202
129 136 0.9717234969139099
129 137 0.9690268635749817
129 138 0.9726537466049194
129 139 0.9340112209320068
129 140 0.13984304666519165
129 141 0.17444846034049988
129 142 0.9669607281684875
129 143 0.09612619876861572
129 144 0.1281682699918747
129 145 0.9684020280838013
129 146 0.9648088216781616
129 147 0.962652862071991
129 148 0.9546530842781067
129 149 0.9768431782722473
129 150 0.9685235619544983
129 151 0.9546814560890198
129 152 0.9584071040153503
129 153 0.16955067217350006
129 154 0.23105861246585846
129 155 0.9701384902000427
129 156 0.15043286979198456
129 157 0.9679177403450012
129 158 0.10627152025699615
129 159 0.9753851294517517
129 160 0.41687673330307007
129 161 0.1075519397854805
129 162 0.961107611656189
129 163 0.35968244075775146
129 164 0.9541440606117249
129 165 0.9546814560890198
129 166 0.9732790589332581
129 167 0.9502398371696472
129 168 0.9679937958717346
129 169 0.9625559449195862
129 170 0.13984304666519165
129 171 0.9529856443405151
129 172 0.9157412648200989
129 173 0.9706671237945557
129 174 0.9340112209320068
129 175 0.9764631986618042
129 176 0.9701384902000427
129 177 0.9684720039367676
129 179 0.9519912004470825
129 180 0.9669607281684875
129 181 0.9726107716560364
129 182 0.35825246572494507
129 183 0.9711683392524719
129 184 0.9748858213424683
129 185 0.08544550836086273
129 186 0.9627074003219604
129 187 0.9706671237945557
129 188 0.483936071395874
129 189 0.9328277111053467
129 190 0.9546530842781067
129 191 0.973832905292511
129 192 0.10132590681314468
129 193 0.9727258086204529
129 194 0.12434149533510208
129 195 0.9762407541275024
129 196 0.9690016508102417
129 197 0.10627152025699615
129 198 0.2231300324201584
129 199 0.9465305209159851
129 200 0.9168288111686707
129 201 0.9589422345161438
129 202 0.961489200592041
129 204 0.18406765162944794
129 205 0.9268752932548523
129 206 0.9486690759658813
129 208 0.972251296043396
129 209 0.9669333696365356
129 210 0.9250441193580627
129 211 0.5960193276405334
129 212 0.4677180051803589
129 213 0.18683575093746185
129 214 0.9664300680160522
129 215 0.18037009239196777
129 216 0.9711171984672546
129 217 0.9573642015457153
129 218 0.948695957660675
129 219 0.9674910306930542
129 220 0.9773683547973633
129 221 0.8878399729728699
129 222 0.9743326902389526
129 223 0.9747844934463501
129 224 0.2661885619163513
129 225 0.9679937958717346
129 226 0.1281682699918747
129 227 0.9487528204917908
129 228 0.9395169019699097
129 229 0.9690532088279724
129 230 0.15697342157363892
129 231 0.6352414488792419
129 232 0.6966020464897156
129 233 0.13966813683509827
129 234 0.968550980091095
129 235 0.8462030291557312
129 236 0.9754118919372559
129 237 0.9673418402671814
129 238 0.9717234969139099
129 239 0.9568283557891846
129 240 0.9773683547973633
129 241 0.9694399833679199
129 242 0.10132590681314468
129 243 0.9716964960098267
129 244 0.9449607133865356
129 245 0.9383657574653625
129 246 0.9482119679450989
129 247 0.9664025902748108
129 248 0.9647319912910461
129 249 0.9541440606117249
129 250 0.9653679132461548
129 251 0.09062865376472473
129 252 0.9621466398239136
129 253 0.10132590681314468
129 254 0.9642770290374756
129 255 0.8557263612747192
130 131 0.18616518378257751
130 133 0.24823471903800964
130 134 0.11834526807069778
130 135 0.18212874233722687
130 136 0.18443156778812408
130 137 0.1852922886610031
130 138 0.1634082943201065
130 139 0.10711240023374557
130 140 0.11065666377544403
130 141 0.189466193318367
130 142 0.1852922886610031
130 143 0.11268723011016846
130 145 0.18616518378257751
130 146 0.1858728528022766
130 147 0.1919429749250412
130 148 0.15461592376232147
130 149 0.18462181091308594
130 150 0.1634082943201065
130 151 0.18203172087669373
130 152 0.19255200028419495
130 153 0.0958314836025238
130 155 0.19015000760555267
130 157 0.18040598928928375
130 159 0.1893690973520279
130 160 0.28738778829574585
130 162 0.17539842426776886
130 163 0.2241053581237793
130 164 0.1931668519973755
130 165 0.19306395947933197
130 166 0.15180666744709015
130 167 0.18937169015407562
130 168 0.17439274489879608
130 169 0.1927562952041626
130 170 0.11065666377544403
130 171 0.1939958930015564
130 172 0.1721184253692627
130 173 0.17919175326824188
130 174 0.15784984827041626
130 175 0.18898224830627441
130 176 0.18471716344356537
130 177 0.18012358248233795
130 179 0.1935800462961197
130 180 0.15804341435432434
130 181 0.14191555976867676
130 183 0.17928428947925568
130 184 0.1784566044807434
130 185 0.05634361505508423
130 186 0.1805950105190277
130 187 0.17919175326824188
130 188 0.06573985517024994
130 189 0.19819612801074982
130 190 0.14909392595291138
130 191 0.18405288457870483
130 192 0.10690449923276901
130 193 0.18462181091308594
130 195 0.19094064831733704
130 196 0.1800297647714615
130 197 0.05096472054719925
130 198 0.10325203090906143
130 199 0.1616106927394867
130 200 0.18933026492595673
130 201 0.19245009124279022
130 202 0.19296123087406158
130 204 0.14712248742580414
130 205 0.11911839246749878
130 206 0.19483570754528046
130 208 0.1897583305835724
130 209 0.19094064831733704
130 210 0.15446233749389648
130 212 0.07959172129631042
130 214 0.17448346316814423
130 216 0.17965586483478546
130 217 0.18154902756214142
130 218 0.15569978952407837
130 219 0.1688552349805832
130 220 0.14653584361076355
130 221 0.15375466644763947
130 222 0.18414732813835144
130 223 0.18462181091308594
130 224 0.06018081307411194
130 225 0.16894297301769257
130 226 0.08451543003320694
130 227 0.1831074059009552
130 228 0.15680678188800812
130 229 0.1524352878332138
130 230 0.06900656223297119
130 231 0.2025839388370514
130 232 0.11999250203371048
130 234 0.17412146925926208
130 235 0.08740615844726562
130 236 0.18917536735534668
130 237 0.19184201955795288
130 238 0.17358265817165375
130 239 0.17063646018505096
130 240 0.17909936606884003
130 241 0.17521429061889648
130 243 0.18462181091308594
130 244 0.18380193412303925
130 245 0.15170694887638092
130 246 0.18320614099502563
130 247 0.19104017317295074
130 248 0.1700066477060318
130 249 0.16005253791809082
130 250 0.18012358248233795
130 252 0.18636082112789154
130 253 0.10690449923276901
130 254 0.18050041794776917
130 255 0.05596110597252846
131 132 0.37217977643013
131 133 0.33580130338668823
131 134 0.23133355379104614
131 135 0.9487341642379761
131 136 0.9688573479652405
131 137 0.9577129483222961
131 138 0.9666102528572083
131 139 0.9280403852462769
131 140 0.14137542247772217
131 141 0.1919211894273758
131 142 0.9608460664749146
131 143 0.08638180047273636
131 144 0.12309407442808151
131 145 0.9538300037384033
131 146 0.9523321986198425
131 147 0.9595387578010559
131 148 0.9492403268814087
131 149 0.9625723958015442
131 150 0.960347056388855
131 151 0.9492860436439514
131 152 0.9541487693786621
131 153 0.17140857875347137
131 154 0.2290983945131302
131 155 0.9589048027992249
131 156 0.15869350731372833
131 157 0.9544275999069214
131 158 0.10743601620197296
131 159 0.9674093127250671
131 160 0.41665562987327576
131 161 0.10873046517372131
131 162 0.9516811370849609
131 163 0.3550342619419098
131 164 0.9434458017349243
131 165 0.9440004825592041
131 166 0.962124764919281
131 167 0.9393044710159302
131 168 0.9629349112510681
131 169 0.9446069598197937
131 170 0.12016910314559937
131 171 0.9389972686767578
131 172 0.9070842266082764
131 173 0.9594504833221436
131 174 0.9247993230819702
131 175 0.9675025939941406
131 176 0.9630694389343262
131 177 0.9602557420730591
131 179 0.9401642084121704
131 180 0.9629349112510681
131 181 0.9560716152191162
131 182 0.3564292788505554
131 183 0.9620282649993896
131 184 0.963805079460144
131 185 0.09717953205108643
131 186 0.9512324333190918
131 187 0.9656941890716553
131 188 0.46614181995391846
131 189 0.9256860613822937
131 190 0.9460656642913818
131 191 0.9637556672096252
131 192 0.10243622213602066
131 193 0.9594504833221436
131 194 0.12570399045944214
131 195 0.9555734992027283
131 196 0.9649828672409058
131 197 0.10743601620197296
131 198 0.24931974709033966
131 199 0.9504945874214172
131 200 0.9026862382888794
131 201 0.9504826068878174
131 202 0.9498374462127686
131 204 0.18044571578502655
131 205 0.9294224381446838
131 206 0.9366613030433655
131 208 0.962124764919281
131 209 0.9555734992027283
131 210 0.9143500328063965
131 211 0.599077582359314
131 212 0.4706641733646393
131 213 0.18332765996456146
131 214 0.955076277256012
131 215 0.21507543325424194
131 216 0.9577622413635254
131 217 0.9467686414718628
131 218 0.9473693370819092
131 219 0.9572155475616455
131 220 0.9599958658218384
131 221 0.8805692791938782
131 222 0.9632123112678528
131 223 0.9594504833221436
131 224 0.2691054046154022
131 225 0.9566685557365417
131 226 0.12957270443439484
131 227 0.9368184804916382
131 228 0.9315669536590576
131 229 0.9640220999717712
131 230 0.11240790039300919
131 231 0.6147024631500244
131 232 0.6927375793457031
131 233 0.14119857549667358
131 234 0.9572658538818359
131 235 0.8482967615127563
131 236 0.9643480181694031
131 237 0.9527316093444824
131 238 0.9605409502983093
131 239 0.9472705721855164
131 240 0.961035966873169
131 241 0.9538300037384033
131 242 0.10243622213602066
131 243 0.9604911208152771
131 244 0.9350348711013794
131 245 0.9281892776489258
131 246 0.9362597465515137
131 247 0.9539795517921448
131 248 0.9511309862136841
131 249 0.9466188549995422
131 250 0.9560716152191162
131 251 0.09162174165248871
131 252 0.9537820219993591
131 253 0.09219259768724442
131 254 0.9528307318687439
131 255 0.8317383527755737
132 133 0.13432836532592773
132 134 0.07257946580648422
132 135 0.33847564458847046
132 136 0.36316943168640137
132 137 0.353723406791687
132 138 0.3618910312652588
132 139 0.35150182247161865
132 140 0.13195808231830597
132 141 0.17982856929302216
132 142 0.353723406791687
132 144 0.05183210223913193
132 145 0.3218095898628235
132 146 0.3715953528881073
132 147 0.3559504449367523
132 148 0.35841116309165955
132 149 0.3552185893058777
132 150 0.364674836397171
132 151 0.3213805854320526
132 152 0.35989147424697876
132 154 0.21563461422920227
132 155 0.3442956805229187
132 156 0.10580184310674667
132 157 0.3324800729751587
132 158 0.15627966821193695
132 159 0.3594728112220764
132 160 0.16603337228298187
132 161 0.08921994268894196
132 162 0.36416709423065186
132 163 0.07635590434074402
132 164 0.3638613224029541
132 165 0.34111449122428894
132 166 0.354669988155365
132 167 0.35581788420677185
132 168 0.353723406791687
132 169 0.30398064851760864
132 170 0.05655346065759659
132 171 0.36825570464134216
132 172 0.35479143261909485
132 173 0.3524434268474579
132 174 0.35150182247161865
132 175 0.3587384819984436
132 176 0.3415191173553467
132 177 0.3682240843772888
132 179 0.3533329665660858
132 180 0.37321996688842773
132 181 0.33753877878189087
132 182 0.1533118486404419
132 183 0.35262542963027954
132 184 0.3537612855434418
132 186 0.33842214941978455
132 187 0.3552185893058777
132 188 0.17358843982219696
132 189 0.3733347952365875
132 190 0.31043487787246704
132 191 0.36795687675476074
132 193 0.3524434268474579
132 194 0.18856698274612427
132 195 0.3540916442871094
132 196 0.3624560236930847
132 198 0.16886132955551147
132 199 0.3645555078983307
132 200 0.3196054995059967
132 201 0.35127049684524536
132 202 0.3183920085430145
132 204 0.22557029128074646
132 205 0.3449753522872925
132 206 0.3641599118709564
132 208 0.35744085907936096
132 209 0.3485153913497925
132 210 0.3508501946926117
132 211 0.12966299057006836
132 212 0.31379443407058716
132 213 0.0740761086344719
132 214 0.36505410075187683
132 215 0.16209527850151062
132 216 0.3450092673301697
132 217 0.30928173661231995
132 218 0.3609236478805542
132 219 0.3674585819244385
132 220 0.3633566200733185
132 221 0.30827391147613525
132 222 0.3653777241706848
132 223 0.3524434268474579
132 224 0.112774558365345
132 225 0.3342268466949463
132 227 0.36581653356552124
132 228 0.36062756180763245
132 229 0.367267906665802
132 230 0.088168203830719
132 231 0.3192325234413147
132 232 0.1954726129770279
132 233 0.0792740061879158
132 234 0.3587349057197571
132 235 0.29355093836784363
132 236 0.3452933430671692
132 237 0.3585645258426666
132 238 0.3603971302509308
132 239 0.36852169036865234
132 240 0.3494880199432373
132 241 0.3441963195800781
132 242 0.21854336559772491
132 243 0.3635440468788147
132 244 0.32735246419906616
132 245 0.35033470392227173
132 246 0.3433152735233307
132 247 0.31801173090934753
132 248 0.3559504449367523
132 249 0.3553994297981262
132 250 0.37101367115974426
132 251 0.1832541674375534
132 252 0.36696839332580566
132 254 0.3438357412815094
132 255 0.32731252908706665
133 135 0.375143826007843
133 136 0.3603971302509308
133 137 0.33701208233833313
133 138 0.3368370532989502
133 139 0.2967597544193268
133 140 0.11310692131519318
133 141 0.1383296698331833
133 142 0.3592938482761383
133 144 0.0691094771027565
133 145 0.33020463585853577
133 146 0.3408619165420532
133 147 0.3531476855278015
133 148 0.36405545473098755
133 149 0.33579257130622864
133 150 0.33962082862854004
133 151 0.3749440014362335
133 152 0.3458332121372223
133 153 0.14693021774291992
133 155 0.36928489804267883
133 156 0.10580184310674667
133 157 0.3520376980304718
133 159 0.32629069685935974
133 160 0.255435973405838
133 161 0.11152493208646774
133 162 0.3305516541004181
133 163 0.40468630194664
133 164 0.35822004079818726
133 165 0.37212488055229187
133 166 0.35744085907936096
133 167 0.34727826714515686
133 168 0.3704347312450409
133 169 0.3349416255950928
133 171 0.3512592911720276
133 172 0.3899773359298706
133 173 0.3690943121910095
133 174 0.3630264699459076
133 175 0.36977654695510864
133 176 0.35262542963027954
133 177 0.3403283655643463
133 178 0.061084721237421036
133 179 0.37311962246894836
133 180 0.33144161105155945
133 181 0.309643030166626
133 182 0.05365914851427078
133 183 0.33596596121788025
133 184 0.3675800561904907
133 185 0.20156928896903992
133 186 0.3580003082752228
133 187 0.3607688844203949
133 188 0.3359776437282562
133 189 0.3617585003376007
133 190 0.35841116309165955
133 191 0.36795687675476074
133 192 0.13658960163593292
133 193 0.3524434268474579
133 195 0.3373629152774811
133 196 0.35966789722442627
133 198 0.4538148045539856
133 199 0.3360746204853058
133 200 0.3929094970226288
133 201 0.36251118779182434
133 202 0.34938591718673706
133 205 0.2609057128429413
133 206 0.3641599118709564
133 208 0.37129515409469604
133 209 0.3513035178184509
133 210 0.23682387173175812
133 211 0.08335477858781815
133 212 0.058110080659389496
133 213 0.05926088988780975
133 214 0.35948073863983154
133 215 0.17456413805484772
133 216 0.34222692251205444
133 217 0.3711380660533905
133 218 0.28987568616867065
133 219 0.3674585819244385
133 220 0.30788230895996094
133 221 0.35058602690696716
133 222 0.3432336151599884
133 223 0.3246919810771942
133 224 0.07176562398672104
133 225 0.36764949560165405
133 226 0.2159671038389206
133 227 0.3799954652786255
133 228 0.3320063352584839
133 229 0.3310976028442383
133 231 0.2760930061340332
133 232 0.360282838344574
133 234 0.3531731069087982
133 235 0.28716936707496643
133 236 0.370154470205307
133 237 0.3333529531955719
133 238 0.354852557182312
133 239 0.32632455229759216
133 240 0.3411668837070465
133 241 0.32740628719329834
133 243 0.3690943121910095
133 244 0.3529713451862335
133 245 0.32736194133758545
133 246 0.37168845534324646
133 247 0.35985538363456726
133 248 0.3419366478919983
133 249 0.3525787889957428
133 250 0.3738032579421997
133 252 0.3725709319114685
133 253 0.05463584139943123
133 254 0.3522219657897949
133 255 0.27329006791114807
134 135 0.15087851881980896
134 136 0.22468562424182892
134 137 0.2121901661157608
134 138 0.19854295253753662
134 139 0.2148289978504181
134 140 0.061113230884075165
134 141 0.269069105386734
134 142 0.19413141906261444
134 143 0.2333800196647644
134 144 0.14002801477909088
134 145 0.19958190619945526
134 146 0.23097030818462372
134 147 0.22261232137680054
134 148 0.18298062682151794
134 149 0.22941574454307556
134 150 0.21659228205680847
134 151 0.20106422901153564
134 152 0.2187611162662506
134 153 0.15877681970596313
134 154 0.13592873513698578
134 155 0.22953420877456665
134 156 0.11433238536119461
134 157 0.19021084904670715
134 159 0.22859154641628265
134 160 0.2173745334148407
134 162 0.23157669603824615
134 163 0.08663790673017502
134 164 0.2103155255317688
134 165 0.22848206758499146
134 166 0.19762162864208221
134 167 0.2076335847377777
134 168 0.2121901661157608
134 169 0.20530615746974945
134 170 0.09166984260082245
134 171 0.2295849472284317
134 172 0.17110297083854675
134 173 0.20242564380168915
134 174 0.16345682740211487
134 175 0.2057594209909439
134 176 0.22953420877456665
134 177 0.208000048995018
134 179 0.21076540648937225
134 180 0.2167048305273056
134 181 0.22156526148319244
134 182 0.24850952625274658
134 183 0.22953420877456665
134 184 0.21951475739479065
134 186 0.21761155128479004
134 187 0.21592068672180176
134 188 0.18153336644172668
134 189 0.2251734882593155
134 190 0.17840610444545746
134 191 0.22870875895023346
134 193 0.184432253241539
134 194 0.13584712147712708
134 195 0.2124110758304596
134 196 0.2304886132478714
134 197 0.16888011991977692
134 199 0.20774638652801514
134 200 0.24239587783813477
134 201 0.2049800157546997
134 202 0.20552444458007812
134 204 0.19500598311424255
134 205 0.21145644783973694
134 206 0.19829781353473663
134 208 0.21558721363544464
134 209 0.2124110758304596
134 210 0.2132653445005417
134 211 0.14261949062347412
134 212 0.2449018657207489
134 213 0.12007302790880203
134 214 0.2032664716243744
134 215 0.12126780301332474
134 216 0.21647991240024567
134 217 0.17774340510368347
134 218 0.22572258114814758
134 219 0.19854295253753662
134 220 0.220305398106575
134 221 0.18126150965690613
134 222 0.2288261353969574
134 223 0.22491738200187683
134 224 0.09970960021018982
134 225 0.19413141906261444
134 227 0.2206389456987381
134 228 0.213409423828125
134 229 0.21647991240024567
134 230 0.08574929088354111
134 231 0.1608313024044037
134 232 0.19259488582611084
134 233 0.06424925476312637
134 234 0.22087539732456207
134 235 0.1758497804403305
134 236 0.2194025069475174
134 237 0.213413804769516
134 238 0.21120449900627136
134 239 0.1960773915052414
134 240 0.21580936014652252
134 241 0.16329428553581238
134 242 0.13284222781658173
134 243 0.20242564380168915
134 244 0.22147580981254578
134 245 0.1861875355243683
134 246 0.22995616495609283
134 247 0.2125217765569687
134 248 0.1862674355506897
134 249 0.22860382497310638
134 250 0.19895656406879425
134 251 0.0990147516131401
134 252 0.20887309312820435
134 253 0.08856149017810822
134 254 0.22655999660491943
134 255 0.12877532839775085
135 136 0.9545691013336182
135 137 0.9548130631446838
135 138 0.9501084685325623
135 139 0.9136517643928528
135 140 0.1425013393163681
135 141 0.18299293518066406
135 142 0.9548130631446838
135 143 0.08706975728273392
135 144 0.12407440692186356
135 145 0.9476765394210815
135 146 0.9440764784812927
135 147 0.951290488243103
135 148 0.938666820526123
135 149 0.9524069428443909
135 150 0.9501084685325623
135 151 0.9472563862800598
135 152 0.9415563344955444
135 153 0.1666031926870346
135 154 0.19922764599323273
135 155 0.9539481997489929
135 156 0.11330312490463257
135 157 0.9525246024131775
135 158 0.09844695031642914
135 159 0.957346498966217
135 160 0.41273292899131775
135 161 0.12645739316940308
135 162 0.9454962015151978
135 163 0.34920379519462585
135 164 0.943496823310852
135 165 0.934469997882843
135 166 0.9551252126693726
135 167 0.9306467771530151
135 168 0.956918478012085
135 169 0.9393637776374817
135 170 0.1425013393163681
135 171 0.9314860701560974
135 172 0.9076588153839111
135 173 0.9545047283172607
135 174 0.9267194867134094
135 175 0.966863751411438
135 176 0.9518492817878723
135 177 0.9457616806030273
135 179 0.9401731491088867
135 180 0.9484966993331909
135 181 0.9489247798919678
135 182 0.3071161210536957
135 183 0.950799822807312
135 184 0.9631240367889404
135 185 0.09795347601175308
135 186 0.9450654983520508
135 187 0.9534558653831482
135 188 0.44022369384765625
135 189 0.9188381433486938
135 190 0.9418668150901794
135 191 0.9557459354400635
135 192 0.10325203090906143
135 193 0.9576514959335327
135 194 0.0871097594499588
135 195 0.9484304189682007
135 196 0.9473766088485718
135 197 0.08860225230455399
135 198 0.25928330421447754
135 199 0.9343818426132202
135 200 0.89546799659729
135 201 0.9591144919395447
135 202 0.9467524290084839
135 204 0.15346360206604004
135 205 0.9094318747520447
135 206 0.9258407354354858
135 208 0.9572197198867798
135 209 0.9536994695663452
135 210 0.8984254002571106
135 211 0.5653423070907593
135 212 0.42828911542892456
135 213 0.179188072681427
135 214 0.9521499276161194
135 215 0.22150106728076935
135 216 0.9506672024726868
135 217 0.945807158946991
135 218 0.9280605912208557
135 219 0.9522127509117126
135 220 0.9519158601760864
135 221 0.8738743662834167
135 222 0.9541440606117249
135 223 0.9513580799102783
135 224 0.24412371218204498
135 225 0.9516549110412598
135 226 0.13060462474822998
135 227 0.9314174652099609
135 228 0.9216775298118591
135 229 0.9496155977249146
135 230 0.13996268808841705
135 231 0.611445426940918
135 232 0.6953572034835815
135 233 0.10486964881420135
135 234 0.9501744508743286
135 235 0.8405805826187134
135 236 0.9584552049636841
135 237 0.9412610530853271
135 238 0.9556168913841248
135 239 0.9452452659606934
135 240 0.9550609588623047
135 241 0.9466188549995422
135 242 0.07227642089128494
135 243 0.9555537104606628
135 244 0.9252672791481018
135 245 0.9214716553688049
135 246 0.9287024736404419
135 247 0.9552509188652039
135 248 0.9428157210350037
135 249 0.9339019656181335
135 250 0.9520878791809082
135 251 0.06926356256008148
135 252 0.9476137757301331
135 253 0.0826016217470169
135 254 0.9445706009864807
135 255 0.8251503705978394
136 137 0.9684532880783081
136 138 0.9669162631034851
136 139 0.938663899898529
136 140 0.13305595517158508
136 141 0.1747177392244339
136 142 0.9725919961929321
136 143 0.09627458453178406
136 144 0.16045762598514557
136 145 0.9646991491317749
136 146 0.9652601480484009
136 147 0.9589328765869141
136 148 0.96241694688797
136 149 0.9711344838142395
136 150 0.9710527658462524
136 151 0.9613914489746094
136 152 0.9619755148887634
136 153 0.1698123961687088
136 154 0.2091638296842575
136 155 0.9706045985221863
136 156 0.1441144347190857
136 157 0.9621464014053345
136 158 0.09675959497690201
136 159 0.9738090634346008
136 160 0.4127756655216217
136 161 0.11600395292043686
136 162 0.9605098962783813
136 163 0.3630741834640503
136 164 0.9545691013336182
136 165 0.9530133008956909
136 166 0.9716933965682983
136 167 0.9432469606399536
136 168 0.9663839340209961
136 169 0.9598593711853027
136 170 0.1050441786646843
136 171 0.9534042477607727
136 172 0.9204224944114685
136 173 0.9721654057502747
136 174 0.9322420954704285
136 175 0.9748950004577637
136 176 0.9736989736557007
136 177 0.9678942561149597
136 179 0.953460693359375
136 180 0.9674186110496521
136 181 0.9637491703033447
136 182 0.3531101644039154
136 183 0.975761890411377
136 184 0.9733105897903442
136 185 0.09627458453178406
136 186 0.9641934037208557
136 187 0.9793819189071655
136 188 0.4888434112071991
136 189 0.9278169870376587
136 190 0.9603201746940613
136 191 0.9732806086540222
136 192 0.1014823243021965
136 193 0.9711344838142395
136 194 0.13231676816940308
136 195 0.9653186202049255
136 196 0.9653186202049255
136 197 0.10643555223941803
136 198 0.26268044114112854
136 199 0.9511656761169434
136 200 0.922601044178009
136 201 0.9562467336654663
136 202 0.9535529613494873
136 204 0.15641969442367554
136 205 0.9423059821128845
136 206 0.9437922239303589
136 208 0.9716933965682983
136 209 0.9642828702926636
136 210 0.9242997169494629
136 211 0.5831770896911621
136 212 0.46628129482269287
136 213 0.1651095449924469
136 214 0.9668866395950317
136 215 0.20844058692455292
136 216 0.9705489873886108
136 217 0.9588419795036316
136 218 0.9459373950958252
136 219 0.9700186252593994
136 220 0.969603419303894
136 221 0.9049288034439087
136 222 0.9717234969139099
136 223 0.9701035618782043
136 224 0.25517377257347107
136 225 0.9715573191642761
136 226 0.1283661127090454
136 227 0.9512707591056824
136 228 0.9420303702354431
136 229 0.9715825915336609
136 230 0.11791180074214935
136 231 0.6169911623001099
136 232 0.7033726572990417
136 233 0.13988372683525085
136 234 0.9669467806816101
136 235 0.8439531922340393
136 236 0.9738389849662781
136 237 0.9625911712646484
136 238 0.9701338410377502
136 239 0.9562151432037354
136 240 0.969603419303894
136 241 0.9605409502983093
136 242 0.09133408963680267
136 243 0.969072699546814
136 244 0.9443044662475586
136 245 0.9462147355079651
136 246 0.9496756196022034
136 247 0.9647854566574097
136 248 0.9599740505218506
136 249 0.9556168913841248
136 250 0.9658217430114746
136 251 0.09076854586601257
136 252 0.9625911712646484
136 253 0.1014823243021965
136 254 0.9688807725906372
136 255 0.8570472598075867
137 138 0.9620780944824219
137 139 0.9269149303436279
137 140 0.1477481573820114
137 141 0.18069584667682648
137 142 0.9646569490432739
137 143 0.09672388434410095
137 144 0.1612064689397812
137 145 0.9608460664749146
137 146 0.9582945704460144
137 147 0.9550396800041199
137 148 0.9490026831626892
137 149 0.9642735719680786
137 150 0.9651948809623718
137 151 0.9553565979003906
137 152 0.95702064037323
137 153 0.15841881930828094
137 154 0.20119783282279968
137 155 0.9668440222740173
137 156 0.10529962927103043
137 157 0.9593372941017151
137 158 0.08749004453420639
137 159 0.97835373878479
137 160 0.43138542771339417
137 161 0.11654532700777054
137 162 0.9587194323539734
137 163 0.3334212899208069
137 164 0.9527075886726379
137 165 0.9479914903640747
137 166 0.9720916152000427
137 167 0.9487113952636719
137 168 0.9604989290237427
137 169 0.9580360651016235
137 170 0.11257002502679825
137 171 0.9472813606262207
137 172 0.9181519746780396
137 173 0.9684165716171265
137 174 0.9322914481163025
137 175 0.972235381603241
137 176 0.9647715091705322
137 177 0.9599179029464722
137 179 0.9463056921958923
137 180 0.9615384936332703
137 181 0.9588767886161804
137 182 0.32328760623931885
137 183 0.9647715091705322
137 184 0.9685695171356201
137 185 0.07522968202829361
137 186 0.9592984914779663
137 187 0.9653093218803406
137 188 0.46395617723464966
137 189 0.9224258661270142
137 190 0.9563756585121155
137 191 0.9695624113082886
137 192 0.08156473934650421
137 193 0.9673807621002197
137 194 0.11729493737220764
137 195 0.9604583382606506
137 196 0.9594177603721619
137 197 0.08749004453420639
137 198 0.2481507509946823
137 199 0.9449750185012817
137 200 0.908302903175354
137 201 0.9554653167724609
137 202 0.9516935348510742
137 204 0.15714968740940094
137 205 0.9315563440322876
137 206 0.9407640695571899
137 208 0.9689891338348389
137 209 0.9594177603721619
137 210 0.9275220632553101
137 211 0.5807138085365295
137 212 0.45761343836784363
137 213 0.1603507399559021
137 214 0.9641186594963074
137 215 0.20010608434677124
137 216 0.9667710661888123
137 217 0.9507244229316711
137 218 0.9471700191497803
137 219 0.9620780944824219
137 220 0.9689523577690125
137 221 0.8854643106460571
137 222 0.9700599908828735
137 223 0.9684165716171265
137 224 0.22958026826381683
137 225 0.9625779390335083
137 226 0.12090485543012619
137 227 0.9440681338310242
137 228 0.9346765279769897
137 229 0.9636557698249817
137 230 0.14478699862957
137 231 0.5924996733665466
137 232 0.6851981282234192
137 233 0.14053654670715332
137 234 0.9631562829017639
137 235 0.8419375419616699
137 236 0.9691051244735718
137 237 0.9649924039840698
137 238 0.9653492569923401
137 239 0.9575279951095581
137 240 0.9668819308280945
137 241 0.9577129483222961
137 242 0.06117355078458786
137 243 0.9642735719680786
137 244 0.9444618225097656
137 245 0.9366980195045471
137 246 0.9424592852592468
137 247 0.9609590172767639
137 248 0.9539936780929565
137 249 0.9495494961738586
137 250 0.9620001316070557
137 251 0.07979313284158707
137 252 0.9555829167366028
137 253 0.10195592790842056
137 254 0.9598394632339478
137 255 0.8432567715644836
138 139 0.931807279586792
138 140 0.1265755146741867
138 141 0.15480172634124756
138 142 0.9631170034408569
138 143 0.07519061118364334
138 144 0.10956346988677979
138 145 0.9593032002449036
138 146 0.9577968716621399
138 147 0.9597712159156799
138 148 0.9527207612991333
138 149 0.9679136276245117
138 150 0.9615784287452698
138 151 0.9496024250984192
138 152 0.9523283839225769
138 153 0.13397708535194397
138 154 0.2144995629787445
138 155 0.9642704129219055
138 156 0.14471180737018585
138 157 0.9640502333641052
138 158 0.10687673836946487
138 159 0.9695937633514404
138 160 0.3930476903915405
138 161 0.12480514496564865
138 162 0.9592664837837219
138 163 0.338944673538208
138 164 0.9490562677383423
138 165 0.9496024250984192
138 166 0.9684858918190002
138 167 0.9439713358879089
138 168 0.9641559720039368
138 169 0.9564886093139648
138 170 0.11251156777143478
138 171 0.9436193704605103
138 172 0.9143937826156616
138 173 0.9679136276245117
138 174 0.9414800405502319
138 175 0.9707010388374329
138 176 0.9642704129219055
138 177 0.9635816812515259
138 179 0.948977530002594
138 180 0.9672728776931763
138 181 0.9625411033630371
138 182 0.33455756306648254
138 183 0.9663418531417847
138 184 0.9711592793464661
138 185 0.08593212813138962
138 186 0.959843635559082
138 187 0.9679136276245117
138 188 0.4678928256034851
138 189 0.92518550157547
138 190 0.9537734389305115
138 191 0.9690588712692261
138 192 0.10190297663211823
138 193 0.9648079872131348
138 194 0.12504960596561432
138 195 0.9672399163246155
138 196 0.9630797505378723
138 197 0.10687673836946487
138 198 0.2519587576389313
138 199 0.9466090798377991
138 200 0.90892493724823
138 201 0.9549691081047058
138 202 0.9575055837631226
138 204 0.16267764568328857
138 205 0.9267470240592957
138 206 0.9455817937850952
138 208 0.9674522876739502
138 209 0.960999608039856
138 210 0.9237685203552246
138 211 0.5735025405883789
138 212 0.4552081227302551
138 213 0.13816161453723907
138 214 0.9604994654655457
138 215 0.2093045860528946
138 216 0.9621174335479736
138 217 0.9512795805931091
138 218 0.946678102016449
138 219 0.9636552333831787
138 220 0.9653451442718506
138 221 0.8883867263793945
138 222 0.9685235619544983
138 223 0.9679136276245117
138 224 0.2409340739250183
138 225 0.9641559720039368
138 226 0.12889818847179413
138 227 0.9456934928894043
138 228 0.9373940229415894
138 229 0.9683446884155273
138 230 0.14471180737018585
138 231 0.6195486187934875
138 232 0.6776935458183289
138 233 0.14046356081962585
138 234 0.9636934399604797
138 235 0.8569734692573547
138 236 0.9727235436439514
138 237 0.9655361771583557
138 238 0.9658820629119873
138 239 0.960178792476654
138 240 0.9653451442718506
138 241 0.9686979055404663
138 242 0.10190297663211823
138 243 0.965843141078949
138 244 0.9439713358879089
138 245 0.9362115263938904
138 246 0.9430282115936279
138 247 0.9604598879814148
138 248 0.9618622064590454
138 249 0.9511606097221375
138 250 0.9667034149169922
138 251 0.09114479273557663
138 252 0.9582215547561646
138 253 0.0815223827958107
138 254 0.9582982063293457
138 255 0.8594143986701965
139 140 0.13828150928020477
139 141 0.17623890936374664
139 142 0.9355173707008362
139 143 0.0778210237622261
139 144 0.16008895635604858
139 145 0.9269599914550781
139 146 0.9308977723121643
139 147 0.9273403882980347
139 148 0.9359303116798401
139 149 0.9353464841842651
139 150 0.9296578168869019
139 151 0.9142534732818604
139 152 0.9150856137275696
139 153 0.17648150026798248
139 154 0.2173783779144287
139 155 0.9336854815483093
139 156 0.15658219158649445
139 157 0.9276617169380188
139 158 0.10055966675281525
139 159 0.9362564086914062
139 160 0.3574889302253723
139 161 0.12055981159210205
139 162 0.9225266575813293
139 163 0.3036353886127472
139 164 0.9201856255531311
139 165 0.9175187349319458
139 166 0.9403204917907715
139 167 0.9033626914024353
139 168 0.9333667159080505
139 169 0.9193164706230164
139 170 0.13828150928020477
139 171 0.9110111594200134
139 172 0.8829881548881531
139 173 0.931060791015625
139 174 0.8987764120101929
139 175 0.9386053681373596
139 176 0.9347574710845947
139 177 0.9380565881729126
139 179 0.9210626482963562
139 180 0.937667965888977
139 181 0.9305176138877869
139 182 0.3433019518852234
139 183 0.9401172995567322
139 184 0.9443134069442749
139 185 0.10005560517311096
139 186 0.9243144392967224
139 187 0.9353464841842651
139 188 0.46048054099082947
139 189 0.8927463293075562
139 190 0.9195869565010071
139 191 0.9420770406723022
139 192 0.07382750511169434
139 193 0.9332036972045898
139 194 0.13751327991485596
139 195 0.9278799891471863
139 196 0.9311093091964722
139 197 0.09050370007753372
139 198 0.23632557690143585
139 199 0.917048454284668
139 200 0.8784599900245667
139 201 0.9178560972213745
139 202 0.9126792550086975
139 204 0.19159188866615295
139 205 0.911041259765625
139 206 0.9039710164070129
139 208 0.9349716305732727
139 209 0.9246507287025452
139 210 0.9086757302284241
139 211 0.5935654640197754
139 212 0.4374804198741913
139 213 0.17159393429756165
139 214 0.9338522553443909
139 215 0.22625458240509033
139 216 0.9323980212211609
139 217 0.9248552322387695
139 218 0.9194501638412476
139 219 0.9328820109367371
139 220 0.9402185082435608
139 221 0.8739587068557739
139 222 0.9350799322128296
139 223 0.9321322441101074
139 224 0.2335301637649536
139 225 0.9301408529281616
139 226 0.06670373678207397
139 227 0.9163715839385986
139 228 0.9348270893096924
139 229 0.9366948008537292
139 230 0.14977426826953888
139 231 0.5795984864234924
139 232 0.7161989212036133
139 233 0.12242309749126434
139 234 0.9329884648323059
139 235 0.8401417136192322
139 236 0.9363651275634766
139 237 0.9214451909065247
139 238 0.9472264647483826
139 239 0.9286037683486938
139 240 0.9359350800514221
139 241 0.921558141708374
139 242 0.10546787083148956
139 243 0.9321322441101074
139 244 0.9154515266418457
139 245 0.8957920670509338
139 246 0.9081023931503296
139 247 0.925132691860199
139 248 0.9262583255767822
139 249 0.9180077314376831
139 250 0.9294406175613403
139 251 0.09433332085609436
139 252 0.9203636050224304
139 253 0.06328071653842926
139 254 0.9367812275886536
139 255 0.8232285976409912
140 141 0.34942829608917236
140 142 0.1477481573820114
140 145 0.1343066543340683
140 146 0.14821109175682068
140 147 0.14867839217185974
140 148 0.13544850051403046
140 149 0.11917286366224289
140 150 0.1476714313030243
140 151 0.14242543280124664
140 152 0.14915013313293457
140 153 0.2474358230829239
140 154 0.09078413248062134
140 155 0.11923440545797348
140 156 0.17817415297031403
140 157 0.14115342497825623
140 159 0.1466846764087677
140 160 0.14518016576766968
140 161 0.05634361505508423
140 162 0.14860020577907562
140 163 0.057863749563694
140 164 0.14962640404701233
140 165 0.14954669773578644
140 166 0.1399868279695511
140 167 0.1438104659318924
140 168 0.1477481573820114
140 169 0.10664884001016617
140 171 0.1288016438484192
140 172 0.1333223581314087
140 173 0.14020337164402008
140 174 0.13100352883338928
140 175 0.14638502895832062
140 176 0.140275776386261
140 177 0.14797909557819366
140 179 0.09996430575847626
140 180 0.119605652987957
140 181 0.14797909557819366
140 182 0.09681853652000427
140 183 0.13326197862625122
140 184 0.1466095894575119
140 185 0.07273929566144943
140 186 0.08478077501058578
140 187 0.13319319486618042
140 188 0.07072482258081436
140 189 0.14621149003505707
140 190 0.09267528355121613
140 191 0.13977131247520447
140 193 0.11216269433498383
140 195 0.12677313387393951
140 196 0.14085903763771057
140 198 0.13329780101776123
140 199 0.14388862252235413
140 200 0.10369516164064407
140 201 0.14907118678092957
140 202 0.09964475780725479
140 204 0.07597371935844421
140 205 0.12448952347040176
140 206 0.1509190946817398
140 208 0.14698617160320282
140 209 0.13381609320640564
140 210 0.12555445730686188
140 211 0.16376788914203644
140 213 0.2619684040546417
140 214 0.14782503247261047
140 215 0.18898223340511322
140 216 0.1265098601579666
140 217 0.1349453628063202
140 218 0.14357683062553406
140 219 0.14063946902751923
140 220 0.14713764190673828
140 221 0.06107582151889801
140 222 0.13984304666519165
140 223 0.12618303298950195
140 224 0.07769308984279633
140 225 0.14071252942085266
140 227 0.1217770129442215
140 228 0.1445976197719574
140 229 0.14759483933448792
140 231 0.08717824518680573
140 232 0.12586408853530884
140 234 0.11941961199045181
140 235 0.10478080064058304
140 236 0.11862325668334961
140 237 0.12737159430980682
140 238 0.14706185460090637
140 239 0.13501688838005066
140 240 0.14713764190673828
140 241 0.10603155940771103
140 242 0.0690065547823906
140 243 0.14721353352069855
140 244 0.129429429769516
140 245 0.10880712419748306
140 246 0.14334432780742645
140 247 0.13388584554195404
140 248 0.12743861973285675
140 249 0.12112613767385483
140 250 0.14093247056007385
140 252 0.14860020577907562
140 254 0.14122730493545532
141 142 0.19618408381938934
141 143 0.05337604880332947
141 145 0.18154707551002502
141 146 0.2019776701927185
141 147 0.20261448621749878
141 148 0.16216592490673065
141 149 0.18004201352596283
141 150 0.20124223828315735
141 151 0.15676754713058472
141 152 0.20325736701488495
141 153 0.1513068974018097
141 154 0.15544046461582184
141 155 0.19557513296604156
141 156 0.0653720498085022
141 157 0.17608310282230377
141 159 0.19989751279354095
141 160 0.30776235461235046
141 161 0.08268982917070389
141 162 0.1921229064464569
141 163 0.08492077887058258
141 164 0.19867806136608124
141 165 0.20379780232906342
141 166 0.15921950340270996
141 167 0.20050327479839325
141 168 0.19102132320404053
141 169 0.1669522374868393
141 170 0.27954262495040894
141 171 0.19427992403507233
141 172 0.17935840785503387
141 173 0.16975389420986176
141 174 0.16021719574928284
141 175 0.19948913156986237
141 176 0.19557513296604156
141 177 0.18614909052848816
141 179 0.17290525138378143
141 180 0.19102132320404053
141 181 0.19131989777088165
141 182 0.18471798300743103
141 183 0.16469484567642212
141 184 0.1895492672920227
141 185 0.1601281464099884
141 186 0.1607145518064499
141 187 0.16975389420986176
141 188 0.14531393349170685
141 189 0.20921529829502106
141 190 0.11508549749851227
141 191 0.20000000298023224
141 193 0.15946578979492188
141 195 0.170547753572464
141 196 0.1963883489370346
141 198 0.1369393765926361
141 199 0.1742158681154251
141 200 0.19566373527050018
141 201 0.20314981043338776
141 202 0.1462385207414627
141 204 0.39024627208709717
141 205 0.15045936405658722
141 206 0.19512096047401428
141 208 0.2003083974123001
141 209 0.1860521137714386
141 210 0.1463269591331482
141 211 0.10300523787736893
141 212 0.12925660610198975
141 213 0.24715577065944672
141 214 0.1962861269712448
141 215 0.2773500978946686
141 216 0.15987879037857056
141 217 0.18241046369075775
141 218 0.17383836209774017
141 219 0.19092212617397308
141 220 0.18509060144424438
141 221 0.1288500428199768
141 222 0.18984097242355347
141 223 0.1903301328420639
141 224 0.09501858055591583
141 225 0.16004490852355957
141 227 0.1892327070236206
141 228 0.18568487465381622
141 229 0.18566569685935974
141 230 0.0980580672621727
141 231 0.19191402196884155
141 232 0.24865880608558655
141 234 0.19587889313697815
141 235 0.13011829555034637
141 236 0.18433202803134918
141 237 0.1609678417444229
141 238 0.1952727735042572
141 239 0.19293613731861115
141 240 0.19537340104579926
141 241 0.14005060493946075
141 242 0.10127393901348114
141 243 0.20061823725700378
141 244 0.19522686302661896
141 245 0.14903952181339264
141 246 0.18407544493675232
141 247 0.19131989777088165
141 248 0.16624779999256134
141 249 0.18299293518066406
141 250 0.18614909052848816
141 252 0.19731542468070984
141 253 0.10127393901348114
141 254 0.1917201280593872
142 143 0.09672388434410095
142 144 0.15475820004940033
142 145 0.9608460664749146
142 146 0.961422860622406
142 147 0.956085741519928
142 148 0.9574289321899414
142 149 0.9642735719680786
142 150 0.9620780944824219
142 151 0.9564087390899658
142 152 0.95702064037323
142 153 0.1706048846244812
142 154 0.19225570559501648
142 155 0.9678803086280823
142 156 0.14478699862957
142 157 0.961422860622406
142 158 0.09721115976572037
142 159 0.9711295366287231
142 160 0.4123186767101288
142 161 0.11654532700777054
142 162 0.9555829167366028
142 163 0.3533695638179779
142 164 0.9548130631446838
142 165 0.9479914903640747
142 166 0.9669209122657776
142 167 0.9380874633789062
142 168 0.9604989290237427
142 169 0.959086537361145
142 170 0.1477481573820114
142 171 0.9462241530418396
142 172 0.9137746095657349
142 173 0.9715237617492676
142 174 0.927990198135376
142 175 0.9763550162315369
142 176 0.9647715091705322
142 177 0.9630413055419922
142 179 0.9536905288696289
142 180 0.9636174440383911
142 181 0.9620001316070557
142 182 0.34903618693351746
142 183 0.9658077955245972
142 184 0.9716639518737793
142 185 0.09672388434410095
142 186 0.9582546949386597
142 187 0.9673807621002197
142 188 0.49530455470085144
142 189 0.9256662726402283
142 190 0.9521625638008118
142 191 0.9695624113082886
142 192 0.10195592790842056
142 193 0.9694522619247437
142 194 0.10165560990571976
142 195 0.9594177603721619
142 196 0.9594177603721619
142 197 0.05832669138908386
142 198 0.25602856278419495
142 199 0.9428490400314331
142 200 0.9104915261268616
142 201 0.9565141201019287
142 202 0.950641930103302
142 204 0.1852121204137802
142 205 0.9283104538917542
142 206 0.9439495205879211
142 208 0.9689891338348389
142 209 0.9594177603721619
142 210 0.916610062122345
142 211 0.5789854526519775
142 212 0.4337567985057831
142 213 0.16588008403778076
142 214 0.9651587009429932
142 215 0.21872061491012573
142 216 0.9615789651870728
142 217 0.963316798210144
142 218 0.9397453665733337
142 219 0.9683117866516113
142 220 0.9658467173576355
142 221 0.8911042213439941
142 222 0.9669607281684875
142 223 0.9663450121879578
142 224 0.248711958527565
142 225 0.9667359590530396
142 226 0.12896516919136047
142 227 0.9461848735809326
142 228 0.9336082935333252
142 229 0.9636557698249817
142 230 0.09871839731931686
142 231 0.6247007250785828
142 232 0.7166686058044434
142 233 0.14053654670715332
142 234 0.9631562829017639
142 235 0.8347923755645752
142 236 0.9701360464096069
142 237 0.9566284418106079
142 238 0.9694879651069641
142 239 0.9501785039901733
142 240 0.9699875712394714
142 241 0.9577129483222961
142 242 0.10195592790842056
142 243 0.9642735719680786
142 244 0.9423370361328125
142 245 0.9366980195045471
142 246 0.9424592852592468
142 247 0.9630413055419922
142 248 0.956085741519928
142 249 0.9484966993331909
142 250 0.9599179029464722
142 251 0.07979313284158707
142 252 0.9555829167366028
142 253 0.08156473934650421
142 254 0.9608827829360962
142 255 0.8396987318992615
143 144 0.06666667014360428
143 145 0.09717953205108643
143 146 0.09702693670988083
143 147 0.09733285009860992
143 148 0.07622667402029037
143 149 0.09637388586997986
143 150 0.0966736450791359
143 151 0.07614545524120331
143 152 0.08679260313510895
143 153 0.0629940778017044
143 155 0.09642364829778671
143 157 0.09702693670988083
143 159 0.0960276648402214
143 160 0.07392212748527527
143 162 0.08647259324789047
143 163 0.0589255653321743
143 164 0.09795347601175308
143 165 0.09790129959583282
143 166 0.08553337305784225
143 167 0.07688594609498978
143 168 0.05373549088835716
143 169 0.09774527698755264
143 171 0.08744344860315323
143 173 0.09637388586997986
143 174 0.055586449801921844
143 175 0.0958314836025238
143 176 0.09642364829778671
143 177 0.0861111581325531
143 179 0.09816300123929977
143 180 0.08597678691148758
143 181 0.09687504917383194
143 182 0.20704986155033112
143 183 0.09642364829778671
143 184 0.0959785059094429
143 186 0.09712859243154526
143 187 0.08566567301750183
143 188 0.08642716705799103
143 189 0.10050377994775772
143 190 0.07622667402029037
143 191 0.09607689827680588
143 193 0.09637388586997986
143 195 0.09682458639144897
143 196 0.09682458639144897
143 199 0.05494837462902069
143 200 0.10182663798332214
143 201 0.09759000688791275
143 202 0.09784920513629913
143 204 0.05802588537335396
143 205 0.0894874706864357
143 206 0.09879973530769348
143 208 0.09622504562139511
143 209 0.09682458639144897
143 210 0.09025299549102783
143 211 0.07147417217493057
143 212 0.089689701795578
143 214 0.09677419811487198
143 216 0.096623495221138
143 217 0.09764168411493301
143 218 0.087726891040802
143 219 0.07519061118364334
143 220 0.09632419049739838
143 222 0.09612619876861572
143 223 0.09637388586997986
143 225 0.08597678691148758
143 227 0.08753761649131775
143 228 0.08835060894489288
143 229 0.07515160739421844
143 230 0.06804138422012329
143 231 0.09987522661685944
143 232 0.11831420660018921
143 233 0.07647190988063812
143 234 0.09657341986894608
143 235 0.06155973672866821
143 236 0.09592941403388977
143 237 0.09728167206048965
143 238 0.09627458453178406
143 239 0.08683861047029495
143 240 0.09632419049739838
143 241 0.09717953205108643
143 243 0.0749574676156044
143 244 0.09885336458683014
143 245 0.07756262272596359
143 246 0.09853293001651764
143 247 0.09687504917383194
143 248 0.09733285009860992
143 249 0.09795347601175308
143 250 0.0861111581325531
143 252 0.08647259324789047
143 254 0.09707771986722946
144 145 0.14252997934818268
144 146 0.16171155869960785
144 147 0.16222141683101654
144 148 0.15680916607379913
144 149 0.15419819951057434
144 150 0.15467782318592072
144 151 0.15664207935333252
144 152 0.14971725642681122
144 155 0.1607060730457306
144 157 0.13583771884441376
144 159 0.16004610061645508
144 162 0.16213610768318176
144 164 0.15019533038139343
144 165 0.16316883265972137
144 166 0.16037507355213165
144 167 0.11203381419181824
144 168 0.12896518409252167
144 169 0.14335975050926208
144 171 0.14428168535232544
144 172 0.16292262077331543
144 173 0.16062313318252563
144 174 0.16008895635604858
144 175 0.15971913933753967
144 176 0.15427783131599426
144 177 0.16145841777324677
144 179 0.1636049896478653
144 180 0.1612064689397812
144 181 0.14854174852371216
144 183 0.1607060730457306
144 184 0.14716704189777374
144 186 0.1618809700012207
144 187 0.16062313318252563
144 188 0.0777844488620758
144 189 0.1541057974100113
144 190 0.16334287822246552
144 191 0.1601281613111496
144 193 0.14777329564094543
144 194 0.1455213725566864
144 195 0.12909944355487823
144 196 0.1484643667936325
144 199 0.1120946854352951
144 200 0.16971105337142944
144 201 0.13012000918388367
144 202 0.11089577525854111
144 205 0.1677890121936798
144 206 0.14490629732608795
144 208 0.16037507355213165
144 209 0.1484643667936325
144 210 0.16245537996292114
144 212 0.08072073757648468
144 214 0.16129031777381897
144 215 0.2020726054906845
144 216 0.15459758043289185
144 217 0.16273613274097443
144 218 0.14474937319755554
144 219 0.16112273931503296
144 220 0.16054031252861023
144 221 0.16093362867832184
144 222 0.16021032631397247
144 223 0.15419819951057434
144 225 0.1612064689397812
144 227 0.16413304209709167
144 228 0.1656573861837387
144 229 0.16103914380073547
144 231 0.06991266459226608
144 232 0.15085060894489288
144 234 0.16095568239688873
144 235 0.10342036187648773
144 236 0.15988236665725708
144 237 0.1232234463095665
144 238 0.16045762598514557
144 239 0.15630951523780823
144 240 0.16054031252861023
144 241 0.10365816950798035
144 243 0.14777329564094543
144 244 0.16475559771060944
144 245 0.15290918946266174
144 246 0.16422154009342194
144 247 0.13562507927417755
144 248 0.14275485277175903
144 249 0.16325579583644867
144 250 0.15500007569789886
144 252 0.1297088861465454
144 254 0.1617961972951889
144 255 0.1324281394481659
145 146 0.9586182236671448
145 147 0.9563858509063721
145 148 0.9502986073493958
145 149 0.9646536111831665
145 150 0.9572155475616455
145 151 0.9471717476844788
145 152 0.9478229284286499
145 153 0.15916511416435242
145 154 0.17519287765026093
145 155 0.9641105532646179
145 156 0.15208128094673157
145 157 0.9586182236671448
145 158 0.058601461350917816
145 159 0.9663724303245544
145 160 0.40947189927101135
145 161 0.11709434539079666
145 162 0.9558828473091125
145 163 0.33785519003868103
145 164 0.9434458017349243
145 165 0.9492860436439514
145 166 0.9610857963562012
145 167 0.9350348711013794
145 168 0.9587572813034058
145 169 0.9562166333198547
145 170 0.14137542247772217
145 171 0.9432461261749268
145 172 0.9103827476501465
145 173 0.9625723958015442
145 174 0.9302011728286743
145 175 0.9664677977561951
145 176 0.9693163633346558
145 177 0.9602557420730591
145 179 0.9465238451957703
145 180 0.9566685557365417
145 181 0.9633938670158386
145 182 0.33918270468711853
145 183 0.9651517271995544
145 184 0.9658777713775635
145 185 0.08638180047273636
145 186 0.9575250744819641
145 187 0.9667348265647888
145 188 0.46614181995391846
145 189 0.9311121106147766
145 190 0.9481821060180664
145 191 0.9637556672096252
145 192 0.10243622213602066
145 193 0.9615316987037659
145 194 0.10999099165201187
145 195 0.9555734992027283
145 196 0.9597554802894592
145 197 0.10743601620197296
145 198 0.23744738101959229
145 199 0.9344750046730042
145 200 0.9048852324485779
145 201 0.9494287967681885
145 202 0.9561767578125
145 204 0.16916786134243011
145 205 0.9207261204719543
145 206 0.9366613030433655
145 208 0.9673198461532593
145 209 0.9597554802894592
145 210 0.9121572971343994
145 211 0.5817129611968994
145 212 0.44233715534210205
145 213 0.161106139421463
145 214 0.9582111239433289
145 215 0.2057243287563324
145 216 0.958805501461029
145 217 0.9499315619468689
145 218 0.9420410394668579
145 219 0.9582594037055969
145 220 0.9620760679244995
145 221 0.886235773563385
145 222 0.9621744155883789
145 223 0.9615316987037659
145 224 0.23450614511966705
145 225 0.9629349112510681
145 226 0.12957270443439484
145 227 0.9421352744102478
145 228 0.9294204711914062
145 229 0.958805501461029
145 230 0.13224460184574127
145 231 0.6244083046913147
145 232 0.6927375793457031
145 233 0.14119857549667358
145 234 0.9603942036628723
145 235 0.8303496837615967
145 236 0.9643480181694031
145 237 0.9516811370849609
145 238 0.9605409502983093
145 239 0.9483254551887512
145 240 0.9620760679244995
145 241 0.9538300037384033
145 242 0.05121811106801033
145 243 0.9615316987037659
145 244 0.9350348711013794
145 245 0.9271125197410583
145 246 0.9415794014930725
145 247 0.9592097401618958
145 248 0.9542838931083679
145 249 0.9466188549995422
145 250 0.9602557420730591
145 251 0.05726359039545059
145 252 0.9506307244300842
145 253 0.10243622213602066
145 254 0.9570236206054688
145 255 0.8365048170089722
146 147 0.9527854323387146
146 148 0.9488064646720886
146 149 0.9641777873039246
146 150 0.9598813652992249
146 151 0.9446290731430054
146 152 0.9526505470275879
146 153 0.158915176987648
146 154 0.2242535799741745
146 155 0.9636362195014954
146 156 0.15184247493743896
146 157 0.9539749026298523
146 158 0.10726731270551682
146 159 0.9689960479736328
146 160 0.42317378520965576
146 161 0.12526123225688934
146 162 0.9533331394195557
146 163 0.3230312466621399
146 164 0.9483005404472351
146 165 0.946739912033081
146 166 0.9626887440681458
146 167 0.9388952255249023
146 168 0.9572518467903137
146 169 0.9494462609291077
146 170 0.14821109175682068
146 171 0.9470677375793457
146 172 0.911148726940155
146 173 0.9620998501777649
146 174 0.9244257211685181
146 175 0.9670164585113525
146 176 0.9625967144966125
146 177 0.9650142192840576
146 179 0.9482124447822571
146 180 0.9593372941017151
146 181 0.956659197807312
146 182 0.3558695912361145
146 183 0.9636362195014954
146 184 0.9653958082199097
146 185 0.09702693670988083
146 186 0.9539272785186768
146 187 0.9620998501777649
146 188 0.46540987491607666
146 189 0.9263995289802551
146 190 0.9435235857963562
146 191 0.9653497338294983
146 192 0.10227537155151367
146 193 0.9610608816146851
146 194 0.13335075974464417
146 195 0.9572045803070068
146 196 0.9592922329902649
146 197 0.10726731270551682
146 198 0.2489282786846161
146 199 0.9351402521133423
146 200 0.911148726940155
146 201 0.9489901065826416
146 202 0.9462361931800842
146 204 0.18579243123531342
146 205 0.9181949496269226
146 206 0.9415814280509949
146 208 0.9637261033058167
146 209 0.9561607241630554
146 210 0.9194819927215576
146 211 0.5755982995033264
146 212 0.4764518737792969
146 213 0.1719464659690857
146 214 0.9608796834945679
146 215 0.2194059044122696
146 216 0.958341658115387
146 217 0.9473873376846313
146 218 0.940561830997467
146 219 0.9588391184806824
146 220 0.9657576084136963
146 221 0.8893702030181885
146 222 0.9648088216781616
146 223 0.9652168154716492
146 224 0.24949121475219727
146 225 0.9572518467903137
146 226 0.09702693670988083
146 227 0.9438410401344299
146 228 0.9365334510803223
146 229 0.9614666700363159
146 230 0.15184247493743896
146 231 0.6411939263343811
146 232 0.6973896026611328
146 233 0.14097686111927032
146 234 0.9609683752059937
146 235 0.8290457725524902
146 236 0.9659363031387329
146 237 0.9543818831443787
146 238 0.9652601480484009
146 239 0.9542087316513062
146 240 0.962642252445221
146 241 0.9544275999069214
146 242 0.10227537155151367
146 243 0.9620998501777649
146 244 0.9356980323791504
146 245 0.9299570322036743
146 246 0.9411631226539612
146 247 0.956659197807312
146 248 0.9527854323387146
146 249 0.9451324939727783
146 250 0.9608367085456848
146 251 0.0914778783917427
146 252 0.9512355923652649
146 253 0.10227537155151367
146 254 0.9607536792755127
146 255 0.8423296213150024
147 148 0.9433186650276184
147 149 0.9609642028808594
147 150 0.9545437097549438
147 151 0.9476073384284973
147 152 0.9482623934745789
147 153 0.16554762423038483
147 154 0.21596220135688782
147 155 0.9583321213722229
147 156 0.15894387662410736
147 157 0.9643279910087585
147 158 0.09782319515943527
147 159 0.9637430310249329
147 160 0.3933294713497162
147 161 0.12565617263317108
147 162 0.9479222893714905
147 163 0.3326528072357178
147 164 0.9544684290885925
147 165 0.9433722496032715
147 166 0.9594801664352417
147 167 0.9354410767555237
147 168 0.9623619914054871
147 169 0.9450401663780212
147 170 0.14867839217185974
147 171 0.9372870922088623
147 172 0.9041104912757874
147 173 0.9578374028205872
147 174 0.9295045137405396
147 175 0.9700654149055481
147 176 0.9593749046325684
147 177 0.9607231616973877
147 179 0.9384627342224121
147 180 0.9592238664627075
147 181 0.9554847478866577
147 182 0.3454757630825043
147 183 0.9583321213722229
147 184 0.9694775938987732
147 185 0.09733285009860992
147 186 0.9495818614959717
147 187 0.9578374028205872
147 188 0.4479497969150543
147 189 0.9314942359924316
147 190 0.9433186650276184
147 191 0.9631981253623962
147 192 0.10259783267974854
147 193 0.9578374028205872
147 194 0.11016452312469482
147 195 0.9570811986923218
147 196 0.960222601890564
147 197 0.10760551691055298
147 198 0.2616041898727417
147 199 0.9370189905166626
147 200 0.9019080400466919
147 201 0.9488159418106079
147 202 0.9513360857963562
147 204 0.180730402469635
147 205 0.9178237318992615
147 206 0.9338651299476624
147 208 0.9626021385192871
147 209 0.9570811986923218
147 210 0.9157925844192505
147 211 0.5756739377975464
147 212 0.4539472162723541
147 213 0.18918107450008392
147 214 0.9534433484077454
147 215 0.22478057444095612
147 216 0.9550934433937073
147 217 0.9503743052482605
147 218 0.943527340888977
147 219 0.9545437097549438
147 220 0.9594271183013916
147 221 0.8728779554367065
147 222 0.9616132974624634
147 223 0.9578374028205872
147 224 0.2502778470516205
147 225 0.956085741519928
147 226 0.08922179043292999
147 227 0.9351013898849487
147 228 0.9394862651824951
147 229 0.9571834206581116
147 230 0.14569856226444244
147 231 0.6108116507530212
147 232 0.7154226899147034
147 233 0.11164843291044235
147 234 0.959820568561554
147 235 0.8460400104522705
147 236 0.9637945890426636
147 237 0.9479222893714905
147 238 0.9641388058662415
147 239 0.9540477395057678
147 240 0.9604688286781311
147 241 0.9500799775123596
147 242 0.10259783267974854
147 243 0.9651332497596741
147 244 0.9375792145729065
147 245 0.9221042394638062
147 246 0.9377368688583374
147 247 0.9533893465995789
147 248 0.9494737386703491
147 249 0.9438750147819519
147 250 0.9533893465995789
147 251 0.09176629036664963
147 252 0.9479222893714905
147 253 0.08207826316356659
147 254 0.9511843323707581
147 255 0.8270832300186157
148 149 0.9550139307975769
148 150 0.9516680240631104
148 151 0.9445633888244629
148 152 0.939932107925415
148 153 0.1728658527135849
148 154 0.18574295938014984
148 155 0.9544571042060852
148 156 0.14003735780715942
148 157 0.9445801377296448
148 158 0.08864951878786087
148 159 0.9557657837867737
148 160 0.3622395992279053
148 161 0.12652485072612762
148 162 0.9438818693161011
148 163 0.35227760672569275
148 164 0.9376001954078674
148 165 0.9392328858375549
148 166 0.9608739018440247
148 167 0.9246844053268433
148 168 0.9490026831626892
148 169 0.94305819272995
148 170 0.1283196210861206
148 171 0.9319829940795898
148 172 0.9081430435180664
148 173 0.9529150128364563
148 174 0.9272138476371765
148 175 0.961118221282959
148 176 0.9597071409225464
148 177 0.953650712966919
148 179 0.9481572508811951
148 180 0.9521625638008118
148 181 0.9462661743164062
148 182 0.3362686038017273
148 183 0.9586571455001831
148 184 0.9605023264884949
148 185 0.09800572693347931
148 186 0.9487427473068237
148 187 0.9655085802078247
148 188 0.4933983087539673
148 189 0.91713947057724
148 190 0.9455709457397461
148 191 0.9604407548904419
148 192 0.10330711305141449
148 193 0.956063449382782
148 194 0.1267726868391037
148 195 0.9468276500701904
148 196 0.9510450959205627
148 197 0.09849946945905685
148 198 0.26740381121635437
148 199 0.9305720925331116
148 200 0.9037076234817505
148 201 0.9404973983764648
148 202 0.9355365633964539
148 204 0.1706060767173767
148 205 0.9175910353660583
148 206 0.9317140579223633
148 208 0.9566825032234192
148 209 0.9468276500701904
148 210 0.9033273458480835
148 211 0.5726487636566162
148 212 0.4087398648262024
148 213 0.14566797018051147
148 214 0.9516040086746216
148 215 0.2169039398431778
148 216 0.9511743187904358
148 217 0.9516280889511108
148 218 0.9285557270050049
148 219 0.9537734389305115
148 220 0.9534726142883301
148 221 0.8971990942955017
148 222 0.953606367111206
148 223 0.9508160352706909
148 224 0.22099167108535767
148 225 0.959535539150238
148 226 0.1306743025779724
148 227 0.9415659308433533
148 228 0.9286633133888245
148 229 0.9585396647453308
148 230 0.08002134412527084
148 231 0.6085087656974792
148 232 0.7000764608383179
148 233 0.14239902794361115
148 234 0.9517329931259155
148 235 0.8277560472488403
148 236 0.9568772912025452
148 237 0.9449412226676941
148 238 0.9582234025001526
148 239 0.9383026361465454
148 240 0.9524236917495728
148 241 0.9439491033554077
148 242 0.0929763987660408
148 243 0.9550139307975769
148 244 0.9311432242393494
148 245 0.9230491518974304
148 246 0.9356358051300049
148 247 0.9483760595321655
148 248 0.9464983940124512
148 249 0.9397335052490234
148 250 0.9525957703590393
148 251 0.0924006849527359
148 252 0.9407038688659668
148 253 0.061984263360500336
148 254 0.9524743556976318
148 255 0.8400114178657532
149 150 0.966878354549408
149 151 0.9518995881080627
149 152 0.9577398896217346
149 153 0.16391657292842865
149 154 0.23165397346019745
149 155 0.9674755930900574
149 156 0.15737789869308472
149 157 0.9641777873039246
149 158 0.1065453439950943
149 159 0.9737851619720459
149 160 0.40845197439193726
149 161 0.12441814690828323
149 162 0.9594172239303589
149 163 0.3549303412437439
149 164 0.9513580799102783
149 165 0.9539963006973267
149 166 0.9696044325828552
149 167 0.94210284948349
149 168 0.9642735719680786
149 169 0.9556161165237427
149 170 0.14721353352069855
149 171 0.9501741528511047
149 172 0.9126488566398621
149 173 0.9680082201957703
149 174 0.9299893975257874
149 175 0.973848283290863
149 176 0.9685081243515015
149 177 0.9678552746772766
149 179 0.9523418545722961
149 180 0.9704880118370056
149 181 0.9699300527572632
149 182 0.362026184797287
149 183 0.9726382493972778
149 184 0.972258985042572
149 185 0.08566567301750183
149 186 0.9620677828788757
149 187 0.9690402746200562
149 188 0.46435967087745667
149 189 0.9330788850784302
149 190 0.9508160352706909
149 191 0.9711980819702148
149 192 0.10158699750900269
149 193 0.9711042642593384
149 194 0.1246618703007698
149 195 0.9714983701705933
149 196 0.9652774333953857
149 197 0.1065453439950943
149 198 0.2158556431531906
149 199 0.942614734172821
149 200 0.9202815294265747
149 201 0.9561880230903625
149 202 0.9597755074501038
149 204 0.18454192578792572
149 205 0.9271074533462524
149 206 0.9458236694335938
149 208 0.9696044325828552
149 209 0.9652774333953857
149 210 0.9241658449172974
149 211 0.580334484577179
149 212 0.4775669276714325
149 213 0.18731717765331268
149 214 0.9637388586997986
149 215 0.1808348447084427
149 216 0.9674113988876343
149 217 0.9546031951904297
149 218 0.9469131231307983
149 219 0.9648079872131348
149 220 0.9736979603767395
149 221 0.897994875907898
149 222 0.9706671237945557
149 223 0.9711042642593384
149 224 0.2630619704723358
149 225 0.9642735719680786
149 226 0.12849850952625275
149 227 0.9490883350372314
149 228 0.9387447237968445
149 229 0.9663767218589783
149 230 0.15737789869308472
149 231 0.6416909098625183
149 232 0.6969716548919678
149 233 0.14002801477909088
149 234 0.9658758640289307
149 235 0.8400775194168091
149 236 0.9727889895439148
149 237 0.9615005850791931
149 238 0.969072699546814
149 239 0.9572014808654785
149 240 0.9716349840164185
149 241 0.9656941890716553
149 242 0.10158699750900269
149 243 0.9680082201957703
149 244 0.94210284948349
149 245 0.9333085417747498
149 246 0.9453796148300171
149 247 0.9647432565689087
149 248 0.9630486965179443
149 249 0.9524069428443909
149 250 0.9647432565689087
149 251 0.09086216986179352
149 252 0.9583754539489746
149 253 0.10158699750900269
149 254 0.9678010940551758
149 255 0.8555678725242615
150 151 0.9527572393417358
150 152 0.9533771872520447
150 153 0.15224668383598328
150 154 0.23237453401088715
150 155 0.9653061628341675
150 156 0.14471180737018585
150 157 0.9577968716621399
150 158 0.10687673836946487
150 159 0.9706252217292786
150 160 0.41925087571144104
150 161 0.12480514496564865
150 162 0.9571766257286072
150 163 0.35033777356147766
150 164 0.9490562677383423
150 165 0.9559120535850525
150 166 0.9684858918190002
150 167 0.9439713358879089
150 168 0.9631170034408569
150 169 0.9543886780738831
150 170 0.13360749185085297
150 171 0.9478460550308228
150 172 0.9198626279830933
150 173 0.966878354549408
150 174 0.9307325482368469
150 175 0.9707010388374329
150 176 0.9684134125709534
150 177 0.9615004658699036
150 179 0.948977530002594
150 180 0.9641559720039368
150 181 0.9615004658699036
150 182 0.3488548994064331
150 183 0.9694491028785706
150 184 0.969097375869751
150 185 0.07519061118364334
150 186 0.959843635559082
150 187 0.9730896353721619
150 188 0.4908697307109833
150 189 0.9273446202278137
150 190 0.9495626091957092
150 191 0.9700908660888672
150 192 0.10190297663211823
150 193 0.966878354549408
150 194 0.13286522030830383
150 195 0.9599595665931702
150 196 0.960999608039856
150 197 0.07772853225469589
150 198 0.24408504366874695
150 199 0.9455466866493225
150 200 0.9143937826156616
150 201 0.9549691081047058
150 202 0.9490971565246582
150 204 0.17389680445194244
150 205 0.9364795088768005
150 206 0.9392142295837402
150 208 0.9664187431335449
150 209 0.9599595665931702
150 210 0.9215871691703796
150 211 0.583867073059082
150 212 0.4682140648365021
150 213 0.17684687674045563
150 214 0.9604994654655457
150 215 0.21860702335834503
150 216 0.9621174335479736
150 217 0.9512795805931091
150 218 0.9445578455924988
150 219 0.9688473343849182
150 220 0.9705184698104858
150 221 0.9052976369857788
150 222 0.9705886840820312
150 223 0.9689487814903259
150 224 0.2562314569950104
150 225 0.9631170034408569
150 226 0.12084205448627472
150 227 0.947809100151062
150 228 0.9352587461471558
150 229 0.9683446884155273
150 230 0.15128961205482483
150 231 0.6179393529891968
150 232 0.6905611157417297
150 233 0.14046356081962585
150 234 0.9668055176734924
150 235 0.8415002822875977
150 236 0.9706626534461975
150 237 0.9582215547561646
150 238 0.9689844846725464
150 239 0.954931914806366
150 240 0.9653451442718506
150 241 0.9572155475616455
150 242 0.09171267598867416
150 243 0.9648079872131348
150 244 0.9407857656478882
150 245 0.938353955745697
150 246 0.9440865516662598
150 247 0.959419310092926
150 248 0.9566347002983093
150 249 0.9532648921012878
150 250 0.967743992805481
150 251 0.09114479273557663
150 252 0.963446319103241
150 253 0.10190297663211823
150 254 0.9655975699424744
150 255 0.8546727895736694
151 152 0.9410548210144043
151 153 0.17268165946006775
151 154 0.16744309663772583
151 155 0.9534400701522827
151 156 0.1532108187675476
151 157 0.9488508701324463
151 158 0.08855506032705307
151 159 0.9557919502258301
151 160 0.39562660455703735
151 161 0.11796402931213379
151 162 0.9428761601448059
151 163 0.3692089319229126
151 164 0.9387321472167969
151 165 0.9361022114753723
151 166 0.9598501324653625
151 167 0.9312264323234558
151 168 0.9595652222633362
151 169 0.9431164860725403
151 170 0.0925765261054039
151 171 0.9331300854682922
151 172 0.9093906879425049
151 173 0.961334764957428
151 174 0.9218723177909851
151 175 0.964263916015625
151 176 0.958684504032135
151 177 0.9463117718696594
151 179 0.9354010820388794
151 180 0.9479914903640747
151 181 0.9484193325042725
151 182 0.3127440810203552
151 183 0.9513422846794128
151 184 0.9615670442581177
151 185 0.09790129959583282
151 186 0.946675181388855
151 187 0.9581896662712097
151 188 0.48441123962402344
151 189 0.9096025228500366
151 190 0.9552243947982788
151 191 0.9562820196151733
151 192 0.10319703072309494
151 193 0.9560930132865906
151 194 0.0949782133102417
151 195 0.9468720555305481
151 196 0.9468720555305481
151 197 0.07871560752391815
151 198 0.2631320059299469
151 199 0.9414154887199402
151 200 0.8983140587806702
151 201 0.9469262361526489
151 202 0.9451837539672852
151 204 0.07385052740573883
151 205 0.9209937453269958
151 206 0.925347626209259
151 208 0.9556632041931152
151 209 0.9500318169593811
151 210 0.9012603163719177
151 211 0.5860334038734436
151 212 0.4039140045642853
151 213 0.16789935529232025
151 214 0.9474319219589233
151 215 0.19783170521259308
151 216 0.9554160833358765
151 217 0.9474276304244995
151 218 0.9264926910400391
151 219 0.9538088440895081
151 220 0.9524566531181335
151 221 0.8814008235931396
151 222 0.9546814560890198
151 223 0.9518995881080627
151 224 0.2633582651615143
151 225 0.9648259878158569
151 226 0.1305350661277771
151 227 0.9309213161468506
151 228 0.921186625957489
151 229 0.9533140063285828
151 230 0.11324277520179749
151 231 0.5850452780723572
151 232 0.6862995028495789
151 233 0.11978719383478165
151 234 0.9496684074401855
151 235 0.8377222418785095
151 236 0.9589882493019104
151 237 0.9439343810081482
151 238 0.9530133008956909
151 239 0.9373028874397278
151 240 0.9556000828742981
151 241 0.9440004825592041
151 242 0.07223791629076004
151 243 0.9539963006973267
151 244 0.9290757179260254
151 245 0.925320029258728
151 246 0.9335669875144958
151 247 0.9515807628631592
151 248 0.9412546753883362
151 249 0.9376665949821472
151 250 0.9463117718696594
151 251 0.08076445013284683
151 252 0.9513419270515442
151 253 0.0928773283958435
151 254 0.9440675377845764
151 255 0.8331140279769897
152 153 0.16607289016246796
152 154 0.22567442059516907
152 155 0.9582344889640808
152 156 0.1328735053539276
152 157 0.9505453109741211
152 158 0.09813358634710312
152 159 0.9647173285484314
152 160 0.43066686391830444
152 161 0.11765120923519135
152 162 0.9477636814117432
152 163 0.3423386812210083
152 164 0.9436817765235901
152 165 0.9389305710792542
152 166 0.9573047161102295
152 167 0.9309018850326538
152 168 0.9538725018501282
152 169 0.9469783306121826
152 170 0.1349453628063202
152 171 0.9381265044212341
152 172 0.90035080909729
152 173 0.9546031951904297
152 174 0.9150856137275696
152 175 0.9637861847877502
152 176 0.9571883082389832
152 177 0.957465410232544
152 179 0.9371805191040039
152 180 0.9528231620788574
152 181 0.9501083493232727
152 182 0.3523481488227844
152 183 0.9571883082389832
152 184 0.9590170979499817
152 185 0.09764168411493301
152 186 0.947326123714447
152 187 0.9577398896217346
152 188 0.47468775510787964
152 189 0.9137327075004578
152 190 0.939932107925415
152 191 0.960000216960907
152 192 0.10292337089776993
152 193 0.9577398896217346
152 194 0.1026202067732811
152 195 0.9559160470962524
152 196 0.9569665789604187
152 197 0.09813358634710312
152 198 0.254481703042984
152 199 0.9378459453582764
152 200 0.9069791436195374
152 201 0.9444151520729065
152 202 0.941615641117096
152 204 0.186969593167305
152 205 0.9207358956336975
152 206 0.9379001259803772
152 208 0.9583486318588257
152 209 0.9527647495269775
152 210 0.9120890498161316
152 211 0.5844793319702148
152 212 0.47071313858032227
152 213 0.1786177158355713
152 214 0.9522689580917358
152 215 0.20200487971305847
152 216 0.9539307951927185
152 217 0.945974588394165
152 218 0.9379552602767944
152 219 0.9523283839225769
152 220 0.9562010765075684
152 221 0.8733701109886169
152 222 0.9594499468803406
152 223 0.9577398896217346
152 224 0.26265987753868103
152 225 0.9538725018501282
152 226 0.13018891215324402
152 227 0.9316579103469849
152 228 0.9241355061531067
152 229 0.9549790620803833
152 230 0.12622983753681183
152 231 0.6094990968704224
152 232 0.6859236359596252
152 233 0.1194695308804512
152 234 0.9523887038230896
152 235 0.8198726177215576
152 236 0.9595674872398376
152 237 0.9519853591918945
152 238 0.9557085037231445
152 239 0.9443562030792236
152 240 0.9582911729812622
152 241 0.9562574028968811
152 242 0.10292337089776993
152 243 0.9546031951904297
152 244 0.9319743514060974
152 245 0.927193820476532
152 246 0.9342982769012451
152 247 0.9511592984199524
152 248 0.9514302611351013
152 249 0.9383681416511536
152 250 0.9490573406219482
152 251 0.08055028319358826
152 252 0.9530407786369324
152 253 0.10292337089776993
152 254 0.948936402797699
152 255 0.8297075033187866
153 154 0.052414245903491974
153 155 0.15792709589004517
153 156 0.07715167850255966
153 157 0.1711394190788269
153 158 0.05698028579354286
153 159 0.16937686502933502
153 160 0.22351950407028198
153 162 0.15933239459991455
153 163 0.13363061845302582
153 164 0.17277368903160095
153 165 0.16034725308418274
153 166 0.15154018998146057
153 167 0.1432250589132309
153 168 0.16451185941696167
153 169 0.15393434464931488
153 170 0.0824786126613617
153 171 0.15492428839206696
153 172 0.14753293991088867
153 173 0.15784558653831482
153 174 0.11975530534982681
153 175 0.16903086006641388
153 176 0.17007532715797424
153 177 0.1708715260028839
153 179 0.15459218621253967
153 180 0.1279536783695221
153 181 0.1708715260028839
153 182 0.18446408212184906
153 183 0.17007532715797424
153 184 0.16929017007350922
153 185 0.3149704039096832
153 186 0.09789641201496124
153 187 0.16391657292842865
153 188 0.1347488909959793
153 189 0.17094087600708008
153 190 0.16051828861236572
153 191 0.16946369409561157
153 193 0.14570361375808716
153 195 0.17078250646591187
153 196 0.16468313336372375
153 199 0.1744556725025177
153 200 0.14111845195293427
153 201 0.17213259637355804
153 202 0.16642585396766663
153 204 0.0657951682806015
153 205 0.15220387279987335
153 206 0.15559495985507965
153 208 0.16366340219974518
153 209 0.17078250646591187
153 210 0.11512944102287292
153 211 0.1722186952829361
153 212 0.07627391815185547
153 213 0.12964074313640594
153 214 0.16459743678569794
153 215 0.08183170109987259
153 216 0.16434112191200256
153 217 0.17222373187541962
153 218 0.16786059737205505
153 219 0.17051629722118378
153 220 0.16383205354213715
153 221 0.06611651927232742
153 222 0.16955067217350006
153 223 0.151774600148201
153 224 0.11214032769203186
153 225 0.16451185941696167
153 227 0.15509113669395447
153 228 0.15653151273727417
153 229 0.16434112191200256
153 231 0.11324786394834518
153 232 0.20961827039718628
153 234 0.15208883583545685
153 235 0.1396043598651886
153 236 0.1510746330022812
153 237 0.1470760554075241
153 238 0.1698123961687088
153 239 0.12308217585086823
153 240 0.16989991068840027
153 241 0.15304337441921234
153 243 0.16391657292842865
153 244 0.17436093091964722
153 245 0.14448559284210205
153 246 0.16138175129890442
153 247 0.1708715260028839
153 248 0.16554762423038483
153 249 0.14809173345565796
153 250 0.14646130800247192
153 252 0.171588733792305
153 254 0.1651136875152588
154 155 0.17383021116256714
154 156 0.14153464138507843
154 157 0.21976850926876068
154 158 0.2926847040653229
154 159 0.23082175850868225
154 160 0.12301385402679443
154 162 0.2158486396074295
154 164 0.22639504075050354
154 165 0.21269798278808594
154 166 0.22240020334720612
154 167 0.22847490012645721
154 168 0.2235531359910965
154 169 0.19880421459674835
154 170 0.1513068974018097
154 171 0.21827201545238495
154 172 0.1647428274154663
154 173 0.1737404763698578
154 174 0.17112764716148376
154 175 0.2126309722661972
154 176 0.1961161494255066
154 177 0.22838059067726135
154 179 0.1406651735305786
154 180 0.2280242145061493
154 181 0.23285864293575287
154 182 0.30763551592826843
154 183 0.22731643915176392
154 184 0.22183038294315338
154 186 0.17061129212379456
154 187 0.20937956869602203
154 188 0.06292278319597244
154 189 0.21370629966259003
154 190 0.12684886157512665
154 191 0.20873433351516724
154 193 0.2182893306016922
154 195 0.23273733258247375
154 196 0.23273733258247375
154 197 0.0836242064833641
154 199 0.2194550782442093
154 200 0.20710527896881104
154 201 0.20299948751926422
154 202 0.18996942043304443
154 204 0.38624364137649536
154 205 0.1954524666070938
154 206 0.23291799426078796
154 208 0.16902415454387665
154 209 0.2237858921289444
154 210 0.23936541378498077
154 211 0.23044665157794952
154 212 0.25186392664909363
154 213 0.3329560458660126
154 214 0.20130249857902527
154 215 0.0800640806555748
154 216 0.2233211249113083
154 217 0.19859349727630615
154 218 0.2326657921075821
154 219 0.18768712878227234
154 220 0.23153455555438995
154 221 0.15040040016174316
154 222 0.23105861246585846
154 223 0.23165397346019745
154 224 0.29623863101005554
154 225 0.17884252965450287
154 227 0.18208926916122437
154 228 0.23431997001171112
154 229 0.23225396871566772
154 230 0.1132277101278305
154 231 0.22852833569049835
154 232 0.1661231815814972
154 234 0.22320538759231567
154 235 0.19463902711868286
154 236 0.21728262305259705
154 237 0.22933918237686157
154 238 0.22251470386981964
154 239 0.22127816081047058
154 240 0.23153455555438995
154 241 0.2290983945131302
154 242 0.3069702982902527
154 243 0.23165397346019745
154 244 0.21476641297340393
154 245 0.20282745361328125
154 246 0.2049608677625656
154 247 0.21942448616027832
154 248 0.21146300435066223
154 249 0.21281135082244873
154 250 0.17912204563617706
154 251 0.14708709716796875
154 252 0.22484232485294342
154 253 0.08770579844713211
154 254 0.22885838150978088
154 255 0.16834105551242828
155 156 0.10497277975082397
155 157 0.9615572094917297
155 158 0.07752753794193268
155 159 0.9712016582489014
155 160 0.43242236971855164
155 161 0.12448239326477051
155 162 0.9609548449516296
155 163 0.36079543828964233
155 164 0.9528987407684326
155 165 0.9555378556251526
155 166 0.9701051115989685
155 167 0.9436483979225159
155 168 0.9647715091705322
155 169 0.9634400606155396
155 170 0.14728955924510956
155 171 0.9527726173400879
155 172 0.9251205325126648
155 173 0.9705731868743896
155 174 0.9315415620803833
155 175 0.9764045476913452
155 176 0.969008207321167
155 177 0.9631656408309937
155 179 0.959143877029419
155 180 0.9637352228164673
155 181 0.9621278047561646
155 182 0.30802375078201294
155 183 0.9679751992225647
155 184 0.9717327356338501
155 185 0.08570990711450577
155 186 0.9698488116264343
155 187 0.9674755930900574
155 188 0.4937671422958374
155 189 0.9303303956985474
155 190 0.9544571042060852
155 191 0.9789049625396729
155 192 0.09147550910711288
155 193 0.9705731868743896
155 194 0.1325216293334961
155 195 0.9626638889312744
155 196 0.9626638889312744
155 197 0.10660036653280258
155 198 0.2513071894645691
155 199 0.94204181432724
155 200 0.9229385852813721
155 201 0.9566817879676819
155 202 0.9539811611175537
155 204 0.18463723361492157
155 205 0.9286648631095886
155 206 0.9441949725151062
155 208 0.9783526062965393
155 209 0.9637011885643005
155 210 0.9170283675193787
155 211 0.559958815574646
155 212 0.4670032560825348
155 213 0.14331649243831635
155 214 0.9673469662666321
155 215 0.21340252459049225
155 216 0.9658405184745789
155 217 0.9603266716003418
155 218 0.9452873468399048
155 219 0.9684134125709534
155 220 0.9680087566375732
155 221 0.8973341584205627
155 222 0.9701384902000427
155 223 0.9695407152175903
155 224 0.20979534089565277
155 225 0.9678803086280823
155 226 0.12856486439704895
155 227 0.9516885876655579
155 228 0.9360348582267761
155 229 0.9648053646087646
155 230 0.14433757960796356
155 231 0.6243667602539062
155 232 0.7130179405212402
155 233 0.14010031521320343
155 234 0.9684440493583679
155 235 0.8333883881568909
155 236 0.9763746857643127
155 237 0.9599125981330872
155 238 0.96854168176651
155 239 0.9556024670600891
155 240 0.9690408110618591
155 241 0.9609870910644531
155 242 0.08131156116724014
155 243 0.9674755930900574
155 244 0.951062023639679
155 245 0.9369957447052002
155 246 0.9469234943389893
155 247 0.9642035365104675
155 248 0.9604177474975586
155 249 0.9549975991249084
155 250 0.9662793874740601
155 251 0.07954545319080353
155 252 0.9588702917098999
155 253 0.10163945704698563
155 254 0.9620605111122131
155 255 0.8453686237335205
156 157 0.1452406346797943
156 158 0.06154574826359749
156 159 0.1437448114156723
156 161 0.15811389684677124
156 162 0.13900277018547058
156 163 0.07216878980398178
156 164 0.1532924622297287
156 165 0.1598721444606781
156 166 0.13749298453330994
156 167 0.13452239334583282
156 168 0.15794943273067474
156 169 0.09311013668775558
156 170 0.13363061845302582
156 171 0.14056338369846344
156 172 0.10392638295888901
156 173 0.13770566880702972
156 174 0.12254258990287781
156 175 0.1369306445121765
156 176 0.15745915472507477
156 177 0.1516047865152359
156 178 0.14433757960796356
156 179 0.14026206731796265
156 180 0.15136821568012238
156 181 0.15819628536701202
156 182 0.30792251229286194
156 183 0.15089836716651917
156 184 0.1567322313785553
156 185 0.13608276844024658
156 186 0.1255665123462677
156 187 0.15082049369812012
156 188 0.0661570206284523
156 189 0.16412198543548584
156 190 0.09335823357105255
156 191 0.14381851255893707
156 193 0.11803342401981354
156 195 0.1515258252620697
156 196 0.15811389684677124
156 198 0.14962640404701233
156 199 0.15478479862213135
156 200 0.1454969346523285
156 201 0.15272367000579834
156 202 0.15312929451465607
156 204 0.07106690853834152
156 205 0.1232992485165596
156 206 0.1411718875169754
156 208 0.13749298453330994
156 209 0.15811389684677124
156 210 0.12435400485992432
156 211 0.15319085121154785
156 212 0.05492350459098816
156 213 0.24504901468753815
156 214 0.14486229419708252
156 215 0.1473139077425003
156 216 0.13806232810020447
156 217 0.1328735053539276
156 218 0.15444941818714142
156 219 0.15128961205482483
156 220 0.14418870210647583
156 221 0.13568660616874695
156 222 0.15043286979198456
156 223 0.09836118668317795
156 224 0.2907009422779083
156 225 0.15136821568012238
156 227 0.1541161835193634
156 228 0.1487845629453659
156 229 0.15778550505638123
156 231 0.17328906059265137
156 232 0.1449047029018402
156 234 0.1379907727241516
156 235 0.11309245228767395
156 236 0.13054341077804565
156 237 0.1191452294588089
156 238 0.15721572935581207
156 239 0.11300234496593475
156 240 0.13763466477394104
156 241 0.13885682821273804
156 242 0.12909944355487823
156 243 0.15737789869308472
156 244 0.13452239334583282
156 245 0.0882091075181961
156 246 0.16090358793735504
156 247 0.14501327276229858
156 248 0.15894387662410736
156 249 0.15995734930038452
156 250 0.12523873150348663
156 251 0.14433757960796356
156 252 0.15886029601097107
156 254 0.14531666040420532
156 255 0.1051235944032669
157 158 0.10726731270551682
157 159 0.967960774898529
157 160 0.39926567673683167
157 161 0.11691047996282578
157 162 0.9512355923652649
157 163 0.33160728216171265
157 164 0.9546366333961487
157 165 0.9446290731430054
157 166 0.9647635221481323
157 167 0.9431580901145935
157 168 0.961422860622406
157 169 0.9589301943778992
157 170 0.13409575819969177
157 171 0.9407044053077698
157 172 0.9089532494544983
157 173 0.9631388187408447
157 174 0.9287404417991638
157 175 0.9690827131271362
157 176 0.9615572094917297
157 177 0.9608367085456848
157 179 0.9450376629829407
157 180 0.9593372941017151
157 181 0.9618811011314392
157 182 0.338650107383728
157 183 0.9625967144966125
157 184 0.9674652814865112
157 185 0.09702693670988083
157 186 0.9528800845146179
157 187 0.9620998501777649
157 188 0.46331343054771423
157 189 0.9198984503746033
157 190 0.9519761204719543
157 191 0.9653497338294983
157 192 0.10227537155151367
157 193 0.9631388187408447
157 194 0.10981827974319458
157 195 0.9676430225372314
157 196 0.9592922329902649
157 197 0.10726731270551682
157 198 0.22917206585407257
157 199 0.9362065196037292
157 200 0.9045621752738953
157 201 0.9521463513374329
157 202 0.9652242064476013
157 204 0.15201199054718018
157 205 0.9181949496269226
157 206 0.9362557530403137
157 208 0.9626887440681458
157 209 0.9624238014221191
157 210 0.9194819927215576
157 211 0.591201901435852
157 212 0.4481693506240845
157 213 0.16085314750671387
157 214 0.9577497839927673
157 215 0.18672843277454376
157 216 0.9635500907897949
157 217 0.9547559022903442
157 218 0.9448177814483643
157 219 0.9588391184806824
157 220 0.9616038203239441
157 221 0.8814496397972107
157 222 0.9637725353240967
157 223 0.9662558436393738
157 224 0.2686828374862671
157 225 0.9582945704460144
157 226 0.11319809406995773
157 227 0.9385325908660889
157 228 0.9365334510803223
157 229 0.958341658115387
157 230 0.13863877952098846
157 231 0.6088919639587402
157 232 0.6902148723602295
157 233 0.1335570365190506
157 234 0.9599272608757019
157 235 0.8517430424690247
157 236 0.9680047035217285
157 237 0.9585769772529602
157 238 0.9621464014053345
157 239 0.9489427208900452
157 240 0.9647191166877747
157 241 0.9586182236671448
157 242 0.09204783290624619
157 243 0.9631388187408447
157 244 0.9420924186706543
157 245 0.9278067946434021
157 246 0.9379763603210449
157 247 0.9597923159599304
157 248 0.9569827318191528
157 249 0.9440764784812927
157 250 0.956659197807312
157 251 0.08004313707351685
157 252 0.9512355923652649
157 253 0.09204783290624619
157 254 0.9534277319908142
157 255 0.8458988666534424
158 159 0.10616257041692734
158 162 0.08799457550048828
158 163 0.053300175815820694
158 164 0.09844695031642914
158 165 0.08855506032705307
158 166 0.10638079792261124
158 167 0.10928650945425034
158 168 0.10693227499723434
158 169 0.08841393142938614
158 171 0.1087564080953598
158 172 0.08187169581651688
158 173 0.0968594029545784
158 174 0.0804477259516716
158 175 0.09631426632404327
158 176 0.07752753794193268
158 177 0.10709939897060394
158 179 0.08879177272319794
158 180 0.10693227499723434
158 181 0.10709939897060394
158 182 0.1337740272283554
158 183 0.08721847832202911
158 184 0.10610823333263397
158 186 0.08785611391067505
158 187 0.0678015798330307
158 189 0.10101009905338287
158 190 0.07879956811666489
158 191 0.07724872976541519
158 193 0.1065453439950943
158 195 0.10704360902309418
158 196 0.10704360902309418
158 199 0.09940534830093384
158 200 0.09210565686225891
158 201 0.09808164834976196
158 202 0.10817637294530869
158 204 0.05248638987541199
158 205 0.08094446361064911
158 206 0.10922722518444061
158 209 0.10704360902309418
158 210 0.11225074529647827
158 211 0.12930163741111755
158 212 0.06084554269909859
158 213 0.05170876905322075
158 214 0.0875355526804924
158 216 0.09711026400327682
158 217 0.09813358634710312
158 218 0.10910895466804504
158 219 0.10687673836946487
158 220 0.10649040341377258
158 221 0.07383982837200165
158 222 0.10627152025699615
158 223 0.1065453439950943
158 224 0.25047969818115234
158 225 0.08749004453420639
158 227 0.09897594898939133
158 228 0.09989515691995621
158 229 0.10682129114866257
158 230 0.18463723361492157
158 231 0.09034054726362228
158 232 0.053509607911109924
158 234 0.06794194877147675
158 235 0.11136576533317566
158 236 0.10605397075414658
158 237 0.10754892975091934
158 238 0.10643555223941803
158 239 0.09818560630083084
158 240 0.10649040341377258
158 241 0.10743601620197296
158 242 0.19069251418113708
158 243 0.1065453439950943
158 244 0.06954595446586609
158 245 0.1002257689833641
158 246 0.08912638574838638
158 247 0.10709939897060394
158 248 0.09782319515943527
158 249 0.08860225230455399
158 250 0.10709939897060394
158 251 0.10660035163164139
158 252 0.10754892975091934
158 254 0.09756678342819214
158 255 0.09982146322727203
159 160 0.4330126941204071
159 161 0.12397117912769318
159 162 0.9642741680145264
159 163 0.3197043538093567
159 164 0.9594367742538452
159 165 0.9557919502258301
159 166 0.9733080267906189
159 167 0.9524298906326294
159 168 0.9690655469894409
159 169 0.9594833850860596
159 170 0.13969969749450684
159 171 0.9520086646080017
159 172 0.9169753789901733
159 173 0.9717286229133606
159 174 0.935188889503479
159 175 0.9775071144104004
159 176 0.9712016582489014
159 177 0.9674791693687439
159 179 0.9531100392341614
159 180 0.970097541809082
159 181 0.9685128331184387
159 182 0.3522045314311981
159 183 0.9722304344177246
159 184 0.975934624671936
159 185 0.0960276648402214
159 186 0.963793158531189
159 187 0.9727569222450256
159 188 0.4647662937641144
159 189 0.9318714737892151
159 190 0.9547200798988342
159 191 0.9759098887443542
159 192 0.10122203826904297
159 193 0.9727569222450256
159 194 0.11645064502954483
159 195 0.968008279800415
159 196 0.966975212097168
159 197 0.09651143103837967
159 198 0.2307223677635193
159 199 0.9508367776870728
159 200 0.9169753789901733
159 201 0.9621241688728333
159 202 0.9584155082702637
159 204 0.18387895822525024
159 205 0.9334441423416138
159 206 0.9508591294288635
159 208 0.9733080267906189
159 209 0.966975212097168
159 210 0.9295125007629395
159 211 0.5919766426086426
159 212 0.46723854541778564
159 213 0.18115466833114624
159 214 0.9675045013427734
159 215 0.21714624762535095
159 216 0.9701216220855713
159 217 0.9595082998275757
159 218 0.9593067169189453
159 219 0.9685623049736023
159 220 0.9753386378288269
159 221 0.8880496621131897
159 222 0.9764107465744019
159 223 0.977898359298706
159 224 0.26971447467803955
159 225 0.968033492565155
159 226 0.11203227192163467
159 227 0.9498817324638367
159 228 0.9417353272438049
159 229 0.9721835255622864
159 230 0.15681250393390656
159 231 0.6154086589813232
159 232 0.6973081231117249
159 233 0.13952495157718658
159 234 0.9696188569068909
159 235 0.8441532850265503
159 236 0.9764590859413147
159 237 0.9684260487556458
159 238 0.972781777381897
159 239 0.9589744806289673
159 240 0.976366400718689
159 241 0.9663724303245544
159 242 0.10122203826904297
159 243 0.9717286229133606
159 244 0.9503203630447388
159 245 0.9395318031311035
159 246 0.9493426084518433
159 247 0.9716137051582336
159 248 0.9616660475730896
159 249 0.9563013315200806
159 250 0.9664455652236938
159 251 0.0792187750339508
159 252 0.9621982574462891
159 253 0.10122203826904297
159 254 0.9643242359161377
159 255 0.843074381351471
160 162 0.42188772559165955
160 163 0.21561719477176666
160 164 0.43204209208488464
160 165 0.43181195855140686
160 166 0.3983369469642639
160 167 0.4384470283985138
160 168 0.42423537373542786
160 169 0.42148980498313904
160 170 0.09678677469491959
160 171 0.43389633297920227
160 172 0.4089801013469696
160 173 0.4250749945640564
160 174 0.37228158116340637
160 175 0.41559863090515137
160 176 0.4205426275730133
160 177 0.38670530915260315
160 178 0.052270837128162384
160 179 0.41603460907936096
160 180 0.4004019498825073
160 181 0.4105760157108307
160 182 0.1443096250295639
160 183 0.40628692507743835
160 184 0.40441128611564636
160 186 0.4020772874355316
160 187 0.40132781863212585
160 188 0.24437464773654938
160 189 0.41109639406204224
160 190 0.3791441321372986
160 191 0.4190302789211273
160 193 0.4132014214992523
160 194 0.07171499729156494
160 195 0.4199054539203644
160 196 0.4055904746055603
160 198 0.0632171779870987
160 199 0.40456530451774597
160 200 0.4089801013469696
160 201 0.43524834513664246
160 202 0.3978272080421448
160 204 0.20589104294776917
160 205 0.38698360323905945
160 206 0.41873323917388916
160 208 0.42916062474250793
160 209 0.4103621244430542
160 210 0.3602714538574219
160 211 0.17435623705387115
160 212 0.31327003240585327
160 213 0.11409785598516464
160 214 0.42445605993270874
160 215 0.14937636256217957
160 216 0.42141422629356384
160 217 0.40420132875442505
160 218 0.4085523784160614
160 219 0.3978119194507599
160 220 0.420108824968338
160 221 0.318103551864624
160 222 0.41687673330307007
160 223 0.4345739185810089
160 224 0.08772942423820496
160 225 0.40755197405815125
160 226 0.1108831837773323
160 227 0.41980400681495667
160 228 0.3747198283672333
160 229 0.38093945384025574
160 230 0.15089291334152222
160 231 0.3543834984302521
160 232 0.37061333656311035
160 234 0.4116773009300232
160 235 0.2866894602775574
160 236 0.4278421998023987
160 237 0.41469642519950867
160 238 0.39379745721817017
160 239 0.39478662610054016
160 240 0.420108824968338
160 241 0.40228819847106934
160 243 0.4250749945640564
160 244 0.42139631509780884
160 245 0.4079042673110962
160 246 0.3981790542602539
160 247 0.43683379888534546
160 248 0.39572781324386597
160 249 0.41273292899131775
160 250 0.42251136898994446
160 252 0.42428478598594666
160 253 0.1402573585510254
160 254 0.4066508412361145
160 255 0.2229800969362259
161 162 0.12559008598327637
161 164 0.10116590559482574
161 165 0.12639003992080688
161 166 0.1159442588686943
161 167 0.11060325056314468
161 168 0.12486998736858368
161 169 0.10936346650123596
161 170 0.05634361505508423
161 171 0.1270001232624054
161 172 0.1314576268196106
161 173 0.12441814690828323
161 174 0.12055981159210205
161 175 0.12371791899204254
161 176 0.12448239326477051
161 177 0.1250651478767395
161 179 0.126727893948555
161 180 0.11654532700777054
161 181 0.11672747135162354
161 183 0.12448239326477051
161 184 0.12390770763158798
161 186 0.12539246678352356
161 187 0.12441814690828323
161 188 0.08368274569511414
161 189 0.1297498196363449
161 190 0.08434990048408508
161 191 0.12403474003076553
161 193 0.12441814690828323
161 195 0.11666666716337204
161 196 0.125
161 198 0.06308802962303162
161 199 0.11917591840028763
161 200 0.12269377708435059
161 201 0.1259881556034088
161 202 0.1179012656211853
161 205 0.1213042214512825
161 206 0.1275499016046524
161 208 0.12422599643468857
161 209 0.125
161 210 0.09612579643726349
161 211 0.06920456886291504
161 212 0.06947334855794907
161 213 0.08856149017810822
161 214 0.12493494898080826
161 215 0.14907120168209076
161 216 0.09147629141807556
161 217 0.12605486810207367
161 218 0.12741179764270782
161 219 0.12480514496564865
161 220 0.12435399740934372
161 221 0.11743206530809402
161 222 0.12409839779138565
161 223 0.09123997390270233
161 225 0.12486998736858368
161 227 0.12713691592216492
161 228 0.11976315081119537
161 229 0.12474039196968079
161 231 0.154726043343544
161 232 0.16038011014461517
161 234 0.12467575073242188
161 235 0.12397831678390503
161 236 0.12384434789419174
161 237 0.10884474217891693
161 238 0.12428995221853256
161 239 0.12612168490886688
161 240 0.12435399740934372
161 241 0.10873046517372131
161 243 0.12441814690828323
161 244 0.11060325056314468
161 245 0.051496926695108414
161 246 0.12720546126365662
161 247 0.1250651478767395
161 248 0.12565617263317108
161 249 0.11802689731121063
161 250 0.1250651478767395
161 252 0.12559008598327637
161 254 0.11697167903184891
161 255 0.10447800159454346
162 163 0.34107643365859985
162 164 0.9412610530853271
162 165 0.9481672644615173
162 166 0.9620958566665649
162 167 0.9349491000175476
162 168 0.9545374512672424
162 169 0.947712779045105
162 170 0.13444779813289642
162 171 0.945300817489624
162 172 0.9091382622718811
162 173 0.9604588747024536
162 174 0.9279341697692871
162 175 0.9643759727478027
162 176 0.9609548449516296
162 177 0.9539351463317871
162 179 0.9507018327713013
162 180 0.9608104228973389
162 181 0.9581235647201538
162 182 0.3452940881252289
162 183 0.9609548449516296
162 184 0.9627431631088257
162 185 0.08647259324789047
162 186 0.9553817510604858
162 187 0.9625422954559326
162 188 0.46873363852500916
162 189 0.9201408624649048
162 190 0.9438818693161011
162 191 0.9616531133651733
162 192 0.06152632459998131
162 193 0.9594172239303589
162 194 0.1258361041545868
162 195 0.9534381031990051
162 196 0.9534381031990051
162 197 0.10754892975091934
162 198 0.22977371513843536
162 199 0.9343879818916321
162 200 0.9036350250244141
162 201 0.952536404132843
162 202 0.9455474615097046
162 204 0.1749904900789261
162 205 0.9282228946685791
162 206 0.9333739876747131
162 208 0.9631359577178955
162 209 0.9586710333824158
162 210 0.9087260365486145
162 211 0.5597266554832458
162 212 0.46679627895355225
162 213 0.1501529961824417
162 214 0.9602641463279724
162 215 0.2246623933315277
162 216 0.9598132371902466
162 217 0.9445974230766296
162 218 0.940897524356842
162 219 0.956131637096405
162 220 0.9610048532485962
162 221 0.8837637901306152
162 222 0.9621466398239136
162 223 0.9615005850791931
162 224 0.2347525954246521
162 225 0.957673966884613
162 226 0.12160208821296692
162 227 0.9431254863739014
162 228 0.9314717054367065
162 229 0.9587688446044922
162 230 0.14562195539474487
162 231 0.6266838908195496
162 232 0.6805170774459839
162 233 0.13390766084194183
162 234 0.9582719802856445
162 235 0.8288269639015198
162 236 0.9643247127532959
162 237 0.9526813626289368
162 238 0.9615505337715149
162 239 0.9493221044540405
162 240 0.9589225649833679
162 241 0.9495803117752075
162 242 0.09228949248790741
162 243 0.9583754539489746
162 244 0.9338805675506592
162 245 0.9367101788520813
162 246 0.9415039420127869
162 247 0.9570764899253845
162 248 0.9500264525413513
162 249 0.9497312903404236
162 250 0.9581235647201538
162 251 0.08025328069925308
162 252 0.9505783319473267
162 253 0.09228949248790741
162 254 0.9527828097343445
162 255 0.842155396938324
163 164 0.3203440010547638
163 165 0.36344000697135925
163 166 0.3572172224521637
163 167 0.3261994421482086
163 168 0.3533695638179779
163 169 0.3484615981578827
163 171 0.35649925470352173
163 172 0.3630116283893585
163 173 0.3634486794471741
163 174 0.33311453461647034
163 175 0.3614031970500946
163 176 0.36079543828964233
163 177 0.32537978887557983
163 178 0.0625
163 179 0.35862722992897034
163 180 0.3334212899208069
163 181 0.3453592360019684
163 182 0.10980476438999176
163 183 0.35227271914482117
163 184 0.3534741997718811
163 185 0.0589255653321743
163 186 0.3605714738368988
163 187 0.3549303412437439
163 188 0.37240877747535706
163 189 0.3375678062438965
163 190 0.35805264115333557
163 191 0.35949796438217163
163 192 0.16770507395267487
163 193 0.3634486794471741
163 195 0.353737473487854
163 196 0.34517931938171387
163 198 0.20516875386238098
163 199 0.3496893048286438
163 200 0.36601173877716064
163 201 0.33928221464157104
163 202 0.3430662751197815
163 205 0.3203408122062683
163 206 0.3493098318576813
163 208 0.35154712200164795
163 209 0.353737473487854
163 210 0.21239595115184784
163 211 0.22742940485477448
163 213 0.12126781791448593
163 214 0.3307434618473053
163 215 0.05103103443980217
163 216 0.3586964011192322
163 217 0.36822986602783203
163 218 0.2849608063697815
163 219 0.3588826060295105
163 220 0.32069161534309387
163 221 0.3494318127632141
163 222 0.342689573764801
163 223 0.3322148025035858
163 224 0.1153874397277832
163 225 0.3647685945034027
163 226 0.2651650309562683
163 227 0.3713906705379486
163 228 0.3162711560726166
163 229 0.35584962368011475
163 231 0.3001454174518585
163 232 0.3294143080711365
163 233 0.06083302944898605
163 234 0.3129853904247284
163 235 0.29708752036094666
163 236 0.3561198115348816
163 237 0.3181469440460205
163 238 0.3460550904273987
163 239 0.2878320515155792
163 240 0.35474732518196106
163 241 0.3321288228034973
163 243 0.3464120328426361
163 244 0.3174619674682617
163 245 0.3525753617286682
163 246 0.35417264699935913
163 247 0.3539218604564667
163 248 0.34412360191345215
163 249 0.3405458629131317
163 250 0.3653387129306793
163 252 0.3640059530735016
163 254 0.35180211067199707
163 255 0.34790176153182983
164 165 0.9355355501174927
164 166 0.9551252126693726
164 167 0.9360262751579285
164 168 0.9537603259086609
164 169 0.9383000135421753
164 170 0.14962640404701233
164 171 0.9304153323173523
164 172 0.8943597674369812
164 173 0.9534558653831482
164 174 0.9147407412528992
164 175 0.9595627188682556
164 176 0.9539481997489929
164 177 0.9489247798919678
164 179 0.9337628483772278
164 180 0.9495494961738586
164 181 0.946816086769104
164 182 0.3389866352081299
164 183 0.950799822807312
164 184 0.9579010605812073
164 185 0.09795347601175308
164 186 0.9440084099769592
164 187 0.9513580799102783
164 188 0.4359908103942871
164 189 0.9068057537078857
164 190 0.9365334510803223
164 191 0.9578373432159424
164 192 0.10325203090906143
164 193 0.9534558653831482
164 194 0.1187860369682312
164 195 0.9505380988121033
164 196 0.9505380988121033
164 197 0.10829164832830429
164 198 0.25928330421447754
164 199 0.9300759434700012
164 200 0.8943597674369812
164 201 0.9431823492050171
164 202 0.9392976760864258
164 204 0.18188278377056122
164 205 0.9116232395172119
164 206 0.9312173128128052
164 208 0.9540778994560242
164 209 0.9473766088485718
164 210 0.9150015115737915
164 211 0.5705931186676025
164 212 0.45684170722961426
164 213 0.1903873234987259
164 214 0.9489901065826416
164 215 0.21207548677921295
164 216 0.9506672024726868
164 217 0.9383681416511536
164 218 0.9366537928581238
164 219 0.9501084685325623
164 220 0.952964186668396
164 221 0.8693050742149353
164 222 0.9551902413368225
164 223 0.9566025733947754
164 224 0.27124857902526855
164 225 0.9484966993331909
164 226 0.1224418431520462
164 227 0.9292738437652588
164 228 0.9324953556060791
164 229 0.9496155977249146
164 230 0.13996268808841705
164 231 0.6000317335128784
164 232 0.6953572034835815
164 233 0.10486964881420135
164 234 0.9491233825683594
164 235 0.8333446383476257
164 236 0.9574111700057983
164 237 0.946554958820343
164 238 0.9535212516784668
164 239 0.9378023743629456
164 240 0.952964186668396
164 241 0.9445035457611084
164 242 0.10325203090906143
164 243 0.9545047283172607
164 244 0.9327985644340515
164 245 0.92255699634552
164 246 0.9276300668716431
164 247 0.946816086769104
164 248 0.9406970143318176
164 249 0.9349680542945862
164 250 0.9457616806030273
164 251 0.09235142171382904
164 252 0.9444373846054077
164 253 0.10325203090906143
164 254 0.9445706009864807
164 255 0.8191449046134949
165 166 0.9556632041931152
165 167 0.9290757179260254
165 168 0.9522001147270203
165 169 0.9409900307655334
165 170 0.14954669773578644
165 171 0.9309899210929871
165 172 0.911605954170227
165 173 0.9529479146003723
165 174 0.925137460231781
165 175 0.9580091834068298
165 176 0.958684504032135
165 177 0.9463117718696594
165 179 0.9439435601234436
165 180 0.9511479735374451
165 181 0.9463117718696594
165 182 0.34459763765335083
165 183 0.9565867185592651
165 184 0.9573908448219299
165 185 0.09790129959583282
165 186 0.950901448726654
165 187 0.955044686794281
165 188 0.4717192053794861
165 189 0.9238150715827942
165 190 0.9349685311317444
165 191 0.9583722949028015
165 192 0.10319703072309494
165 193 0.9518995881080627
165 194 0.134552463889122
165 195 0.9468720555305481
165 196 0.9489784836769104
165 197 0.07871560752391815
165 198 0.25914520025253296
165 199 0.9242010116577148
165 200 0.9138213396072388
165 201 0.9416183233261108
165 202 0.9366685748100281
165 204 0.18746671080589294
165 205 0.9111377000808716
165 206 0.925347626209259
165 208 0.9588034152984619
165 209 0.9500318169593811
165 210 0.897946834564209
165 211 0.5440489649772644
165 212 0.4631839692592621
165 213 0.18468928337097168
165 214 0.9516426920890808
165 215 0.2260933518409729
165 216 0.9491097331047058
165 217 0.9410548210144043
165 218 0.9307870268821716
165 219 0.948550820350647
165 220 0.9535044431686401
165 221 0.8882511854171753
165 222 0.9588640928268433
165 223 0.9529479146003723
165 224 0.24399366974830627
165 225 0.9500958323478699
165 226 0.12237662076950073
165 227 0.9459189176559448
165 228 0.9330798387527466
165 229 0.9522628784179688
165 230 0.14654947817325592
165 231 0.629045844078064
165 232 0.7051220536231995
165 233 0.13476060330867767
165 234 0.9549209475517273
165 235 0.8232579231262207
165 236 0.9621188044548035
165 237 0.9428761601448059
165 238 0.9561551213264465
165 239 0.94261634349823
165 240 0.9524566531181335
165 241 0.9429433345794678
165 242 0.0928773283958435
165 243 0.9529479146003723
165 244 0.930151104927063
165 245 0.9177265167236328
165 246 0.9432134628295898
165 247 0.9494731426239014
165 248 0.9412546753883362
165 249 0.942994236946106
165 250 0.95579594373703
165 251 0.06922666728496552
165 252 0.9428761601448059
165 253 0.10319703072309494
165 254 0.9525155425071716
165 255 0.8271117210388184
166 167 0.9480461478233337
166 168 0.9689891338348389
166 169 0.9593654870986938
166 170 0.11198946088552475
166 171 0.9508101940155029
166 172 0.9221263527870178
166 173 0.9716652035713196
166 174 0.9413902163505554
166 175 0.9754180312156677
166 176 0.9690742492675781
166 177 0.9642890691757202
166 179 0.9508710503578186
166 180 0.9710574746131897
166 181 0.9642890691757202
166 182 0.33300507068634033
166 183 0.9701051115989685
166 184 0.9769144058227539
166 185 0.0748417004942894
166 186 0.9657742977142334
166 187 0.9716652035713196
166 188 0.47611719369888306
166 189 0.9273396134376526
166 190 0.9661131501197815
166 191 0.9727797508239746
166 192 0.10143010318279266
166 193 0.9726956486701965
166 194 0.1244693398475647
166 195 0.9658570885658264
166 196 0.9658570885658264
166 197 0.09670981019735336
166 198 0.25862669944763184
166 199 0.9517337083816528
166 200 0.917771577835083
166 201 0.9567981362342834
166 202 0.9551547169685364
166 204 0.1451721340417862
166 205 0.9353629350662231
166 206 0.9454192519187927
166 208 0.9711934328079224
166 209 0.9648219347000122
166 210 0.9216529726982117
166 211 0.5914740562438965
166 212 0.4509381949901581
166 213 0.17602622509002686
166 214 0.9663891196250916
166 215 0.2083333432674408
166 216 0.9731488227844238
166 217 0.9573047161102295
166 218 0.9475610852241516
166 219 0.9684858918190002
166 220 0.9721941351890564
166 221 0.899974524974823
166 222 0.972251296043396
166 223 0.9716652035713196
166 224 0.2588490843772888
166 225 0.9679549932479858
166 226 0.12830005586147308
166 227 0.9486754536628723
166 228 0.9511098861694336
166 229 0.9710826873779297
166 230 0.1440402716398239
166 231 0.6054614186286926
166 232 0.7001644968986511
166 233 0.13245323300361633
166 234 0.9674817323684692
166 235 0.8589203357696533
166 236 0.9743635654449463
166 237 0.9620958566665649
166 238 0.9737520217895508
166 239 0.9578121900558472
166 240 0.9721941351890564
166 241 0.9631637930870056
166 242 0.10143010318279266
166 243 0.9696044325828552
166 244 0.9469892382621765
166 245 0.9457278847694397
166 246 0.9470800161361694
166 247 0.9663605690002441
166 248 0.9605208039283752
166 249 0.9561724662780762
166 250 0.9653248190879822
166 251 0.09072183817625046
166 252 0.9610557556152344
166 253 0.09128709137439728
166 254 0.9652685523033142
166 255 0.8648656010627747
167 168 0.9423370361328125
167 169 0.9340367913246155
167 170 0.1078578531742096
167 171 0.9281578660011292
167 172 0.8947470784187317
167 173 0.9442198872566223
167 174 0.9099566340446472
167 175 0.9494316577911377
167 176 0.942589282989502
167 177 0.9374255537986755
167 179 0.9229337573051453
167 180 0.9380874633789062
167 181 0.9374255537986755
167 182 0.3304051160812378
167 183 0.942589282989502
167 184 0.9487797617912292
167 185 0.08786965161561966
167 186 0.9334779381752014
167 187 0.94210284948349
167 188 0.4464039206504822
167 189 0.9007857441902161
167 190 0.9279138445854187
167 191 0.9455312490463257
167 192 0.0833604708313942
167 193 0.9473955035209656
167 194 0.11987730860710144
167 195 0.9411911368370056
167 196 0.939064085483551
167 197 0.09935136884450912
167 198 0.23751159012317657
167 199 0.924497663974762
167 200 0.8846811652183533
167 201 0.9389843940734863
167 202 0.9328804016113281
167 204 0.16634555160999298
167 205 0.8967771530151367
167 206 0.9234943985939026
167 208 0.9438185691833496
167 209 0.9401276707649231
167 210 0.8977572917938232
167 211 0.5581715106964111
167 212 0.4588221609592438
167 213 0.16953210532665253
167 214 0.941764235496521
167 215 0.185487300157547
167 216 0.945604145526886
167 217 0.927684485912323
167 218 0.9333345890045166
167 219 0.9439713358879089
167 220 0.9458490610122681
167 221 0.8588463068008423
167 222 0.9512956142425537
167 223 0.9505711793899536
167 224 0.2737404704093933
167 225 0.9391499161720276
167 226 0.10709114372730255
167 227 0.919422447681427
167 228 0.9159525036811829
167 229 0.9413589835166931
167 230 0.1614268571138382
167 231 0.5759251117706299
167 232 0.6608102321624756
167 233 0.12095208466053009
167 234 0.9398103952407837
167 235 0.8251784443855286
167 236 0.9525092244148254
167 237 0.9477712512016296
167 238 0.9453619122505188
167 239 0.9324683547019958
167 240 0.9458490610122681
167 241 0.9393044710159302
167 242 0.1042005866765976
167 243 0.9495126008987427
167 244 0.9196525812149048
167 245 0.9178884625434875
167 246 0.9199182391166687
167 247 0.938489556312561
167 248 0.9311648011207581
167 249 0.9306467771530151
167 250 0.9406177401542664
167 251 0.08154986053705215
167 252 0.9381545782089233
167 253 0.1042005866765976
167 254 0.9351215958595276
167 255 0.8290945291519165
168 169 0.9496322274208069
168 170 0.14071252942085266
168 171 0.9504531025886536
168 172 0.9225293397903442
168 173 0.9642735719680786
168 174 0.9387432932853699
168 175 0.972235381603241
168 176 0.9699528813362122
168 177 0.9588767886161804
168 179 0.9452507495880127
168 180 0.9625779390335083
168 181 0.9588767886161804
168 182 0.3318704664707184
168 183 0.9637352228164673
168 184 0.9757899045944214
168 185 0.09672388434410095
168 186 0.9572108387947083
168 187 0.9663450121879578
168 188 0.45768648386001587
168 189 0.9256662726402283
168 190 0.9532158374786377
168 191 0.9685298204421997
168 192 0.10195592790842056
168 193 0.9642735719680786
168 194 0.12511460483074188
168 195 0.9635801315307617
168 196 0.9604583382606506
168 197 0.10693227499723434
168 198 0.2639063596725464
168 199 0.9534786939620972
168 200 0.9104915261268616
168 201 0.9586117267608643
168 202 0.9569514989852905
168 204 0.16276217997074127
168 205 0.9261466264724731
168 206 0.9386404752731323
168 208 0.9669209122657776
168 209 0.9604583382606506
168 210 0.9122452139854431
168 211 0.5979969501495361
168 212 0.4554446339607239
168 213 0.18799743056297302
168 214 0.9599584937095642
168 215 0.21872061491012573
168 216 0.9615789651870728
168 217 0.9507244229316711
168 218 0.9524733424186707
168 219 0.9641559720039368
168 220 0.9648115634918213
168 221 0.8843363523483276
168 222 0.9669607281684875
168 223 0.9642735719680786
168 224 0.267843633890152
168 225 0.9636174440383911
168 226 0.12896516919136047
168 227 0.9419513940811157
168 228 0.9400175213813782
168 229 0.9646941423416138
168 230 0.14478699862957
168 231 0.6102102398872375
168 232 0.7052247524261475
168 233 0.0813632607460022
168 234 0.9621184468269348
168 235 0.8550370335578918
168 236 0.9691051244735718
168 237 0.9555829167366028
168 238 0.9684532880783081
168 239 0.9522783756256104
168 240 0.9658467173576355
168 241 0.9566685557365417
168 242 0.10195592790842056
168 243 0.9715237617492676
168 244 0.9412746429443359
168 245 0.9313393235206604
168 246 0.9435182213783264
168 247 0.9609590172767639
168 248 0.9539936780929565
168 249 0.9516549110412598
168 250 0.9599179029464722
168 251 0.09119214862585068
168 252 0.9649924039840698
168 253 0.08156473934650421
168 254 0.9577528834342957
168 255 0.8385127186775208
169 170 0.1279786080121994
169 171 0.9369850754737854
169 172 0.9090473651885986
169 173 0.9598028063774109
169 174 0.9171432256698608
169 175 0.9596048593521118
169 176 0.9550623893737793
169 177 0.9532206058502197
169 179 0.9424393177032471
169 180 0.9506826996803284
169 181 0.9553248882293701
169 182 0.323810338973999
169 183 0.9644873142242432
169 184 0.9589921832084656
169 185 0.07602410763502121
169 186 0.9525507092475891
169 187 0.9577094316482544
169 188 0.49208709597587585
169 189 0.9114276170730591
169 190 0.946251392364502
169 191 0.9599753022193909
169 192 0.10303258150815964
169 193 0.9660828709602356
169 194 0.0948268473148346
169 195 0.9558787941932678
169 196 0.9495694041252136
169 197 0.07859016209840775
169 198 0.21494677662849426
169 199 0.9270250201225281
169 200 0.9068356156349182
169 201 0.9443573355674744
169 202 0.9468655586242676
169 204 0.1701527088880539
169 205 0.9151525497436523
169 206 0.9303110837936401
169 208 0.9562302827835083
169 209 0.9506209492683411
169 210 0.9130567908287048
169 211 0.5711269974708557
169 212 0.4471040368080139
169 213 0.11175452172756195
169 214 0.951177179813385
169 215 0.1645970195531845
169 216 0.9580910801887512
169 217 0.9501596093177795
169 218 0.9314473867416382
169 219 0.9522888660430908
169 220 0.9572156071662903
169 221 0.8856956958770752
169 222 0.9604679346084595
169 223 0.9639894962310791
169 224 0.2010706663131714
169 225 0.959086537361145
169 226 0.130327045917511
169 227 0.9347855448722839
169 228 0.9229570031166077
169 229 0.9517947435379028
169 230 0.14631593227386475
169 231 0.6199081540107727
169 232 0.6938793063163757
169 233 0.1420205980539322
169 234 0.9575945138931274
169 235 0.8243528604507446
169 236 0.9647529125213623
169 237 0.9551085233688354
169 238 0.9556769728660583
169 239 0.9442972540855408
169 240 0.9593079090118408
169 241 0.9562166333198547
169 242 0.07212280482053757
169 243 0.9535227417945862
169 244 0.9383311867713928
169 245 0.9292606711387634
169 246 0.9310091733932495
169 247 0.9532206058502197
169 248 0.9460972547531128
169 249 0.9383000135421753
169 250 0.9521685242652893
169 251 0.08063574135303497
169 252 0.9455997347831726
169 253 0.10303258150815964
169 254 0.9520519375801086
169 255 0.8413746953010559
170 171 0.12164599448442459
170 172 0.11850876361131668
170 173 0.10515252500772476
170 174 0.13100352883338928
170 175 0.14638502895832062
170 176 0.140275776386261
170 177 0.14093247056007385
170 179 0.14280615746974945
170 180 0.1477481573820114
170 181 0.14797909557819366
170 182 0.21300078928470612
170 183 0.140275776386261
170 184 0.1466095894575119
170 185 0.14547859132289886
170 186 0.12717117369174957
170 187 0.14020337164402008
170 189 0.1535220742225647
170 190 0.0641598105430603
170 191 0.13977131247520447
170 193 0.14020337164402008
170 195 0.1479019969701767
170 196 0.1479019969701767
170 199 0.07194431126117706
170 200 0.1555427461862564
170 201 0.14197255671024323
170 202 0.1281147003173828
170 204 0.41785547137260437
170 205 0.08787495642900467
170 206 0.12935921549797058
170 208 0.14698617160320282
170 209 0.1479019969701767
170 210 0.13294002413749695
170 211 0.08188394457101822
170 212 0.08807353675365448
170 213 0.2993924617767334
170 214 0.14782503247261047
170 215 0.1574852019548416
170 216 0.11245320737361908
170 217 0.1349453628063202
170 218 0.13639798760414124
170 219 0.1265755146741867
170 220 0.14013108611106873
170 221 0.15268956124782562
170 222 0.13984304666519165
170 223 0.13319319486618042
170 224 0.10359079390764236
170 225 0.11257002502679825
170 227 0.12894035875797272
170 228 0.1445976197719574
170 229 0.13353818655014038
170 231 0.19615106284618378
170 232 0.17427337169647217
170 234 0.14049366116523743
170 236 0.12560109794139862
170 237 0.09906679391860962
170 238 0.14706185460090637
170 239 0.13501688838005066
170 240 0.14013108611106873
170 241 0.14137542247772217
170 242 0.0690065547823906
170 243 0.14721353352069855
170 244 0.1510009914636612
170 245 0.07253808528184891
170 246 0.14334432780742645
170 247 0.13388584554195404
170 248 0.1345185488462448
170 249 0.12112613767385483
170 250 0.12683922052383423
170 252 0.11321919411420822
170 254 0.14828866720199585
171 172 0.9037632942199707
171 173 0.948067307472229
171 174 0.91429203748703
171 175 0.9532062411308289
171 176 0.9506646990776062
171 177 0.9445263147354126
171 179 0.9366974234580994
171 180 0.9472813606262207
171 181 0.9434674382209778
171 182 0.29679515957832336
171 183 0.9517186880111694
171 184 0.9515213370323181
171 186 0.9427517056465149
171 187 0.9501741528511047
171 188 0.47824734449386597
171 189 0.9172889590263367
171 190 0.9319829940795898
171 191 0.951446533203125
171 192 0.10369516909122467
171 193 0.9501741528511047
171 194 0.13520196080207825
171 195 0.9472092390060425
171 196 0.9429758787155151
171 197 0.1087564080953598
171 198 0.22834736108779907
171 199 0.9329865574836731
171 200 0.8981982469558716
171 201 0.9376299977302551
171 202 0.9369117617607117
171 204 0.18837162852287292
171 205 0.9111343026161194
171 206 0.9244146943092346
171 208 0.9529137015342712
171 209 0.9419175982475281
171 210 0.9056107401847839
171 211 0.5695264339447021
171 212 0.48306602239608765
171 213 0.14621515572071075
171 214 0.9435429573059082
171 215 0.17512156069278717
171 216 0.9515788555145264
171 217 0.9338574409484863
171 218 0.9342012405395508
171 219 0.9499594569206238
171 220 0.9507369995117188
171 221 0.8753304481506348
171 222 0.9529856443405151
171 223 0.9543877243995667
171 224 0.2373882383108139
171 225 0.9430524110794067
171 226 0.13116516172885895
171 227 0.9289564490318298
171 228 0.9202011227607727
171 229 0.9441859722137451
171 230 0.16064386069774628
171 231 0.6255322694778442
171 232 0.6750634908676147
171 233 0.12036540359258652
171 234 0.9468633532524109
171 235 0.8320764899253845
171 236 0.9531318545341492
171 237 0.9495541453361511
171 238 0.9502472877502441
171 239 0.9375559091567993
171 240 0.9496841430664062
171 241 0.9379349946975708
171 242 0.0933256521821022
171 243 0.9491207003593445
171 244 0.923835813999176
171 245 0.9297865629196167
171 246 0.9240723252296448
171 247 0.942408561706543
171 248 0.9457982182502747
171 249 0.935768723487854
171 250 0.9477030038833618
171 251 0.0927477777004242
171 252 0.9506174921989441
171 253 0.10369516909122467
171 254 0.9496856331825256
171 255 0.8516104817390442
172 173 0.9191911816596985
172 174 0.9169492721557617
172 175 0.9205233454704285
172 176 0.916392982006073
172 177 0.9119145274162292
172 179 0.9229277968406677
172 180 0.9137746095657349
172 181 0.9064342975616455
172 182 0.2349269688129425
172 183 0.917483925819397
172 184 0.9197637438774109
172 185 0.10182663798332214
172 186 0.908806562423706
172 187 0.9213719367980957
172 188 0.45983070135116577
172 189 0.8835320472717285
172 190 0.9159048795700073
172 191 0.9283157587051392
172 192 0.0966012254357338
172 193 0.914829671382904
172 194 0.1399473249912262
172 195 0.9070576429367065
172 196 0.9092485904693604
172 197 0.11257358640432358
172 198 0.27782899141311646
172 199 0.8997094631195068
172 200 0.8767281174659729
172 201 0.9031866788864136
172 202 0.9000502228736877
172 204 0.12408019602298737
172 205 0.8884403109550476
172 206 0.8909083008766174
172 208 0.9264811277389526
172 209 0.9125350117683411
172 210 0.8604285717010498
172 211 0.5167361497879028
172 212 0.4315248429775238
172 213 0.128062903881073
172 214 0.9208193421363831
172 215 0.21556201577186584
172 216 0.9106398224830627
172 217 0.9014555215835571
172 218 0.8910602331161499
172 219 0.9209564924240112
172 220 0.9132681488990784
172 221 0.8680534958839417
172 222 0.9179164171218872
172 223 0.9126488566398621
172 224 0.18932537734508514
172 225 0.9170576333999634
172 226 0.12728329002857208
172 227 0.9181071519851685
172 228 0.8940216898918152
172 229 0.9139193892478943
172 230 0.1454969346523285
172 231 0.5474827885627747
172 232 0.6370134949684143
172 233 0.12459003925323486
172 234 0.9221868515014648
172 235 0.8174020648002625
172 236 0.9236347675323486
172 237 0.905836284160614
172 238 0.9149762392044067
172 239 0.9096705317497253
172 240 0.9132681488990784
172 241 0.9070842266082764
172 242 0.064400814473629
172 243 0.9170103669166565
172 244 0.8992207646369934
172 245 0.8890825510025024
172 246 0.896306037902832
172 247 0.9075303673744202
172 248 0.9052116870880127
172 249 0.9109835028648376
172 250 0.9239711761474609
172 251 0.0600019246339798
172 252 0.9190441370010376
172 253 0.0966012254357338
172 254 0.9138222932815552
172 255 0.8103313446044922
173 174 0.9342750906944275
173 175 0.9748744368553162
173 176 0.9674755930900574
173 177 0.9626684784889221
173 179 0.9575976729393005
173 180 0.9642735719680786
173 181 0.963705837726593
173 182 0.33352017402648926
173 183 0.9674755930900574
173 184 0.972258985042572
173 185 0.08566567301750183
173 186 0.9703883528709412
173 187 0.9700722694396973
173 188 0.49559465050697327
173 189 0.925545334815979
173 190 0.9602612257003784
173 191 0.9711980819702148
173 192 0.10158699750900269
173 193 0.9731681942939758
173 194 0.11687050759792328
173 195 0.9632037878036499
173 196 0.9632037878036499
173 197 0.0871734619140625
173 198 0.25902676582336426
173 199 0.9436737895011902
173 200 0.9159200191497803
173 201 0.9572330713272095
173 202 0.9576798677444458
173 204 0.12862014770507812
173 205 0.9281855225563049
173 206 0.9437077045440674
173 208 0.9706348180770874
173 209 0.9632037878036499
173 210 0.9165551066398621
173 211 0.580334484577179
173 212 0.4213825762271881
173 213 0.1487518697977066
173 214 0.9647751450538635
173 215 0.20865558087825775
173 216 0.9674113988876343
173 217 0.9608765840530396
173 218 0.9437426924705505
173 219 0.9730896353721619
173 220 0.9685406684875488
173 221 0.8934992551803589
173 222 0.9706671237945557
173 223 0.9680082201957703
173 224 0.2592494785785675
173 225 0.9746309518814087
173 226 0.12849850952625275
173 227 0.9522519707679749
173 228 0.936616063117981
173 229 0.9653420448303223
173 230 0.15737789869308472
173 231 0.6256486773490906
173 232 0.7083740234375
173 233 0.14002801477909088
173 234 0.9658758640289307
173 235 0.8400775194168091
173 236 0.977925181388855
173 237 0.9594172239303589
173 238 0.9701035618782043
173 239 0.9540631175041199
173 240 0.9706035852432251
173 241 0.9594504833221436
173 242 0.09142829477787018
173 243 0.9680082201957703
173 244 0.9442198872566223
173 245 0.9418514370918274
173 246 0.948544979095459
173 247 0.9688926339149475
173 248 0.9588796496391296
173 249 0.9534558653831482
173 250 0.9668179750442505
173 251 0.09086216986179352
173 252 0.9594172239303589
173 253 0.10158699750900269
173 254 0.9605243802070618
173 255 0.8508409857749939
174 175 0.936474621295929
174 176 0.9358294010162354
174 177 0.927286684513092
174 179 0.9308843612670898
174 180 0.936592698097229
174 181 0.9240556955337524
174 182 0.272273987531662
174 183 0.9304695725440979
174 184 0.9411122798919678
174 185 0.08893831819295883
174 186 0.9275538325309753
174 187 0.9407035708427429
174 188 0.41075727343559265
174 189 0.8949810266494751
174 190 0.9326616525650024
174 191 0.939940869808197
174 192 0.10546787083148956
174 193 0.931060791015625
174 194 0.13751327991485596
174 195 0.9246507287025452
174 196 0.9300328493118286
174 197 0.11061563342809677
174 198 0.26484763622283936
174 199 0.9071522355079651
174 200 0.873931884765625
174 201 0.9265356063842773
174 202 0.9246452450752258
174 204 0.1335337609052658
174 205 0.8920146226882935
174 206 0.9061678051948547
174 208 0.9456692934036255
174 209 0.9289564490318298
174 210 0.8815847039222717
174 211 0.5023851990699768
174 212 0.40607157349586487
174 213 0.14871473610401154
174 214 0.9306247234344482
174 215 0.22144067287445068
174 216 0.9281012415885925
174 217 0.9150856137275696
174 218 0.9161585569381714
174 219 0.9328820109367371
174 220 0.930580735206604
174 221 0.8762924075126648
174 222 0.9361485838890076
174 223 0.931060791015625
174 224 0.22561389207839966
174 225 0.9312161803245544
174 226 0.1250694990158081
174 227 0.9284147024154663
174 228 0.9160422086715698
174 229 0.9345464110374451
174 230 0.12254258990287781
174 231 0.549619197845459
174 232 0.6451709270477295
174 233 0.14537742733955383
174 234 0.9372829794883728
174 235 0.8413735628128052
174 236 0.9384980797767639
174 237 0.9225266575813293
174 238 0.9365233182907104
174 239 0.932948112487793
174 240 0.930580735206604
174 241 0.9247993230819702
174 242 0.06328071653842926
174 243 0.9364178776741028
174 244 0.9154515266418457
174 245 0.9024440050125122
174 246 0.9179611802101135
174 247 0.9240556955337524
174 248 0.9208478927612305
174 249 0.9332534074783325
174 250 0.9434415102005005
174 251 0.07074999064207077
174 252 0.9246896505355835
174 253 0.06328071653842926
174 254 0.9259888529777527
174 255 0.8256824016571045
175 176 0.974351167678833
175 177 0.9696288704872131
175 179 0.9553439021110535
175 180 0.9701755046844482
175 181 0.9696288704872131
175 182 0.351485013961792
175 183 0.9733244776725769
175 184 0.9821166396141052
175 185 0.0958314836025238
175 186 0.9659611582756042
175 187 0.973848283290863
175 188 0.4907347857952118
175 189 0.9395991563796997
175 190 0.9590310454368591
175 191 0.9800543785095215
175 192 0.10101525485515594
175 193 0.973848283290863
175 194 0.12396027147769928
175 195 0.9691237211227417
175 196 0.9701547026634216
175 197 0.10594569891691208
175 198 0.2614715099334717
175 199 0.9520537853240967
175 200 0.9216075539588928
175 201 0.9643152356147766
175 202 0.9606251120567322
175 204 0.18350331485271454
175 205 0.9315373301506042
175 206 0.9510205984115601
175 208 0.9774672389030457
175 209 0.9742786288261414
175 210 0.9222080111503601
175 211 0.5822054147720337
175 212 0.4512426257133484
175 213 0.18626293540000916
175 214 0.9696497917175293
175 215 0.22131332755088806
175 216 0.9712263345718384
175 217 0.9700242877006531
175 218 0.9499908685684204
175 219 0.9707010388374329
175 220 0.9743717908859253
175 221 0.8907057642936707
175 222 0.9764631986618042
175 223 0.973848283290863
175 224 0.25399935245513916
175 225 0.9712054133415222
175 226 0.11978936195373535
175 227 0.9521356821060181
175 228 0.9429864883422852
175 229 0.9712263345718384
175 230 0.1369306445121765
175 231 0.6253178715705872
175 232 0.7199773192405701
175 233 0.13923993706703186
175 234 0.9717512726783752
175 235 0.8459683656692505
175 236 0.978550136089325
175 237 0.9643759727478027
175 238 0.9759201407432556
175 239 0.9601361751556396
175 240 0.9753974676132202
175 241 0.9654330015182495
175 242 0.10101525485515594
175 243 0.973848283290863
175 244 0.9504842162132263
175 245 0.9397361874580383
175 246 0.9536982178688049
175 247 0.970660388469696
175 248 0.9659197926521301
175 249 0.9574767351150513
175 250 0.9685973525047302
175 251 0.09035079926252365
175 252 0.9643759727478027
175 253 0.09091372787952423
175 254 0.9664889574050903
175 255 0.8448773622512817
176 177 0.9621278047561646
176 179 0.9507303237915039
176 180 0.9647715091705322
176 181 0.9621278047561646
176 182 0.3479527533054352
176 183 0.9741735458374023
176 184 0.9727610349655151
176 185 0.09642364829778671
176 186 0.9615238904953003
176 187 0.9757358431816101
176 188 0.4708496928215027
176 189 0.9281768798828125
176 190 0.9544571042060852
176 191 0.9737582802772522
176 192 0.10163945704698563
176 193 0.9685081243515015
176 194 0.11693084985017776
176 195 0.9647386074066162
176 196 0.968887984752655
176 197 0.10660036653280258
176 198 0.25916051864624023
176 199 0.9473401308059692
176 200 0.915302038192749
176 201 0.9577273726463318
176 202 0.9560778141021729
176 204 0.17904217541217804
176 205 0.9351363778114319
176 206 0.9420779943466187
176 208 0.9731979370117188
176 209 0.9668132662773132
176 210 0.9170283675193787
176 211 0.5858030319213867
176 212 0.4583550691604614
176 213 0.1819017082452774
176 214 0.9642365574836731
176 215 0.22268088161945343
176 216 0.9668757319450378
176 217 0.9571883082389832
176 218 0.9484594464302063
176 219 0.9642704129219055
176 220 0.9680087566375732
176 221 0.8939606547355652
176 222 0.9721982479095459
176 223 0.9674755930900574
176 224 0.25938332080841064
176 225 0.9668440222740173
176 226 0.12856486439704895
176 227 0.9485233426094055
176 228 0.9381645917892456
176 229 0.9689461588859558
176 230 0.12465517222881317
176 231 0.6083161234855652
176 232 0.7044617533683777
176 233 0.14010031521320343
176 234 0.9663746953010559
176 235 0.8535701632499695
176 236 0.9732913970947266
176 237 0.9578281044960022
176 238 0.9695731401443481
176 239 0.9556024670600891
176 240 0.9680087566375732
176 241 0.9589048027992249
176 242 0.08131156116724014
176 243 0.9705731868743896
176 244 0.9436483979225159
176 245 0.9359273314476013
176 246 0.951146125793457
176 247 0.9652414917945862
176 248 0.9583321213722229
176 249 0.9539481997489929
176 250 0.9662793874740601
176 251 0.07954545319080353
176 252 0.9609548449516296
176 253 0.09147550910711288
176 254 0.9620605111122131
176 255 0.8394569754600525
177 179 0.9467280507087708
177 180 0.9599179029464722
177 181 0.9593325853347778
177 182 0.3553125262260437
177 183 0.9704309701919556
177 184 0.968017041683197
177 185 0.09687504917383194
177 186 0.9545249342918396
177 187 0.9688926339149475
177 188 0.46886759996414185
177 189 0.9292766451835632
177 190 0.9462661743164062
177 191 0.9669410586357117
177 192 0.10211528092622757
177 193 0.9657806158065796
177 194 0.13314202427864075
177 195 0.9630016088485718
177 196 0.9671704769134521
177 197 0.10709939897060394
177 198 0.2603737711906433
177 199 0.937934935092926
177 200 0.9097224473953247
177 201 0.9496054649353027
177 202 0.951074481010437
177 204 0.1855016052722931
177 205 0.9254268407821655
177 206 0.9443613886833191
177 208 0.9653248190879822
177 209 0.9577906131744385
177 210 0.9289717674255371
177 211 0.5902764797210693
177 212 0.45832863450050354
177 213 0.15506339073181152
177 214 0.9593755602836609
177 215 0.20507974922657013
177 216 0.9599616527557373
177 217 0.9511592984199524
177 218 0.9454633593559265
177 219 0.9604598879814148
177 220 0.9673563241958618
177 221 0.8902375102043152
177 222 0.9664025902748108
177 223 0.9626684784889221
177 224 0.2567652761936188
177 225 0.9588767886161804
177 226 0.10494796931743622
177 227 0.941303551197052
177 228 0.9382770657539368
177 229 0.9641218781471252
177 230 0.12523873150348663
177 231 0.6224519610404968
177 232 0.7048941850662231
177 233 0.14075618982315063
177 234 0.9625826478004456
177 235 0.8396753072738647
177 236 0.9675220251083374
177 237 0.9581235647201538
177 238 0.9689306020736694
177 239 0.9579730033874512
177 240 0.9632090330123901
177 241 0.9571176171302795
177 242 0.10211528092622757
177 243 0.9626684784889221
177 244 0.9374255537986755
177 245 0.9274278879165649
177 246 0.9396898746490479
177 247 0.9572471380233765
177 248 0.96177077293396
177 249 0.946816086769104
177 250 0.9582898616790771
177 251 0.09133467823266983
177 252 0.9539351463317871
177 253 0.09190374612808228
177 254 0.9623845815658569
177 255 0.8445746898651123
178 182 0.0627455785870552
178 213 0.12126781791448593
178 215 0.10206206887960434
178 224 0.08391813933849335
178 232 0.0627455785870552
178 255 0.05202269181609154
179 180 0.9484156966209412
179 181 0.9435582756996155
179 182 0.31358006596565247
179 183 0.9517819881439209
179 184 0.953669011592865
179 185 0.09816300123929977
179 186 0.957680881023407
179 187 0.9554953575134277
179 188 0.4899480938911438
179 189 0.9273807406425476
179 190 0.9428125619888306
179 191 0.9567424654960632
179 192 0.10347288846969604
179 193 0.9512907266616821
179 194 0.1349121332168579
179 195 0.9441227912902832
179 196 0.9441227912902832
179 197 0.08879177272319794
179 198 0.2638354003429413
179 199 0.9223564267158508
179 200 0.9129321575164795
179 201 0.9451998472213745
179 202 0.9413068294525146
179 204 0.1537918746471405
179 205 0.9113771915435791
179 206 0.9235106706619263
179 208 0.962415874004364
179 209 0.9472909569740295
179 210 0.8981322646141052
179 211 0.5279629826545715
179 212 0.4358084201812744
179 213 0.09539728611707687
179 214 0.9541865587234497
179 215 0.20780625939369202
179 216 0.9463774561882019
179 217 0.942505419254303
179 218 0.9246636033058167
179 219 0.9553040266036987
179 220 0.9497496485710144
179 221 0.904362678527832
179 222 0.9519912004470825
179 223 0.9491884708404541
179 224 0.21357977390289307
179 225 0.9515805840492249
179 226 0.13088399171829224
179 227 0.953818142414093
179 228 0.9225648641586304
179 229 0.9463774561882019
179 230 0.1335829198360443
179 231 0.6274592876434326
179 232 0.6823270320892334
179 233 0.1426275372505188
179 234 0.9522069692611694
179 235 0.8182070851325989
179 236 0.9605054259300232
179 237 0.9432744979858398
179 238 0.9555608034133911
179 239 0.937677264213562
179 240 0.9497496485710144
179 241 0.941224217414856
179 242 0.08277831226587296
179 243 0.9491884708404541
179 244 0.9294028878211975
179 245 0.9212673902511597
179 246 0.9328383803367615
179 247 0.9467280507087708
179 248 0.94270920753479
179 249 0.9433782696723938
179 250 0.9594075083732605
179 251 0.09254896640777588
179 252 0.9422134757041931
179 253 0.07243102043867111
179 254 0.9476498961448669
179 255 0.8389520049095154
180 181 0.9599179029464722
180 182 0.34903618693351746
180 183 0.9658077955245972
180 184 0.9685695171356201
180 185 0.08597678691148758
180 186 0.9592984914779663
180 187 0.9663450121879578
180 188 0.4451471269130707
180 189 0.9256662726402283
180 190 0.9511092901229858
180 191 0.9685298204421997
180 192 0.09176032990217209
180 193 0.9653093218803406
180 194 0.12511460483074188
180 195 0.9604583382606506
180 196 0.962539553642273
180 197 0.10693227499723434
180 198 0.25602856278419495
180 199 0.9449750185012817
180 200 0.9115859270095825
180 201 0.9533677101135254
180 202 0.9485387802124023
180 204 0.1852121204137802
180 205 0.9326382875442505
180 206 0.9397022724151611
180 208 0.9689891338348389
180 209 0.9614989161491394
180 210 0.9231572151184082
180 211 0.561702311038971
180 212 0.4706261456012726
180 213 0.18246808648109436
180 214 0.9620386362075806
180 215 0.21872061491012573
180 216 0.9636557698249817
180 217 0.9507244229316711
180 218 0.943988025188446
180 219 0.961039125919342
180 220 0.9658467173576355
180 221 0.8967441320419312
180 222 0.9669607281684875
180 223 0.9653093218803406
180 224 0.2448856085538864
180 225 0.9604989290237427
180 226 0.0806032344698906
180 227 0.9472432732582092
180 228 0.9496313333511353
180 229 0.9646941423416138
180 230 0.15136821568012238
180 231 0.6198705434799194
180 232 0.6966418623924255
180 233 0.13313987851142883
180 234 0.970421552658081
180 235 0.8502735495567322
180 236 0.9691051244735718
180 237 0.9545374512672424
180 238 0.9674186110496521
180 239 0.9606776833534241
180 240 0.9648115634918213
180 241 0.9556241035461426
180 242 0.10195592790842056
180 243 0.9673807621002197
180 244 0.9433994889259338
180 245 0.933482825756073
180 246 0.9435182213783264
180 247 0.9588767886161804
180 248 0.9539936780929565
180 249 0.956918478012085
180 250 0.9630413055419922
180 251 0.09119214862585068
180 252 0.9545374512672424
180 253 0.09176032990217209
180 254 0.9629693627357483
180 255 0.8468148708343506
181 182 0.3639087975025177
181 183 0.9652414917945862
181 184 0.968017041683197
181 185 0.06458336114883423
181 186 0.9545249342918396
181 187 0.9626684784889221
181 188 0.4897992014884949
181 189 0.9206221103668213
181 190 0.9452112913131714
181 191 0.9669410586357117
181 192 0.07148069143295288
181 193 0.9647432565689087
181 194 0.10964637249708176
181 195 0.9661282896995544
181 196 0.9577906131744385
181 197 0.10709939897060394
181 198 0.18147264420986176
181 199 0.9400641322135925
181 200 0.9075303673744202
181 201 0.9496054649353027
181 202 0.951074481010437
181 204 0.1855016052722931
181 205 0.9243431687355042
181 206 0.9369170665740967
181 208 0.9642890691757202
181 209 0.9588328003883362
181 210 0.9169497489929199
181 211 0.6023935675621033
181 212 0.45832863450050354
181 213 0.1882912665605545
181 214 0.9593755602836609
181 215 0.1957579404115677
181 216 0.966201901435852
181 217 0.9532613754272461
181 218 0.9454633593559265
181 219 0.959419310092926
181 220 0.97565096616745
181 221 0.8766805529594421
181 222 0.9653679132461548
181 223 0.9678552746772766
181 224 0.26826223731040955
181 225 0.9599179029464722
181 226 0.12916673719882965
181 227 0.9402434229850769
181 228 0.9318578839302063
181 229 0.9641218781471252
181 230 0.1516047865152359
181 231 0.6305148005485535
181 232 0.6991633772850037
181 233 0.13334797322750092
181 234 0.9605036377906799
181 235 0.8360971212387085
181 236 0.9675220251083374
181 237 0.9539351463317871
181 238 0.9647854566574097
181 239 0.9506120085716248
181 240 0.97565096616745
181 241 0.9560716152191162
181 242 0.10211528092622757
181 243 0.9626684784889221
181 244 0.938489556312561
181 245 0.9285013675689697
181 246 0.9418110847473145
181 247 0.9635035991668701
181 248 0.9565324187278748
181 249 0.946816086769104
181 250 0.9572471380233765
181 251 0.07991784065961838
181 252 0.9528879523277283
181 253 0.10211528092622757
181 254 0.9592497944831848
181 255 0.8445746898651123
182 183 0.3508048355579376
182 184 0.35486310720443726
182 185 0.11831420660018921
182 186 0.32464027404785156
182 187 0.3506237864494324
182 188 0.21281947195529938
182 189 0.329975962638855
182 190 0.28408899903297424
182 191 0.3324924111366272
182 193 0.34492257237434387
182 195 0.36085525155067444
182 196 0.3637191951274872
182 199 0.3335101902484894
182 200 0.3554023504257202
182 201 0.3435019254684448
182 202 0.3328373432159424
182 204 0.293491005897522
182 205 0.33053287863731384
182 206 0.3331482410430908
182 208 0.3187740743160248
182 209 0.3637191951274872
182 210 0.330357164144516
182 211 0.3044307231903076
182 212 0.19100819528102875
182 213 0.2434886246919632
182 214 0.34635528922080994
182 215 0.128078892827034
182 216 0.3458159267902374
182 217 0.35812434554100037
182 218 0.34154507517814636
182 219 0.320260226726532
182 220 0.3589904010295868
182 221 0.29492443799972534
182 222 0.3554092049598694
182 223 0.33922138810157776
182 224 0.34752246737480164
182 225 0.3433142900466919
182 227 0.314592182636261
182 228 0.3263337016105652
182 229 0.35724782943725586
182 230 0.05433926358819008
182 231 0.3677935004234314
182 232 0.35826772451400757
182 234 0.342780202627182
182 235 0.2228717803955078
182 236 0.34333184361457825
182 237 0.3193970322608948
182 238 0.35880547761917114
182 239 0.31785935163497925
182 240 0.36183953285217285
182 241 0.3506804406642914
182 242 0.14030338823795319
182 243 0.3506237864494324
182 244 0.3304051160812378
182 245 0.3156149983406067
182 246 0.36139318346977234
182 247 0.36104336380958557
182 248 0.3282019793987274
182 249 0.35057592391967773
182 250 0.3123311698436737
182 251 0.0627455785870552
182 252 0.333784282207489
182 254 0.35031306743621826
182 255 0.21543678641319275
183 184 0.9717327356338501
183 185 0.07499617338180542
183 186 0.9604833126068115
183 187 0.9778008460998535
183 188 0.47918328642845154
183 189 0.9260233044624329
183 190 0.9523571133613586
183 191 0.970670223236084
183 192 0.10163945704698563
183 193 0.9695407152175903
183 194 0.1325216293334961
183 195 0.9668132662773132
183 196 0.9637011885643005
183 197 0.10660036653280258
183 198 0.23952716588974
183 199 0.94204181432724
183 200 0.917483925819397
183 201 0.9545906782150269
183 202 0.9550294876098633
183 204 0.18463723361492157
183 205 0.9340577721595764
183 206 0.9420779943466187
183 208 0.9690742492675781
183 209 0.9647386074066162
183 210 0.9311699867248535
183 211 0.5858030319213867
183 212 0.4734894335269928
183 213 0.16536518931388855
183 214 0.9642365574836731
183 215 0.18092821538448334
183 216 0.971016526222229
183 217 0.9550961256027222
183 218 0.9484594464302063
183 219 0.9642704129219055
183 220 0.9711048007011414
183 221 0.9007076025009155
183 222 0.9783774614334106
183 223 0.9695407152175903
183 224 0.24793995916843414
183 225 0.9647715091705322
183 226 0.12856486439704895
183 227 0.9485233426094055
183 228 0.9424241781234741
183 229 0.971016526222229
183 230 0.13777677714824677
183 231 0.6275768280029297
183 232 0.700183629989624
183 233 0.14010031521320343
183 234 0.9694786667823792
183 235 0.8428856730461121
183 236 0.9732913970947266
183 237 0.9619970917701721
183 238 0.9706045985221863
183 239 0.9566490650177002
183 240 0.9700728058815002
183 241 0.9609870910644531
183 242 0.09147550910711288
183 243 0.9674755930900574
183 244 0.9457665681838989
183 245 0.9359273314476013
183 246 0.9479791522026062
183 247 0.9621278047561646
183 248 0.9604177474975586
183 249 0.9528987407684326
183 250 0.9642035365104675
183 251 0.09090908616781235
183 252 0.9599125981330872
183 253 0.09147550910711288
183 254 0.9714210629463196
183 255 0.852462649345398
184 185 0.0959785059094429
184 186 0.9643356204032898
184 187 0.972258985042572
184 188 0.489413857460022
184 189 0.9335380792617798
184 190 0.9594571590423584
184 191 0.9754103422164917
184 192 0.10117022693157196
184 193 0.972258985042572
184 194 0.10863163322210312
184 195 0.9675127267837524
184 196 0.9685452580451965
184 197 0.10610823333263397
184 198 0.26187264919281006
184 199 0.9503499865531921
184 200 0.9197637438774109
184 201 0.9605909585952759
184 202 0.9600118398666382
184 204 0.1837848275899887
184 205 0.9297455549240112
184 206 0.9472114443778992
184 208 0.9738359451293945
184 209 0.9706104397773743
184 210 0.9236227869987488
184 211 0.593388557434082
184 212 0.45408695936203003
184 213 0.18654868006706238
184 214 0.9680412411689758
184 215 0.22165285050868988
184 216 0.9696250557899475
184 217 0.9621409177780151
184 218 0.954605758190155
184 219 0.9701282978057861
184 220 0.9727848768234253
184 221 0.8909529447555542
184 222 0.9748858213424683
184 223 0.972258985042572
184 224 0.2657795548439026
184 225 0.9706324338912964
184 226 0.1279713362455368
184 227 0.9504456520080566
184 228 0.9497329592704773
184 229 0.9716858267784119
184 230 0.1502017378807068
184 231 0.619886577129364
184 232 0.7125651240348816
184 233 0.11009488999843597
184 234 0.9701523780822754
184 235 0.8567196726799011
184 236 0.9769822359085083
184 237 0.9627431631088257
184 238 0.980497419834137
184 239 0.9584835767745972
184 240 0.9768938422203064
184 241 0.9669140577316284
184 242 0.10117022693157196
184 243 0.9753422737121582
184 244 0.9487797617912292
184 245 0.9379874467849731
184 246 0.9499074220657349
184 247 0.968017041683197
184 248 0.963249683380127
184 249 0.9579010605812073
184 250 0.9669839143753052
184 251 0.09048940241336823
184 252 0.9637805819511414
184 253 0.060702133923769
184 254 0.9648658633232117
184 255 0.8497041463851929
185 186 0.05396032705903053
185 187 0.09637388586997986
185 189 0.10050377994775772
185 190 0.09800572693347931
185 191 0.09607689827680588
185 193 0.0749574676156044
185 195 0.09682458639144897
185 196 0.09682458639144897
185 198 0.12216944247484207
185 199 0.09890707582235336
185 200 0.10182663798332214
185 201 0.09759000688791275
185 202 0.09784920513629913
185 205 0.06711559742689133
185 206 0.0768442377448082
185 208 0.09622504562139511
185 209 0.09682458639144897
185 213 0.057166192680597305
185 214 0.09677419811487198
185 215 0.19245009124279022
185 216 0.07515160739421844
185 217 0.09764168411493301
185 218 0.07676102966070175
185 219 0.0966736450791359
185 220 0.05351344123482704
185 221 0.05830928683280945
185 222 0.09612619876861572
185 225 0.09672388434410095
185 227 0.09847982227802277
185 228 0.08835060894489288
185 229 0.096623495221138
185 232 0.13310348987579346
185 234 0.0858430340886116
185 235 0.11080753058195114
185 236 0.09592941403388977
185 237 0.0648544430732727
185 238 0.09627458453178406
185 239 0.07598378509283066
185 240 0.06421612948179245
185 241 0.08638180047273636
185 243 0.09637388586997986
185 244 0.08786965161561966
185 245 0.07756262272596359
185 246 0.08758482336997986
185 247 0.09687504917383194
185 248 0.09733285009860992
185 249 0.08706975728273392
185 250 0.09687504917383194
185 252 0.09728167206048965
185 254 0.09707771986722946
186 187 0.9641479253768921
186 188 0.49527835845947266
186 189 0.9176082611083984
186 190 0.954031229019165
186 191 0.9663610458374023
186 192 0.10238251835107803
186 193 0.9662280082702637
186 194 0.13349047303199768
186 195 0.9550725817680359
186 196 0.9550725817680359
186 197 0.08785611391067505
186 198 0.24918904900550842
186 199 0.9361199736595154
186 200 0.9208947420120239
186 201 0.9478779435157776
186 202 0.9493395686149597
186 204 0.14653527736663818
186 205 0.9289352297782898
186 206 0.9340378046035767
186 208 0.9626588821411133
186 209 0.9561175107955933
186 210 0.9094876050949097
186 211 0.5605814456939697
186 212 0.4573502838611603
186 213 0.13881179690361023
186 214 0.9566643834114075
186 215 0.21028956770896912
186 216 0.958302915096283
186 217 0.9557561874389648
186 218 0.9362217783927917
186 219 0.9629735946655273
186 220 0.9615716934204102
186 221 0.9072925448417664
186 222 0.9627074003219604
186 223 0.9631078243255615
186 224 0.2343832105398178
186 225 0.9655616283416748
186 226 0.12950478494167328
186 227 0.951206624507904
186 228 0.9310786128044128
186 229 0.9572601318359375
186 230 0.14539280533790588
186 231 0.6208473443984985
186 232 0.6923744082450867
186 233 0.14112456142902374
186 234 0.9609329700469971
186 235 0.826326847076416
186 236 0.9731599688529968
186 237 0.9522321820259094
186 238 0.9621154069900513
186 239 0.9499368667602539
186 240 0.9615716934204102
186 241 0.9533299803733826
186 242 0.07166776061058044
186 243 0.9599875807762146
186 244 0.9377452731132507
186 245 0.9384648203849792
186 246 0.9485293626785278
186 247 0.9587069153785706
186 248 0.9537835717201233
186 249 0.952465295791626
186 250 0.9607978463172913
186 251 0.09157370775938034
186 252 0.950132429599762
186 253 0.10238251835107803
186 254 0.9565218687057495
186 255 0.8634587526321411
187 188 0.4851830005645752
187 189 0.9276978373527527
187 190 0.9602612257003784
187 191 0.9732556343078613
187 192 0.10158699750900269
187 193 0.9690402746200562
187 194 0.13245323300361633
187 195 0.9632037878036499
187 196 0.9673510789871216
187 197 0.1065453439950943
187 198 0.26295140385627747
187 199 0.9447329044342041
187 200 0.9170103669166565
187 201 0.9561880230903625
187 202 0.9555843472480774
187 204 0.14539667963981628
187 205 0.9368097186088562
187 206 0.9426497220993042
187 208 0.9706348180770874
187 209 0.9632037878036499
187 210 0.9230785965919495
187 211 0.5837786197662354
187 212 0.4494747519493103
187 213 0.1487518697977066
187 214 0.9647751450538635
187 215 0.20865558087825775
187 216 0.9684460759162903
187 217 0.9556487202644348
187 218 0.9458563327789307
187 219 0.966878354549408
187 220 0.9685406684875488
187 221 0.9126055240631104
187 222 0.9727258086204529
187 223 0.9680082201957703
187 224 0.2516244649887085
187 225 0.9704880118370056
187 226 0.12849850952625275
187 227 0.9522519707679749
187 228 0.9376803636550903
187 229 0.9715501070022583
187 230 0.09180377423763275
187 231 0.6144191026687622
187 232 0.7040981650352478
187 233 0.14002801477909088
187 234 0.9720807075500488
187 235 0.8424506187438965
187 236 0.9748435020446777
187 237 0.9615005850791931
187 238 0.9711344838142395
187 239 0.9551092386245728
187 240 0.9685406684875488
187 241 0.9604911208152771
187 242 0.09142829477787018
187 243 0.9680082201957703
187 244 0.9495126008987427
187 245 0.9365121126174927
187 246 0.9517103433609009
187 247 0.9626684784889221
187 248 0.9588796496391296
187 249 0.9566025733947754
187 250 0.9668179750442505
187 251 0.09086216986179352
187 252 0.9604588747024536
187 253 0.09142829477787018
187 254 0.966761589050293
187 255 0.8461140394210815
188 189 0.4668863117694855
188 190 0.47434002161026
188 191 0.49199146032333374
188 192 0.081992007791996
188 193 0.4851830005645752
188 195 0.4623471796512604
188 196 0.4707154333591461
188 198 0.1346241682767868
188 199 0.4530576765537262
188 200 0.4906327426433563
188 201 0.4512418806552887
188 202 0.4482119679450989
188 204 0.06770267337560654
188 205 0.44157153367996216
188 206 0.484587162733078
188 208 0.4823545217514038
188 209 0.4581630229949951
188 210 0.41463524103164673
188 211 0.33357471227645874
188 212 0.13080869615077972
188 214 0.4683794677257538
188 215 0.09356015175580978
188 216 0.48643961548805237
188 217 0.4978947341442108
188 218 0.4222218990325928
188 219 0.49295854568481445
188 220 0.4849328100681305
188 221 0.46943002939224243
188 222 0.4735511839389801
188 223 0.48310065269470215
188 224 0.10000591725111008
188 225 0.49530455470085144
188 226 0.16205093264579773
188 227 0.4915294349193573
188 228 0.42737138271331787
188 229 0.4739132821559906
188 230 0.0661570206284523
188 231 0.3884370028972626
188 232 0.4457705020904541
188 233 0.11896651238203049
188 234 0.4736676812171936
188 235 0.36391764879226685
188 236 0.4891635775566101
188 237 0.47293755412101746
188 238 0.48676320910453796
188 239 0.42639005184173584
188 240 0.49325788021087646
188 241 0.46824151277542114
188 242 0.081992007791996
188 243 0.4622773826122284
188 244 0.4763065576553345
188 245 0.47403448820114136
188 246 0.4917944371700287
188 247 0.47933343052864075
188 248 0.4900107979774475
188 249 0.4889023005962372
188 250 0.4709607660770416
188 251 0.09166985005140305
188 252 0.4792433977127075
188 254 0.474043607711792
188 255 0.445893257856369
189 190 0.9072895050048828
189 191 0.9302034378051758
189 192 0.10594028234481812
189 193 0.925545334815979
189 194 0.13000398874282837
189 195 0.9212237596511841
189 196 0.932036280632019
189 197 0.10101009905338287
189 198 0.261941134929657
189 199 0.8979616761207581
189 200 0.8789836764335632
189 201 0.9176083207130432
189 202 0.9189528226852417
189 204 0.19245009124279022
189 205 0.8813952803611755
189 206 0.9080201983451843
189 208 0.93808513879776
189 209 0.925548791885376
189 210 0.8741951584815979
189 211 0.5405526757240295
189 212 0.4304259121417999
189 213 0.17810797691345215
189 214 0.9239863753318787
189 215 0.2272680550813675
189 216 0.922547459602356
189 217 0.9170037508010864
189 218 0.909241259098053
189 219 0.9262650609016418
189 220 0.9282951354980469
189 221 0.8532602787017822
189 222 0.9285339713096619
189 223 0.925545334815979
189 224 0.2345762401819229
189 225 0.923505961894989
189 226 0.10887909680604935
189 227 0.9215760827064514
189 228 0.8957266211509705
189 229 0.922547459602356
189 230 0.15044516324996948
189 231 0.6440946459770203
189 232 0.6867066621780396
189 233 0.13834288716316223
189 234 0.9263831973075867
189 235 0.8117326498031616
189 236 0.9309180974960327
189 237 0.916881799697876
189 238 0.9331924915313721
189 239 0.919671893119812
189 240 0.9282951354980469
189 241 0.9180895686149597
189 242 0.10594028234481812
189 243 0.9320026636123657
189 244 0.9007857441902161
189 245 0.8864412307739258
189 246 0.9055680632591248
189 247 0.9217039942741394
189 248 0.924972653388977
189 249 0.9111812114715576
189 250 0.9314402937889099
189 251 0.0947558730840683
189 252 0.916881799697876
189 253 0.06356416642665863
189 254 0.9236322045326233
189 255 0.79117751121521
190 191 0.9573020339012146
190 192 0.10330711305141449
190 193 0.956063449382782
190 194 0.13469599187374115
190 195 0.9478819966316223
190 196 0.945773184299469
190 197 0.10834941267967224
190 198 0.25942161679267883
190 199 0.9381114840507507
190 200 0.8959457278251648
190 201 0.9394346475601196
190 202 0.9461919665336609
190 205 0.9329390525817871
190 206 0.9252587556838989
190 208 0.9577303528785706
190 209 0.945773184299469
190 210 0.9055386781692505
190 211 0.5708975195884705
190 212 0.4307151436805725
190 213 0.1064496785402298
190 214 0.949496328830719
190 215 0.17918150126934052
190 216 0.9585396647453308
190 217 0.9409953951835632
190 218 0.92963045835495
190 219 0.9548262357711792
190 220 0.9513747692108154
190 221 0.8891986608505249
190 222 0.953606367111206
190 223 0.9550139307975769
190 224 0.2171146273612976
190 225 0.9584822058677673
190 226 0.1306743025779724
190 227 0.9351315498352051
190 228 0.9254162311553955
190 229 0.9522265195846558
190 230 0.10669512301683426
190 231 0.5546728372573853
190 232 0.662391185760498
190 233 0.13490433990955353
190 234 0.9517329931259155
190 235 0.8482688665390015
190 236 0.9600111246109009
190 237 0.9470599889755249
190 238 0.9529814720153809
190 239 0.9414941668510437
190 240 0.9513747692108154
190 241 0.9471238851547241
190 242 0.051653556525707245
190 243 0.951865553855896
190 244 0.930066704750061
190 245 0.9415101408958435
190 246 0.9302709102630615
190 247 0.9483760595321655
190 248 0.9422587752342224
190 249 0.9418668150901794
190 250 0.953650712966919
190 251 0.06930050998926163
190 252 0.9438818693161011
190 253 0.08264569193124771
190 254 0.9450744986534119
190 255 0.8616425395011902
191 192 0.10127393156290054
191 193 0.9711980819702148
191 194 0.13204506039619446
191 195 0.9664373397827148
191 196 0.9695382118225098
191 197 0.10621700435876846
191 198 0.26214107871055603
191 199 0.9502684473991394
191 200 0.9228806495666504
191 201 0.9594921469688416
191 202 0.9557731747627258
191 204 0.18397323787212372
191 205 0.9360722303390503
191 206 0.9492371678352356
191 208 0.97791588306427
191 209 0.9664373397827148
191 210 0.920233964920044
191 211 0.5716790556907654
191 212 0.4610153138637543
191 213 0.16477051377296448
191 214 0.9700667262077332
191 215 0.22188007831573486
191 216 0.9685561060905457
191 217 0.958957850933075
191 218 0.9482093453407288
191 219 0.9721548557281494
191 220 0.9727538824081421
191 221 0.8941071629524231
191 222 0.973832905292511
191 223 0.9711980819702148
191 224 0.2280445694923401
191 225 0.9685298204421997
191 226 0.12810252606868744
191 227 0.95772784948349
191 228 0.9432792067527771
191 229 0.9706190228462219
191 230 0.14381851255893707
191 231 0.6109263896942139
191 232 0.7175583243370056
191 233 0.13959649205207825
191 234 0.9721778631210327
191 235 0.8481346964836121
191 236 0.975935697555542
191 237 0.9616531133651733
191 238 0.9732806086540222
191 239 0.9584233164787292
191 240 0.971725583076477
191 241 0.9647931456565857
191 242 0.10127393156290054
191 243 0.9711980819702148
191 244 0.9529182314872742
191 245 0.938948929309845
191 246 0.9540368318557739
191 247 0.9669410586357117
191 248 0.961120069026947
191 249 0.9588829874992371
191 250 0.9679751992225647
191 251 0.09058216214179993
191 252 0.9616531133651733
191 253 0.10127393156290054
191 254 0.9679275751113892
191 255 0.8505752086639404
192 193 0.10158699750900269
192 195 0.09185586124658585
192 196 0.10206206887960434
192 198 0.19316686689853668
192 199 0.0834057629108429
192 200 0.1073346957564354
192 201 0.10286889225244522
192 202 0.10314212739467621
192 205 0.053059544414281845
192 206 0.10414406657218933
192 208 0.10143010318279266
192 209 0.08164965361356735
192 210 0.07491881400346756
192 214 0.06120537221431732
192 216 0.10185010731220245
192 217 0.10292337089776993
192 218 0.052015647292137146
192 219 0.10190297663211823
192 220 0.08122768998146057
192 221 0.11063408851623535
192 222 0.0911933183670044
192 223 0.10158699750900269
192 225 0.10195592790842056
192 226 0.07905694097280502
192 227 0.10380685329437256
192 228 0.052385468035936356
192 229 0.10185010731220245
192 231 0.06316664814949036
192 232 0.07015169411897659
192 233 0.07254762947559357
192 234 0.10179731994867325
192 235 0.09344110637903214
192 236 0.10111849009990692
192 237 0.09228949248790741
192 238 0.09133408963680267
192 239 0.08238234370946884
192 240 0.10153461992740631
192 241 0.10243622213602066
192 243 0.10158699750900269
192 244 0.0937805324792862
192 245 0.09460590034723282
192 246 0.08309026062488556
192 247 0.10211528092622757
192 248 0.10259783267974854
192 249 0.10325203090906143
192 250 0.10211528092622757
192 251 0.11180339008569717
192 252 0.10254388302564621
192 254 0.10232890397310257
192 255 0.11632627248764038
193 194 0.0934963971376419
193 195 0.9673510789871216
193 196 0.9632037878036499
193 197 0.0678015798330307
193 198 0.24332816898822784
193 199 0.9436737895011902
193 200 0.9181008338928223
193 201 0.9572330713272095
193 202 0.9555843472480774
193 204 0.16776539385318756
193 205 0.9271074533462524
193 206 0.9479395747184753
193 208 0.9696044325828552
193 209 0.9642406702041626
193 210 0.9241658449172974
193 211 0.580334484577179
193 212 0.4516356885433197
193 213 0.17629851400852203
193 214 0.9647751450538635
193 215 0.17156125605106354
193 216 0.9694806933403015
193 217 0.9650588631629944
193 218 0.9458563327789307
193 219 0.9699839949607849
193 220 0.9706035852432251
193 221 0.8968709707260132
193 222 0.9716964960098267
193 223 0.9752321839332581
193 224 0.2592494785785675
193 225 0.9715237617492676
193 226 0.12849850952625275
193 227 0.945924699306488
193 228 0.9376803636550903
193 229 0.9653420448303223
193 230 0.15737789869308472
193 231 0.6256486773490906
193 232 0.6955463886260986
193 233 0.14002801477909088
193 234 0.9658758640289307
193 235 0.835331380367279
193 236 0.9768979549407959
193 237 0.9635840654373169
193 238 0.9711344838142395
193 239 0.9551092386245728
193 240 0.9736979603767395
193 241 0.963612973690033
193 242 0.10158699750900269
193 243 0.9690402746200562
193 244 0.9431613683700562
193 245 0.9418514370918274
193 246 0.946434736251831
193 247 0.9678552746772766
193 248 0.9609642028808594
193 249 0.9513580799102783
193 250 0.9626684784889221
193 251 0.09086216986179352
193 252 0.9594172239303589
193 253 0.10158699750900269
193 254 0.9615639448165894
193 255 0.861476480960846
194 195 0.10958925634622574
194 196 0.1252448707818985
194 197 0.21938170492649078
194 198 0.08889132738113403
194 199 0.11994244158267975
194 200 0.13171513378620148
194 201 0.11045558005571365
194 202 0.08701703697443008
194 205 0.13022339344024658
194 206 0.1357872486114502
194 208 0.1322486698627472
194 209 0.09393364191055298
194 210 0.13133740425109863
194 212 0.16314712166786194
194 214 0.13300341367721558
194 215 0.10502100735902786
194 216 0.1171732023358345
194 217 0.09472634643316269
194 218 0.11968254297971725
194 219 0.12504960596561432
194 220 0.13238495588302612
194 221 0.14424920082092285
194 222 0.12434149533510208
194 223 0.11687050759792328
194 225 0.09383594244718552
194 227 0.13534757494926453
194 228 0.13660457730293274
194 229 0.1249847486615181
194 231 0.09689321368932724
194 232 0.06456466764211655
194 233 0.05564149096608162
194 234 0.1327274739742279
194 235 0.13437387347221375
194 236 0.13184238970279694
194 237 0.11797134578227997
194 238 0.13231676816940308
194 239 0.13426679372787476
194 240 0.10123554617166519
194 241 0.07856499403715134
194 243 0.1246618703007698
194 244 0.13586094975471497
194 245 0.12899450957775116
194 246 0.135420560836792
194 247 0.09398259967565536
194 248 0.11016452312469482
194 249 0.1346241682767868
194 250 0.13314202427864075
194 251 0.08574929088354111
194 252 0.1258361041545868
194 253 0.0766964927315712
194 254 0.13342057168483734
194 255 0.14274907112121582
195 196 0.9593750238418579
195 197 0.10704360902309418
195 198 0.20503608882427216
195 199 0.940638542175293
195 200 0.9092485904693604
195 201 0.9512105584144592
195 202 0.9600532054901123
195 204 0.1854049563407898
195 205 0.9216954708099365
195 206 0.9385547041893005
195 208 0.9648219347000122
195 209 0.9624999761581421
195 210 0.9175643920898438
195 211 0.5916990637779236
195 212 0.47762927412986755
195 213 0.1881931573152542
195 214 0.9588757753372192
195 215 0.16304662823677063
195 216 0.9719355702400208
195 217 0.9506637454032898
195 218 0.9439090490341187
195 219 0.9599595665931702
195 220 0.965816080570221
195 221 0.8807405233383179
195 222 0.9679675102233887
195 223 0.9673510789871216
195 224 0.26812246441841125
195 225 0.9594177603721619
195 226 0.12909944355487823
195 227 0.9408131837844849
195 228 0.9345802664756775
195 229 0.9605010151863098
195 230 0.15811389684677124
195 231 0.6317980289459229
195 232 0.6959351897239685
195 233 0.12587414681911469
195 234 0.9610422849655151
195 235 0.8380457162857056
195 236 0.9680500030517578
195 237 0.9607641696929932
195 238 0.9642828702926636
195 239 0.9511677026748657
195 240 0.9689249396324158
195 241 0.967073917388916
195 242 0.10206206887960434
195 243 0.9642406702041626
195 244 0.936937153339386
195 245 0.9344546794891357
195 246 0.9402603507041931
195 247 0.9619594216346741
195 248 0.9591755270957947
195 249 0.9473766088485718
195 250 0.9577906131744385
195 251 0.09128709137439728
195 252 0.9544847011566162
195 253 0.10206206887960434
195 254 0.9587500095367432
195 255 0.8512582182884216
196 197 0.10704360902309418
196 198 0.26418110728263855
196 199 0.9385103583335876
196 200 0.9081531167030334
196 201 0.9512105584144592
196 202 0.9526843428611755
196 204 0.1854049563407898
196 205 0.9206123948097229
196 206 0.9438693523406982
196 208 0.9648219347000122
196 209 0.9593750238418579
196 210 0.9164720177650452
196 211 0.5951592922210693
196 212 0.4494057297706604
196 213 0.1881931573152542
196 214 0.9588757753372192
196 215 0.22360680997371674
196 216 0.9605010151863098
196 217 0.9506637454032898
196 218 0.9481561183929443
196 219 0.9599595665931702
196 220 0.9637435078620911
196 221 0.8841279745101929
196 222 0.9679675102233887
196 223 0.9632037878036499
196 224 0.2719528079032898
196 225 0.9594177603721619
196 226 0.12909944355487823
196 227 0.9418726563453674
196 228 0.9377882480621338
196 229 0.9656984806060791
196 230 0.14493773877620697
196 231 0.6205159425735474
196 232 0.7073909044265747
196 233 0.1406828761100769
196 234 0.9610422849655151
196 235 0.8368536233901978
196 236 0.9680500030517578
196 237 0.9534381031990051
196 238 0.9663543701171875
196 239 0.9522187113761902
196 240 0.9637435078620911
196 241 0.9555734992027283
196 242 0.10206206887960434
196 243 0.9652774333953857
196 244 0.9401276707649231
196 245 0.9280176162719727
196 246 0.9455605745315552
196 247 0.9577906131744385
196 248 0.9549869298934937
196 249 0.9473766088485718
196 250 0.9577906131744385
196 251 0.09128709137439728
196 252 0.9565778374671936
196 253 0.09185586124658585
196 254 0.9566612839698792
196 255 0.8346366882324219
197 199 0.10934588313102722
197 200 0.08187169581651688
197 201 0.07846531271934509
197 202 0.10817637294530869
197 205 0.11129863560199738
197 206 0.10922722518444061
197 208 0.10638079792261124
197 209 0.10704360902309418
197 210 0.11225074529647827
197 211 0.09697622805833817
197 212 0.10140924155712128
197 214 0.0875355526804924
197 216 0.10682129114866257
197 217 0.058880146592855453
197 218 0.10910895466804504
197 219 0.06801246851682663
197 220 0.10649040341377258
197 221 0.07383982837200165
197 222 0.10627152025699615
197 223 0.1065453439950943
197 225 0.06804780662059784
197 227 0.10887353867292404
197 228 0.10988467931747437
197 229 0.09711026400327682
197 234 0.10676592588424683
197 235 0.12250234186649323
197 236 0.10605397075414658
197 237 0.10754892975091934
197 238 0.07740767300128937
197 239 0.10800416767597198
197 240 0.08712851256132126
197 241 0.09766910970211029
197 243 0.0968594029545784
197 244 0.09935136884450912
197 245 0.07015803456306458
197 246 0.08912638574838638
197 247 0.09736309200525284
197 248 0.10760551691055298
197 249 0.10829164832830429
197 250 0.09736309200525284
197 252 0.08799457550048828
197 253 0.09534625709056854
197 254 0.10732346028089523
197 255 0.07763891667127609
198 199 0.26180750131607056
198 200 0.27368226647377014
198 201 0.25037285685539246
198 202 0.2151753008365631
198 205 0.20498690009117126
198 206 0.2655467987060547
198 208 0.26254528760910034
198 209 0.24052311480045319
198 210 0.20260564982891083
198 214 0.2522207796573639
198 215 0.21160368621349335
198 216 0.2242843508720398
198 217 0.254481703042984
198 218 0.213011234998703
198 219 0.25589561462402344
198 220 0.21182170510292053
198 221 0.2564500570297241
198 222 0.23878827691078186
198 223 0.1962323933839798
198 225 0.2599674463272095
198 226 0.061084721237421036
198 227 0.2686973810195923
198 228 0.2590498626232147
198 229 0.25969764590263367
198 231 0.1281178742647171
198 232 0.2601788341999054
198 234 0.25956305861473083
198 235 0.21659670770168304
198 236 0.2578321695327759
198 237 0.22977371513843536
198 238 0.24699804186820984
198 239 0.2546165883541107
198 240 0.20397645235061646
198 241 0.21370263397693634
198 243 0.26295140385627747
198 244 0.2455628365278244
198 245 0.21117457747459412
198 246 0.25680455565452576
198 247 0.22881333529949188
198 248 0.2417857050895691
198 249 0.247316375374794
198 250 0.2643188536167145
198 252 0.2535434067249298
198 254 0.25696519017219543
198 255 0.1527985781431198
199 200 0.8918761610984802
199 201 0.9405670762062073
199 202 0.9280105829238892
199 204 0.14347925782203674
199 205 0.9271364212036133
199 206 0.9163957238197327
199 208 0.9443313479423523
199 209 0.9374462962150574
199 210 0.8937817811965942
199 211 0.5991232395172119
199 212 0.4612891972064972
199 213 0.18093250691890717
199 214 0.9390854239463806
199 215 0.22365744411945343
199 216 0.9429324269294739
199 217 0.9314076900482178
199 218 0.938180148601532
199 219 0.948733925819397
199 220 0.9431872963905334
199 221 0.8604664206504822
199 222 0.9454741477966309
199 223 0.9436737895011902
199 224 0.25823840498924255
199 225 0.9428490400314331
199 226 0.13187609612941742
199 227 0.9231688380241394
199 228 0.9164501428604126
199 229 0.9450560808181763
199 230 0.1480550318956375
199 231 0.5712988376617432
199 232 0.6874991059303284
199 233 0.09076335281133652
199 234 0.9392597675323486
199 235 0.8475461006164551
199 236 0.9467013478279114
199 237 0.9375953078269958
199 238 0.9448175430297852
199 239 0.9286805987358093
199 240 0.9431872963905334
199 241 0.9344750046730042
199 242 0.09383148699998856
199 243 0.9447329044342041
199 244 0.9147204160690308
199 245 0.9282505512237549
199 246 0.9204180836677551
199 247 0.9400641322135925
199 248 0.9316707253456116
199 249 0.9333053827285767
199 250 0.9368703365325928
199 251 0.09325047582387924
199 252 0.951493501663208
199 253 0.09383148699998856
199 254 0.9345628619194031
199 255 0.8319706916809082
200 201 0.9009784460067749
200 202 0.9000502228736877
200 204 0.1890745759010315
200 205 0.8679378032684326
200 206 0.8987330198287964
200 208 0.917771577835083
200 209 0.9092485904693604
200 210 0.8558335304260254
200 211 0.5185557007789612
200 212 0.45892325043678284
200 213 0.18045227229595184
200 214 0.915344774723053
200 215 0.22536028921604156
200 216 0.9117330312728882
200 217 0.9169216156005859
200 218 0.886593759059906
200 219 0.916581392288208
200 220 0.9143579602241516
200 221 0.8763659000396729
200 222 0.919003963470459
200 223 0.9137392640113831
200 224 0.2416919767856598
200 225 0.9203405976295471
200 226 0.1357688456773758
200 227 0.9114218950271606
200 228 0.889523446559906
200 229 0.9117330312728882
200 230 0.15935379266738892
200 231 0.6339274048805237
200 232 0.7032749652862549
200 233 0.147950679063797
200 234 0.9156310558319092
200 235 0.7697620987892151
200 236 0.931232213973999
200 237 0.9025343656539917
200 238 0.9171547889709473
200 239 0.9041439890861511
200 240 0.9165375232696533
200 241 0.9103827476501465
200 242 0.1073346957564354
200 243 0.9181008338928223
200 244 0.8992207646369934
200 245 0.8868259787559509
200 246 0.9096837639808655
200 247 0.9152027368545532
200 248 0.9085153937339783
200 249 0.9065504670143127
200 250 0.9141066670417786
200 251 0.09600307792425156
200 252 0.9069370031356812
200 253 0.1073346957564354
200 254 0.9116256237030029
200 255 0.7978454828262329
201 202 0.948544442653656
201 204 0.17554515600204468
201 205 0.9136987924575806
201 206 0.9288332462310791
201 208 0.9609717130661011
201 209 0.9564601182937622
201 210 0.9027985334396362
201 211 0.5527817606925964
201 212 0.4420173764228821
201 213 0.17852318286895752
201 214 0.9517649412155151
201 215 0.22537446022033691
201 216 0.9523782730102539
201 217 0.9433563947677612
201 218 0.9331782460212708
201 219 0.9560173749923706
201 220 0.9556950330734253
201 221 0.8740459680557251
201 222 0.9589422345161438
201 223 0.9561880230903625
201 224 0.2509390711784363
201 225 0.9533677101135254
201 226 0.13012000918388367
201 227 0.9365041255950928
201 228 0.9247241020202637
201 229 0.9523782730102539
201 230 0.13944333791732788
201 231 0.6156743764877319
201 232 0.6913337707519531
201 233 0.1343320906162262
201 234 0.9560733437538147
201 235 0.842267632484436
201 236 0.961139976978302
201 237 0.947262167930603
201 238 0.9593784809112549
201 239 0.943856418132782
201 240 0.9556950330734253
201 241 0.947321355342865
201 242 0.10286889225244522
201 243 0.9572330713272095
201 244 0.9325529932975769
201 245 0.9267030954360962
201 246 0.9370090961456299
201 247 0.9590595364570618
201 248 0.9477605223655701
201 249 0.9421201944351196
201 250 0.9569586515426636
201 251 0.08050764352083206
201 252 0.9493718147277832
201 253 0.08229511231184006
201 254 0.9473815560340881
201 255 0.8268750905990601
202 204 0.13058911263942719
202 205 0.9095584154129028
202 206 0.9302260875701904
202 208 0.9562008380889893
202 209 0.956895112991333
202 210 0.90409255027771
202 211 0.5857216119766235
202 212 0.4453853964805603
202 213 0.15102900564670563
202 214 0.9479799270629883
202 215 0.16006426513195038
202 216 0.9570087790489197
202 217 0.9426773190498352
202 218 0.9388757944107056
202 219 0.9511992335319519
202 220 0.952997088432312
202 221 0.8775085806846619
202 222 0.9562637209892273
202 223 0.9555843472480774
202 224 0.26708900928497314
202 225 0.9537967443466187
202 226 0.13046561181545258
202 227 0.9293553829193115
202 228 0.921777069568634
202 229 0.9496552348136902
202 230 0.15312929451465607
202 231 0.6156809329986572
202 232 0.6685689091682434
202 233 0.13468889892101288
202 234 0.9502130150794983
202 235 0.8324576020240784
202 236 0.9616068601608276
202 237 0.9518933892250061
202 238 0.9545996785163879
202 239 0.9410527348518372
202 240 0.952997088432312
202 241 0.9572332501411438
202 242 0.09282791614532471
202 243 0.9566320776939392
202 244 0.9285814166069031
202 245 0.9194066524505615
202 246 0.9298564791679382
202 247 0.9531809091567993
202 248 0.9523942470550537
202 249 0.937167763710022
202 250 0.9521276950836182
202 251 0.09225311875343323
202 252 0.9466051459312439
202 253 0.10314212739467621
202 254 0.9456760287284851
202 255 0.8410694599151611
204 205 0.1343582719564438
204 206 0.17772121727466583
204 208 0.1842569261789322
204 209 0.1854049563407898
204 210 0.1767490953207016
204 211 0.09331542253494263
204 212 0.23419460654258728
204 213 0.23883259296417236
204 214 0.1796930581331253
204 215 0.15075567364692688
204 216 0.16259324550628662
204 217 0.1756381094455719
204 218 0.18898223340511322
204 219 0.1514585018157959
204 220 0.1844467967748642
204 221 0.1157139241695404
204 222 0.18406765162944794
204 223 0.18454192578792572
204 225 0.12347476184368134
204 227 0.17143136262893677
204 228 0.18455840647220612
204 229 0.1738065779209137
204 230 0.10660035908222198
204 231 0.27817675471305847
204 232 0.23170343041419983
204 234 0.18492402136325836
204 235 0.09644558280706406
204 236 0.1669916957616806
204 237 0.1749904900789261
204 238 0.17876537144184113
204 239 0.18706868588924408
204 240 0.1844467967748642
204 241 0.18044571578502655
204 242 0.11009637266397476
204 243 0.18454192578792572
204 244 0.17781765758991241
204 245 0.13887688517570496
204 246 0.1772412657737732
204 247 0.17425908148288727
204 248 0.180730402469635
204 249 0.164831280708313
204 250 0.16301657259464264
204 252 0.15805593132972717
204 254 0.18588967621326447
204 255 0.07043905556201935
205 206 0.8962907195091248
205 208 0.9332102537155151
205 209 0.926027774810791
205 210 0.898385763168335
205 211 0.5828393697738647
205 212 0.4830712378025055
205 213 0.14387789368629456
205 214 0.9298758506774902
205 215 0.2179643213748932
205 216 0.9349128007888794
205 217 0.91745924949646
205 218 0.9129836559295654
205 219 0.9299911260604858
205 220 0.9363267421722412
205 221 0.8617444634437561
205 222 0.9311763644218445
205 223 0.9303415417671204
205 224 0.20311149954795837
205 225 0.9304743409156799
205 226 0.0922839567065239
205 227 0.9066075682640076
205 228 0.905021071434021
205 229 0.9338319301605225
205 230 0.09589941054582596
205 231 0.5345791578292847
205 232 0.653621256351471
205 233 0.10008293390274048
205 234 0.9301071763038635
205 235 0.8155816793441772
205 236 0.9292701482772827
205 237 0.9216938018798828
205 238 0.928305983543396
205 239 0.9168528318405151
205 240 0.9277069568634033
205 241 0.9174649715423584
205 242 0.08489526808261871
205 243 0.9249513745307922
205 244 0.9056233167648315
205 245 0.9191712737083435
205 246 0.9126074314117432
205 247 0.9232595562934875
205 248 0.9178237318992615
205 249 0.9236760139465332
205 250 0.9210922718048096
205 251 0.0711868479847908
205 252 0.9238701462745667
205 253 0.07428336143493652
205 254 0.9241051077842712
205 255 0.8357183933258057
206 208 0.9443629384040833
206 209 0.9374918341636658
206 210 0.8983849287033081
206 211 0.5861152410507202
206 212 0.4452812969684601
206 213 0.18073615431785583
206 214 0.9391287565231323
206 215 0.2044007033109665
206 216 0.9408483505249023
206 217 0.9325406551361084
206 218 0.9187437891960144
206 219 0.9392142295837402
206 220 0.9485082030296326
206 221 0.8526194095611572
206 222 0.9465585350990295
206 223 0.9489975571632385
206 224 0.2735919952392578
206 225 0.9407640695571899
206 226 0.12349967658519745
206 227 0.9189237356185913
206 228 0.911091148853302
206 229 0.942969799041748
206 230 0.16133929789066315
206 231 0.6134387254714966
206 232 0.6736023426055908
206 233 0.14355269074440002
206 234 0.9424811005592346
206 235 0.8137831091880798
206 236 0.9498863816261292
206 237 0.9429854154586792
206 238 0.9448490738868713
206 239 0.9341075420379639
206 240 0.9474508166313171
206 241 0.9451958537101746
206 242 0.10414406657218933
206 243 0.9447656869888306
206 244 0.9180684685707092
206 245 0.9086326360702515
206 246 0.9215826392173767
206 247 0.9390439987182617
206 248 0.9370706677436829
206 249 0.924765408039093
206 250 0.9379805326461792
206 251 0.09314928203821182
206 252 0.9344419836997986
206 253 0.10414406657218933
206 254 0.9356800317764282
206 255 0.8201645612716675
208 209 0.9648219347000122
208 210 0.9173106551170349
208 211 0.5588054656982422
208 212 0.45309579372406006
208 213 0.16502459347248077
208 214 0.9715625643730164
208 215 0.2222222238779068
208 216 0.9669504165649414
208 217 0.9583486318588257
208 218 0.9465058445930481
208 219 0.9684858918190002
208 220 0.9701343774795532
208 221 0.8909971714019775
208 222 0.972251296043396
208 223 0.9696044325828552
208 224 0.20936322212219238
208 225 0.9669209122657776
208 226 0.12028130143880844
208 227 0.9560458660125732
208 228 0.9404829740524292
208 229 0.9669504165649414
208 230 0.13749298453330994
208 231 0.6166736483573914
208 232 0.7058569192886353
208 233 0.13981175422668457
208 234 0.9705793857574463
208 235 0.8423343300819397
208 236 0.9743635654449463
208 237 0.9600156545639038
208 238 0.9716933965682983
208 239 0.9599011540412903
208 240 0.9701343774795532
208 241 0.9610857963562012
208 242 0.0710010677576065
208 243 0.9716652035713196
208 244 0.9480461478233337
208 245 0.935065746307373
208 246 0.9512939453125
208 247 0.9653248190879822
208 248 0.9626021385192871
208 249 0.9614089131355286
208 250 0.971539318561554
208 251 0.0680413767695427
208 252 0.9600156545639038
208 253 0.08114407956600189
208 254 0.9631926417350769
208 255 0.843627393245697
209 210 0.9121026992797852
209 211 0.5743979215621948
209 212 0.4559188485145569
209 213 0.1881931573152542
209 214 0.9609580039978027
209 215 0.2189483344554901
209 216 0.9605010151863098
209 217 0.9559160470962524
209 218 0.9449708461761475
209 219 0.960999608039856
209 220 0.9637435078620911
209 221 0.8784822225570679
209 222 0.9679675102233887
209 223 0.9632037878036499
209 224 0.2719528079032898
209 225 0.9614989161491394
209 226 0.12909944355487823
209 227 0.9408131837844849
209 228 0.933510959148407
209 229 0.9605010151863098
209 230 0.15811389684677124
209 231 0.6156807541847229
209 232 0.6945031881332397
209 233 0.11106541752815247
209 234 0.962081253528595
209 235 0.840429961681366
209 236 0.9680500030517578
209 237 0.9534381031990051
209 238 0.9642828702926636
209 239 0.950116753578186
209 240 0.965816080570221
209 241 0.9587100148200989
209 242 0.09185586124658585
209 243 0.9663142561912537
209 244 0.9411911368370056
209 245 0.9301632642745972
209 246 0.9445005655288696
209 247 0.9619594216346741
209 248 0.9549869298934937
209 249 0.9494842290878296
209 250 0.9577906131744385
209 252 0.9555312395095825
209 253 0.08164965361356735
209 254 0.95561683177948
209 255 0.8358240127563477
210 211 0.5678682327270508
210 212 0.47126707434654236
210 213 0.12769564986228943
210 214 0.9170868396759033
210 215 0.12212716042995453
210 216 0.9243793487548828
210 217 0.8999719023704529
210 218 0.9107730984687805
210 219 0.9128620624542236
210 220 0.9323829412460327
210 221 0.8572754859924316
210 222 0.9272130131721497
210 223 0.9328638911247253
210 224 0.24099883437156677
210 225 0.9122452139854431
210 226 0.05076730623841286
210 227 0.8899209499359131
210 228 0.9071564674377441
210 229 0.9221991896629333
210 230 0.13817112147808075
210 231 0.5526732802391052
210 232 0.623173713684082
210 233 0.14752636849880219
210 234 0.9260792136192322
210 235 0.8175581693649292
210 236 0.9231504797935486
210 237 0.9350659251213074
210 238 0.9221274852752686
210 239 0.922491729259491
210 240 0.9182559251785278
210 241 0.9176390171051025
210 242 0.09632419049739838
210 243 0.9154678583145142
210 244 0.9111400246620178
210 245 0.8910329937934875
210 246 0.8904008269309998
210 247 0.909299373626709
210 248 0.9092041850090027
210 249 0.9050558805465698
210 250 0.909299373626709
210 251 0.09572775661945343
210 252 0.9043360352516174
210 253 0.08562150597572327
210 254 0.9232488870620728
210 255 0.8217024803161621
211 212 0.18390114605426788
211 213 0.2206389307975769
211 214 0.563723623752594
211 216 0.5870171189308167
211 217 0.5809898972511292
211 218 0.5942980051040649
211 219 0.5735025405883789
211 220 0.5989682078361511
211 221 0.4819837808609009
211 222 0.5839958786964417
211 223 0.5872227549552917
211 224 0.30536723136901855
211 225 0.584170401096344
211 226 0.09380985051393509
211 227 0.5120700597763062
211 228 0.5612266659736633
211 229 0.6008293032646179
211 230 0.06565321981906891
211 231 0.44704851508140564
211 232 0.4138355255126953
211 234 0.557377278804779
211 235 0.5385515093803406
211 236 0.5639451742172241
211 237 0.5823242664337158
211 238 0.5883378982543945
211 239 0.5533676743507385
211 240 0.5972470045089722
211 241 0.5869223475456238
211 242 0.1017095223069191
211 243 0.5717241764068604
211 244 0.5422741770744324
211 245 0.5648658275604248
211 246 0.5563621520996094
211 247 0.5798903703689575
211 248 0.5808915495872498
211 249 0.5443388819694519
211 250 0.5452700853347778
211 251 0.07580980658531189
211 252 0.5997071266174316
211 253 0.06780634820461273
211 254 0.5793688893318176
211 255 0.5343889594078064
212 213 0.10382618755102158
212 214 0.46002140641212463
212 215 0.07767356187105179
212 216 0.46797114610671997
212 217 0.40065351128578186
212 218 0.47799307107925415
212 219 0.44870516657829285
212 220 0.4751608967781067
212 221 0.4000753164291382
212 222 0.47633954882621765
212 223 0.4732450544834137
212 224 0.0798315778374672
212 225 0.416406512260437
212 227 0.43059054017066956
212 228 0.4747055172920227
212 229 0.44847238063812256
212 230 0.15103964507579803
212 231 0.2956067621707916
212 232 0.2506982684135437
212 234 0.4763902723789215
212 235 0.37517058849334717
212 236 0.46245864033699036
212 237 0.47552141547203064
212 238 0.45332902669906616
212 239 0.47315317392349243
212 240 0.45140281319618225
212 241 0.47502216696739197
212 242 0.0850871205329895
212 243 0.4581184983253479
212 244 0.43222376704216003
212 245 0.45838820934295654
212 246 0.4308227300643921
212 247 0.4431234300136566
212 248 0.4714067280292511
212 249 0.4590380787849426
212 250 0.45832863450050354
212 251 0.11891287565231323
212 252 0.46461495757102966
212 253 0.12763068079948425
212 254 0.46799436211586
212 255 0.4256082773208618
213 214 0.1770308017730713
213 215 0.17327582836151123
213 216 0.1601843237876892
213 217 0.1897813230752945
213 218 0.17489856481552124
213 219 0.17132040858268738
213 220 0.18722058832645416
213 221 0.09599961340427399
213 222 0.18683575093746185
213 223 0.16527985036373138
213 224 0.40706273913383484
213 225 0.17140941321849823
213 227 0.1407429277896881
213 228 0.1875060349702835
213 229 0.18227870762348175
213 230 0.14002801477909088
213 231 0.14559191465377808
213 232 0.19783450663089752
213 234 0.14905984699726105
213 235 0.139357790350914
213 236 0.1590336710214615
213 237 0.1279081255197525
213 238 0.18712414801120758
213 239 0.16754287481307983
213 240 0.18722058832645416
213 241 0.16666151583194733
213 242 0.10846523195505142
213 243 0.18731717765331268
213 244 0.1469278186559677
213 245 0.15962256491184235
213 246 0.18024808168411255
213 247 0.17167732119560242
213 248 0.17248861491680145
213 249 0.16238918900489807
213 250 0.13844946026802063
213 252 0.1890815645456314
213 253 0.05423261597752571
213 254 0.1609373539686203
213 255 0.10724751651287079
214 215 0.22349043190479279
214 216 0.9641570448875427
214 217 0.9554186463356018
214 218 0.9412953853607178
214 219 0.9646574854850769
214 220 0.9642777442932129
214 221 0.8881821036338806
214 222 0.9684972763061523
214 223 0.9637388586997986
214 224 0.24501299858093262
214 225 0.9620386362075806
214 226 0.10483870655298233
214 227 0.9445591568946838
214 228 0.939437747001648
214 229 0.961040198802948
214 230 0.14486229419708252
214 231 0.6185820698738098
214 232 0.7041603326797485
214 233 0.13320913910865784
214 234 0.9646956920623779
214 235 0.829269289970398
214 236 0.969609260559082
214 237 0.9560800194740295
214 238 0.9668866395950317
214 239 0.9580260515213013
214 240 0.9653134942054749
214 241 0.9561212062835693
214 242 0.0816071629524231
214 243 0.9658114314079285
214 244 0.9407013058662415
214 245 0.93182373046875
214 246 0.9450684785842896
214 247 0.9593755602836609
214 248 0.9534433484077454
214 249 0.9479368925094604
214 250 0.9614588618278503
214 251 0.05702473968267441
214 252 0.9539879560470581
214 253 0.09180806577205658
214 254 0.959294855594635
214 255 0.8425087928771973
215 216 0.15805920958518982
215 217 0.21140044927597046
215 218 0.20892773568630219
215 219 0.22325822710990906
215 220 0.19927920401096344
215 221 0.18684008717536926
215 222 0.21274422109127045
215 223 0.17156125605106354
215 224 0.06851887702941895
215 225 0.2094133496284485
215 227 0.22269131243228912
215 228 0.2295415997505188
215 229 0.21849361062049866
215 231 0.12974172830581665
215 232 0.288177490234375
215 234 0.21838036179542542
215 235 0.20258672535419464
215 236 0.20769327878952026
215 237 0.15445539355278015
215 238 0.22233660519123077
215 239 0.22091306746006012
215 240 0.19927920401096344
215 241 0.1729954481124878
215 242 0.09128709137439728
215 243 0.22256594896316528
215 244 0.2092677354812622
215 245 0.16313005983829498
215 246 0.22281137108802795
215 247 0.20974063873291016
215 248 0.21541473269462585
215 249 0.22150106728076935
215 250 0.21440155804157257
215 252 0.21998192369937897
215 254 0.1961674690246582
215 255 0.0849526897072792
216 217 0.9539307951927185
216 218 0.9419487714767456
216 219 0.9621174335479736
216 220 0.9669126868247986
216 221 0.8901793956756592
216 222 0.9700852036476135
216 223 0.9694806933403015
216 224 0.2599209249019623
216 225 0.9646941423416138
216 226 0.12883132696151733
216 227 0.9441456198692322
216 228 0.9390419125556946
216 229 0.9626556038856506
216 230 0.14463672041893005
216 231 0.6160104274749756
216 232 0.6902028322219849
216 233 0.13300170004367828
216 234 0.9642303586006165
216 235 0.843442976474762
216 236 0.972218930721283
216 237 0.9629464745521545
216 238 0.9664146304130554
216 239 0.9512900114059448
216 240 0.9689809083938599
216 241 0.9608922004699707
216 242 0.09166509658098221
216 243 0.9653420448303223
216 244 0.9445428848266602
216 245 0.9442908763885498
216 246 0.9457125663757324
216 247 0.9641218781471252
216 248 0.9571834206581116
216 249 0.9506672024726868
216 250 0.9599616527557373
216 251 0.09109750390052795
216 252 0.9566799998283386
216 253 0.10185010731220245
216 254 0.9609277248382568
216 255 0.8518598675727844
217 218 0.9304601550102234
217 219 0.9544259905815125
217 220 0.9551560282707214
217 221 0.8802022337913513
217 222 0.9573642015457153
217 223 0.9566943049430847
217 224 0.26265987753868103
217 225 0.9748597741127014
217 226 0.13018891215324402
217 227 0.9327263236045837
217 228 0.921978771686554
217 229 0.9518342614173889
217 230 0.1328735053539276
217 231 0.6306284070014954
217 232 0.7220248579978943
217 233 0.12693637609481812
217 234 0.9523887038230896
217 235 0.8198726177215576
217 236 0.9647712111473083
217 237 0.9445974230766296
217 238 0.9598864912986755
217 239 0.9401167035102844
217 240 0.9635162949562073
217 241 0.9467686414718628
217 242 0.092631034553051
217 243 0.9598309993743896
217 244 0.9319743514060974
217 245 0.9293575882911682
217 246 0.9342982769012451
217 247 0.9595673680305481
217 248 0.9503743052482605
217 249 0.940493643283844
217 250 0.9501083493232727
217 251 0.06904309242963791
217 252 0.9477636814117432
217 253 0.07204635441303253
217 254 0.9468300342559814
217 255 0.8321021199226379
218 219 0.9424376487731934
218 220 0.9517062902450562
218 221 0.8574509620666504
218 222 0.9497500658035278
218 223 0.952197253704071
218 224 0.2693915367126465
218 225 0.9408060312271118
218 226 0.09046836197376251
218 227 0.9200885891914368
218 228 0.9231839776039124
218 229 0.9451274275779724
218 230 0.15444941818714142
218 231 0.5996318459510803
218 232 0.6801709532737732
218 233 0.07547223567962646
218 234 0.9425195455551147
218 235 0.8262680172920227
218 236 0.9499097466468811
218 237 0.945164680480957
218 238 0.9522718787193298
218 239 0.936309814453125
218 240 0.9474812150001526
218 241 0.9388440847396851
218 242 0.10403129458427429
218 243 0.9469131231307983
218 244 0.9235785007476807
218 245 0.9098358750343323
218 246 0.9249066710472107
218 247 0.9380271434783936
218 248 0.9371232390403748
218 249 0.9377279281616211
218 250 0.9390894770622253
218 251 0.09304842352867126
218 252 0.9398307800292969
218 253 0.08322503417730331
218 254 0.9367959499359131
218 255 0.8253272175788879
219 220 0.9663798213005066
219 221 0.896278440952301
219 222 0.9674910306930542
219 223 0.965843141078949
219 224 0.2600558400154114
219 225 0.9683117866516113
219 226 0.12889818847179413
219 227 0.9509825706481934
219 228 0.9331234097480774
219 229 0.9641931653022766
219 230 0.14471180737018585
219 231 0.6131117343902588
219 232 0.6934205889701843
219 233 0.14046356081962585
219 234 0.9626561403274536
219 235 0.8403100967407227
219 236 0.9716930389404297
219 237 0.956131637096405
219 238 0.9720869064331055
219 239 0.9507343769073486
219 240 0.9663798213005066
219 241 0.9582594037055969
219 242 0.10190297663211823
219 243 0.965843141078949
219 244 0.9386621713638306
219 245 0.9437098503112793
219 246 0.9440865516662598
219 247 0.959419310092926
219 248 0.9597712159156799
219 249 0.9543171525001526
219 250 0.9635816812515259
219 251 0.09114479273557663
219 252 0.9624013900756836
219 253 0.09171267598867416
219 254 0.9582982063293457
219 255 0.8653413653373718
220 221 0.8851754069328308
220 222 0.9711955189704895
220 223 0.9757608771324158
220 224 0.2591157853603363
220 225 0.9658467173576355
220 226 0.10435120761394501
220 227 0.946491003036499
220 228 0.9393244385719299
220 229 0.9710491895675659
220 230 0.15729676187038422
220 231 0.6253260970115662
220 232 0.6951877474784851
220 233 0.1399558037519455
220 234 0.9674450755119324
220 235 0.840830385684967
220 236 0.9733142256736755
220 237 0.963087260723114
220 238 0.9716641902923584
220 239 0.957753598690033
220 240 0.9752577543258667
220 241 0.9651963114738464
220 242 0.10153461992740631
220 243 0.9685406684875488
220 244 0.9437330365180969
220 245 0.9370965957641602
220 246 0.9470013976097107
220 247 0.9642459154129028
220 248 0.9615105390548706
220 249 0.952964186668396
220 250 0.9632090330123901
220 251 0.09081532061100006
220 252 0.9589225649833679
220 253 0.10153461992740631
220 254 0.9641851186752319
220 255 0.8527645468711853
221 222 0.8900819420814514
221 223 0.8867558836936951
221 224 0.19929711520671844
221 225 0.8922321796417236
221 226 0.13994228839874268
221 227 0.8935000896453857
221 228 0.8705019354820251
221 229 0.8901793956756592
221 230 0.08569680154323578
221 231 0.5992539525032043
221 232 0.6550426483154297
221 233 0.14447233080863953
221 234 0.8953492045402527
221 235 0.7637029886245728
221 236 0.9005658030509949
221 237 0.8769568800926208
221 238 0.8948241472244263
221 239 0.8852259516716003
221 240 0.8840520977973938
221 241 0.8771694302558899
221 242 0.06638044863939285
221 243 0.8856319785118103
221 244 0.8738328218460083
221 245 0.8640791177749634
221 246 0.8767456412315369
221 247 0.8789401054382324
221 248 0.8796884417533875
221 249 0.8830129504203796
221 250 0.901534914970398
221 251 0.09895414113998413
221 252 0.8826292753219604
221 253 0.07744386047124863
221 254 0.9034210443496704
221 255 0.8249446153640747
222 223 0.9737551808357239
222 224 0.2661885619163513
222 225 0.9669607281684875
222 226 0.12015774846076965
222 227 0.9498046636581421
222 228 0.9533177614212036
222 229 0.9711171984672546
222 230 0.15697342157363892
222 231 0.6208404898643494
222 232 0.6909155249595642
222 233 0.13966813683509827
222 234 0.9716453552246094
222 235 0.8473865389823914
222 236 0.9774610996246338
222 237 0.9663028120994568
222 238 0.9737800359725952
222 239 0.9651758074760437
222 240 0.9722242951393127
222 241 0.9663261771202087
222 242 0.10132590681314468
222 243 0.9706671237945557
222 244 0.9460164904594421
222 245 0.9415611028671265
222 246 0.949264407157898
222 247 0.9653679132461548
222 248 0.9616132974624634
222 249 0.9572826623916626
222 250 0.9653679132461548
222 251 0.09062865376472473
222 252 0.9642246961593628
222 253 0.0911933183670044
222 254 0.9642770290374756
222 255 0.8498328924179077
223 224 0.2554369568824768
223 225 0.9642735719680786
223 226 0.12046735733747482
223 227 0.945924699306488
223 228 0.9387447237968445
223 229 0.9653420448303223
223 230 0.15737789869308472
223 231 0.6224402189254761
223 232 0.6841439604759216
223 233 0.14002801477909088
223 234 0.9658758640289307
223 235 0.8400775194168091
223 236 0.9748435020446777
223 237 0.9750428795814514
223 238 0.9701035618782043
223 239 0.9572014808654785
223 240 0.9767922759056091
223 241 0.9677754640579224
223 242 0.10158699750900269
223 243 0.9680082201957703
223 244 0.9452784657478333
223 245 0.948258638381958
223 246 0.9453796148300171
223 247 0.9647432565689087
223 248 0.9578374028205872
223 249 0.9534558653831482
223 250 0.963705837726593
223 251 0.07950439304113388
223 252 0.9594172239303589
223 253 0.10158699750900269
223 254 0.9605243802070618
223 255 0.8579313158988953
224 225 0.2563646137714386
224 226 0.14834770560264587
224 227 0.21426908671855927
224 228 0.2555789053440094
224 229 0.2637432813644409
224 230 0.0969003215432167
224 231 0.18964815139770508
224 232 0.17376123368740082
224 234 0.21776197850704193
224 235 0.23232434689998627
224 236 0.2618487477302551
224 237 0.24629779160022736
224 238 0.270408034324646
224 239 0.2125581055879593
224 240 0.26673680543899536
224 241 0.25757232308387756
224 242 0.15011732280254364
224 243 0.2630619704723358
224 244 0.21899239718914032
224 245 0.24458973109722137
224 246 0.2572615444660187
224 247 0.2567652761936188
224 248 0.2502778470516205
224 249 0.24024873971939087
224 250 0.2184421271085739
224 252 0.27323660254478455
224 254 0.22657978534698486
224 255 0.19208846986293793
225 226 0.12896516919136047
225 227 0.9451265335083008
225 228 0.9325400590896606
225 229 0.9646941423416138
225 230 0.13162453472614288
225 231 0.6247007250785828
225 232 0.7066552042961121
225 233 0.13313987851142883
225 234 0.9621184468269348
225 235 0.8347923755645752
225 236 0.972197949886322
225 237 0.9545374512672424
225 238 0.9663839340209961
225 239 0.9501785039901733
225 240 0.9668819308280945
225 241 0.9566685557365417
225 242 0.09176032990217209
225 243 0.9684165716171265
225 244 0.9412746429443359
225 245 0.9366980195045471
225 246 0.9477540254592896
225 247 0.9640824198722839
225 248 0.9581778645515442
225 249 0.9537603259086609
225 250 0.9609590172767639
225 251 0.09119214862585068
225 252 0.9587194323539734
225 253 0.08156473934650421
225 254 0.9567095637321472
225 255 0.8480008840560913
226 227 0.13130643963813782
226 228 0.06626295298337936
226 229 0.12883132696151733
226 231 0.11235964298248291
226 232 0.06655173748731613
226 233 0.05735393241047859
226 234 0.08047784864902496
226 235 0.10157357156276703
226 236 0.12790590524673462
226 237 0.12160208821296692
226 238 0.1042974591255188
226 239 0.05698784068226814
226 240 0.1284322589635849
226 241 0.12147441506385803
226 243 0.12046735733747482
226 244 0.10709114372730255
226 245 0.13296450674533844
226 246 0.11495508253574371
226 247 0.12916673719882965
226 248 0.12977714836597443
226 249 0.13060462474822998
226 250 0.12916673719882965
226 252 0.1297088861465454
226 254 0.12943695485591888
226 255 0.11955317854881287
227 228 0.9201045036315918
227 229 0.9441456198692322
227 230 0.14071477949619293
227 231 0.6212881207466125
227 232 0.6874421834945679
227 233 0.14308787882328033
227 234 0.9521100521087646
227 235 0.8244853019714355
227 236 0.9552080631256104
227 237 0.9367386698722839
227 238 0.9481104016304016
227 239 0.9332208037376404
227 240 0.946491003036499
227 241 0.9368184804916382
227 242 0.08304548263549805
227 243 0.946979284286499
227 244 0.9291574954986572
227 245 0.9209672808647156
227 246 0.9326147437095642
227 247 0.941303551197052
227 248 0.9351013898849487
227 249 0.9464230537414551
227 250 0.9625040292739868
227 251 0.09284766763448715
227 252 0.9356741905212402
227 253 0.08304548263549805
227 254 0.9422104954719543
227 255 0.834414541721344
228 229 0.9411760568618774
228 230 0.15554749965667725
228 231 0.5939680337905884
228 232 0.6835368275642395
228 233 0.11401323229074478
228 234 0.9417547583580017
228 235 0.8394849896430969
228 236 0.9418313503265381
228 237 0.9293230175971985
228 238 0.9484097957611084
228 239 0.9440457224845886
228 240 0.9371969103813171
228 241 0.9283472895622253
228 242 0.09429384022951126
228 243 0.940873384475708
228 244 0.9181358814239502
228 245 0.904189944267273
228 246 0.9206007122993469
228 247 0.930787980556488
228 248 0.9276620745658875
228 249 0.9270864129066467
228 250 0.9329277276992798
228 251 0.09370996803045273
228 252 0.9282485842704773
228 253 0.07333964854478836
228 254 0.9413120746612549
228 255 0.8287575244903564
229 230 0.13806232810020447
229 231 0.6144021153450012
229 232 0.6873449087142944
229 233 0.14039067924022675
229 234 0.9631934762001038
229 235 0.8505806922912598
229 236 0.970159113407135
229 237 0.9566799998283386
229 238 0.9705489873886108
229 239 0.9544364809989929
229 240 0.9658784866333008
229 241 0.956718921661377
229 242 0.10185010731220245
229 243 0.9663767218589783
229 244 0.9413589835166931
229 245 0.9335846304893494
229 246 0.9457125663757324
229 247 0.9599616527557373
229 248 0.9571834206581116
229 249 0.951718807220459
229 250 0.9610016942024231
229 251 0.09109750390052795
229 252 0.9566799998283386
229 253 0.08148008584976196
229 254 0.9640544056892395
229 255 0.8542294502258301
230 231 0.11212821304798126
230 232 0.09056544303894043
230 234 0.144561767578125
230 235 0.1432504504919052
230 236 0.1501249223947525
230 237 0.15224112570285797
230 238 0.15721572935581207
230 239 0.15953271090984344
230 240 0.15729676187038422
230 241 0.15208128094673157
230 242 0.06454972177743912
230 243 0.15737789869308472
230 244 0.1479746252298355
230 245 0.1357063204050064
230 246 0.140790656208992
230 247 0.14501327276229858
230 248 0.1523212194442749
230 249 0.13996268808841705
230 250 0.1516047865152359
230 252 0.15886029601097107
230 253 0.12909944355487823
230 254 0.14531666040420532
230 255 0.13515891134738922
231 232 0.5162402391433716
231 233 0.10310827195644379
231 234 0.6172987222671509
231 235 0.4629664719104767
231 236 0.6227632761001587
231 237 0.6121098399162292
231 238 0.629811704158783
231 239 0.6195793151855469
231 240 0.628532886505127
231 241 0.6163200736045837
231 242 0.1263332962989807
231 243 0.6128149032592773
231 244 0.5775706171989441
231 245 0.5760139226913452
231 246 0.6035812497138977
231 247 0.612776517868042
231 248 0.6237732172012329
231 249 0.5935096740722656
231 250 0.6208393573760986
231 251 0.12358929216861725
231 252 0.6234452128410339
231 253 0.07895831018686295
231 254 0.6302179098129272
231 255 0.529051661491394
232 234 0.7055559158325195
232 235 0.5571793913841248
232 236 0.7022696733474731
232 237 0.6632524132728577
232 238 0.714763343334198
232 239 0.6848424077033997
232 240 0.7065842747688293
232 241 0.6783654093742371
232 242 0.07015169411897659
232 243 0.7083740234375
232 244 0.6944355368614197
232 245 0.6415538787841797
232 246 0.6994706988334656
232 247 0.7091923356056213
232 248 0.6895120143890381
232 249 0.6808705925941467
232 250 0.6877016425132751
232 252 0.6905881762504578
232 253 0.056121353060007095
232 254 0.7063689231872559
232 255 0.5124784111976624
233 234 0.1403179168701172
233 235 0.1186312809586525
233 236 0.1393822282552719
233 237 0.1413469761610031
233 238 0.13252142071723938
233 239 0.14194528758525848
233 240 0.11785752326250076
233 241 0.14119857549667358
233 243 0.1252882182598114
233 244 0.12851159274578094
233 245 0.14489470422267914
233 246 0.12056002020835876
233 247 0.14075618982315063
233 248 0.1414213478565216
233 249 0.09737895429134369
233 250 0.14075618982315063
233 252 0.10415040701627731
233 253 0.14509525895118713
233 254 0.14105066657066345
233 255 0.1603447049856186
234 235 0.850139856338501
234 236 0.9717150330543518
234 237 0.959315836429596
234 238 0.9700459837913513
234 239 0.9665212631225586
234 240 0.9664115309715271
234 241 0.9593513607978821
234 242 0.081437848508358
234 243 0.9669100642204285
234 244 0.9514784812927246
234 245 0.9320306777954102
234 246 0.9473369121551514
234 247 0.9615431427955627
234 248 0.9577317833900452
234 249 0.9575320482254028
234 250 0.9636221528053284
234 251 0.09105028957128525
234 252 0.9561842679977417
234 253 0.10179731994867325
234 254 0.9625130295753479
234 255 0.8419449925422668
235 236 0.8456518650054932
235 237 0.8431996703147888
235 238 0.8510652184486389
235 239 0.8455659747123718
235 240 0.840830385684967
235 241 0.8291531801223755
235 242 0.07008083164691925
235 243 0.8471968173980713
235 244 0.8215271830558777
235 245 0.8177074193954468
235 246 0.8152249455451965
235 247 0.8372898101806641
235 248 0.8352547883987427
235 249 0.8393746018409729
235 250 0.8492170572280884
235 251 0.05223517119884491
235 252 0.8384087681770325
235 254 0.8426271677017212
235 255 0.770386815071106
236 237 0.9663984775543213
236 238 0.9748651385307312
236 239 0.9611173868179321
236 240 0.9733142256736755
236 241 0.9664196372032166
236 242 0.10111849009990692
236 243 0.9727889895439148
236 244 0.9504019021987915
236 245 0.9449483156204224
236 246 0.9546728730201721
236 247 0.9706197381019592
236 248 0.9637945890426636
236 249 0.9584552049636841
236 250 0.9716523289680481
236 251 0.09044312685728073
236 252 0.9632877111434937
236 253 0.10111849009990692
236 254 0.9654071927070618
236 255 0.8539746403694153
237 238 0.9605098962783813
237 239 0.9524900913238525
237 240 0.9610048532485962
237 241 0.9621853828430176
237 242 0.10254388302564621
237 243 0.9583754539489746
237 244 0.9381545782089233
237 245 0.9323985576629639
237 246 0.9351136088371277
237 247 0.9539351463317871
237 248 0.9531826376914978
237 249 0.9433786273002625
237 250 0.9560293555259705
237 251 0.09171804040670395
237 252 0.9505783319473267
237 253 0.10254388302564621
237 254 0.9538321495056152
237 255 0.8540838956832886
238 239 0.9614403247833252
238 240 0.9716641902923584
238 241 0.9605409502983093
238 242 0.1014823243021965
238 243 0.9701035618782043
238 244 0.9443044662475586
238 245 0.9387474656105042
238 246 0.9486216306686401
238 247 0.9637491703033447
238 248 0.9641388058662415
238 249 0.9535212516784668
238 250 0.9647854566574097
238 251 0.09076854586601257
238 252 0.963631808757782
238 253 0.07103762030601501
238 254 0.9636884927749634
238 255 0.8535057902336121
239 240 0.9546167850494385
239 241 0.951490044593811
239 242 0.08238234370946884
239 243 0.9561553597450256
239 244 0.9292492866516113
239 245 0.9244378805160522
239 246 0.9326545000076294
239 247 0.9485089182853699
239 248 0.9498215913772583
239 249 0.9378023743629456
239 250 0.9590245485305786
239 251 0.06907968968153
239 252 0.9482661485671997
239 253 0.1029779314994812
239 254 0.953654408454895
239 255 0.8421263694763184
240 241 0.9620760679244995
240 242 0.10153461992740631
240 243 0.969572126865387
240 244 0.9447910785675049
240 245 0.939231276512146
240 246 0.9470013976097107
240 247 0.9715036153793335
240 248 0.9594271183013916
240 249 0.952964186668396
240 250 0.9632090330123901
240 251 0.06811148673295975
240 252 0.9589225649833679
240 253 0.09138115495443344
240 254 0.9610681533813477
240 255 0.850402295589447
241 242 0.10243622213602066
241 243 0.9594504833221436
241 244 0.9371696710586548
241 245 0.9324964284896851
241 246 0.9362597465515137
241 247 0.9560716152191162
241 248 0.9616406559944153
241 249 0.9434458017349243
241 250 0.9560716152191162
241 251 0.09162174165248871
241 252 0.9537820219993591
241 253 0.09219259768724442
241 254 0.9517825245857239
241 255 0.8508040308952332
242 243 0.10158699750900269
242 244 0.0729404091835022
242 245 0.09460590034723282
242 246 0.06231769174337387
242 247 0.09190374612808228
242 248 0.10259783267974854
242 249 0.0826016217470169
242 250 0.09190374612808228
242 251 0.33541014790534973
242 252 0.10254388302564621
242 254 0.08186312019824982
242 255 0.09306101500988007
243 244 0.94210284948349
243 245 0.9343764781951904
243 246 0.949600100517273
243 247 0.963705837726593
243 248 0.9588796496391296
243 249 0.9534558653831482
243 250 0.963705837726593
243 251 0.09086216986179352
243 252 0.9594172239303589
243 253 0.09142829477787018
243 254 0.9605243802070618
243 255 0.841387152671814
244 245 0.9069351553916931
244 246 0.9329053163528442
244 247 0.938489556312561
244 248 0.9333028793334961
244 249 0.9338744282722473
244 250 0.9363614916801453
244 251 0.09319984167814255
244 252 0.9317435622215271
244 253 0.0937805324792862
244 254 0.9393866658210754
244 255 0.8133368492126465
245 246 0.9127295613288879
245 247 0.9327949285507202
245 248 0.9242612719535828
245 249 0.9268984198570251
245 250 0.9360151886940002
245 251 0.08226758241653442
245 252 0.9345543384552002
245 253 0.10511766374111176
245 254 0.9272168278694153
245 255 0.8681841492652893
246 247 0.9428716897964478
246 248 0.9356056451797485
246 249 0.9383541345596313
246 250 0.9418110847473145
246 251 0.06967329978942871
246 252 0.9361787438392639
246 253 0.07270397990942001
246 254 0.9405929446220398
246 255 0.8215742111206055
247 248 0.9523416757583618
247 249 0.9478704333305359
247 250 0.9572471380233765
247 251 0.05708417296409607
247 252 0.9528879523277283
247 253 0.10211528092622757
247 254 0.9550700187683105
247 255 0.8326960206031799
248 249 0.9417563676834106
248 250 0.9565324187278748
248 251 0.09176629036664963
248 252 0.9531826376914978
248 253 0.10259783267974854
248 254 0.9511843323707581
248 255 0.8521463871002197
249 250 0.9520878791809082
249 251 0.09235142171382904
249 252 0.9454962015151978
249 253 0.0826016217470169
249 254 0.9466837048530579
249 255 0.8371613025665283
250 251 0.07991784065961838
250 252 0.9570764899253845
250 253 0.10211528092622757
250 254 0.9582048654556274
250 255 0.8528898358345032
251 252 0.09171804040670395
251 254 0.09152575582265854
251 255 0.10404538363218307
252 253 0.10254388302564621
252 254 0.950684130191803
252 255 0.8493124842643738
253 254 0.10232890397310257
253 255 0.09306101500988007
254 255 0.8511030077934265
