0 1 0.19916316866874695
0 2 0.1906818300485611
0 3 0.19741924107074738
0 4 0.1980295181274414
0 5 0.1943281590938568
0 6 0.18324115872383118
0 8 0.14675453305244446
0 9 0.192520409822464
0 10 0.1932174116373062
0 13 0.20063458383083344
0 14 0.19331759214401245
0 15 0.1531158685684204
0 16 0.19311736524105072
0 17 0.19525133073329926
0 18 0.18712475895881653
0 19 0.09365858137607574
0 21 0.19792740046977997
0 22 0.19285283982753754
0 23 0.19453218579292297
0 24 0.24122445285320282
0 25 0.17857182025909424
0 26 0.17158262431621552
0 27 0.1453922539949417
0 28 0.1681557446718216
0 29 0.18789799511432648
0 30 0.19854240119457245
0 33 0.19772367179393768
0 34 0.19767166674137115
0 35 0.19382090866565704
0 36 0.19905932247638702
0 37 0.19232265651226044
0 38 0.19422638416290283
0 39 0.1732289344072342
0 40 0.08998425304889679
0 41 0.1894736886024475
0 42 0.19291776418685913
0 43 0.18440473079681396
0 44 0.19443008303642273
0 45 0.19874867796897888
0 47 0.18392033874988556
0 48 0.16097421944141388
0 49 0.20149017870426178
0 50 0.06622661650180817
0 51 0.1836315393447876
0 52 0.1476016640663147
0 53 0.1763017624616623
0 54 0.050669457763433456
0 55 0.19937139749526978
0 56 0.19978982210159302
0 57 0.1848929524421692
0 59 0.178384929895401
0 60 0.1901756227016449
0 61 0.17764319479465485
0 62 0.1832485795021057
0 63 0.19311736524105072
0 64 0.18693290650844574
0 66 0.17819862067699432
0 67 0.18382392823696136
0 69 0.1846972107887268
0 70 0.18450206518173218
0 71 0.19351844489574432
0 72 0.08111070841550827
0 73 0.19371992349624634
0 74 0.19916316866874695
0 76 0.16377556324005127
0 77 0.18897703289985657
0 78 0.06488857418298721
0 79 0.09701657295227051
0 80 0.17497830092906952
0 81 0.05407380685210228
0 83 0.1909874826669693
0 84 0.18852657079696655
0 85 0.19422638416290283
0 86 0.18258412182331085
0 87 0.18955163657665253
0 88 0.20042239129543304
0 89 0.20010533928871155
0 90 0.11128298193216324
0 92 0.18334409594535828
0 93 0.1927187740802765
0 95 0.1802806854248047
0 96 0.17974644899368286
0 97 0.1732289344072342
0 98 0.17341060936450958
0 99 0.18828822672367096
0 100 0.18848426640033722
0 101 0.19301749765872955
0 102 0.1981317698955536
0 103 0.1853850930929184
0 104 0.18789799511432648
0 105 0.1605910062789917
0 106 0.19525133073329926
0 107 0.1377881020307541
0 109 0.20074093341827393
0 110 0.10164929926395416
0 111 0.19845029711723328
0 112 0.16702042520046234
0 113 0.16620290279388428
0 114 0.18518775701522827
0 115 0.16222141683101654
0 116 0.16745437681674957
0 117 0.15385101735591888
0 118 0.18927456438541412
0 119 0.16850975155830383
0 120 0.13237664103507996
0 121 0.17875930666923523
0 122 0.0613139346241951
0 123 0.05626552179455757
0 125 0.19762204587459564
0 126 0.19483940303325653
0 127 0.18789799511432648
0 128 0.15822820365428925
0 129 0.20010533928871155
0 130 0.1932174116373062
0 131 0.20116806030273438
0 132 0.19978982210159302
0 133 0.1900748759508133
0 134 0.18498487770557404
0 135 0.1972442865371704
0 136 0.15839572250843048
0 138 0.15434706211090088
0 139 0.20074093341827393
0 140 0.09895414113998413
0 142 0.1803770661354065
0 143 0.19916316866874695
0 144 0.19453218579292297
0 146 0.18789799511432648
0 148 0.10389386117458344
0 149 0.20192210376262665
0 151 0.16806760430335999
0 152 0.1711450219154358
0 153 0.1703139990568161
0 154 0.16780395805835724
0 155 0.18658243119716644
0 156 0.06765100359916687
0 157 0.17866548895835876
0 158 0.19341793656349182
0 159 0.19525133073329926
0 160 0.11470786482095718
0 161 0.1982342004776001
0 162 0.05923489108681679
0 163 0.19402332603931427
0 164 0.09365858137607574
0 165 0.19504505395889282
0 166 0.17359286546707153
0 167 0.18277321755886078
0 168 0.16780395805835724
0 169 0.1803770661354065
0 170 0.1904788464307785
0 171 0.17764319479465485
0 173 0.18877945840358734
0 174 0.16850975155830383
0 175 0.20000000298023224
0 176 0.06622661650180817
0 178 0.14180704951286316
0 179 0.051952432841062546
0 180 0.05626552179455757
0 181 0.18927456438541412
0 182 0.1894736886024475
0 185 0.17049762606620789
0 186 0.1939220279455185
0 187 0.18353557586669922
0 189 0.19731807708740234
0 190 0.1832485795021057
0 191 0.13245323300361633
0 192 0.18047359585762024
0 193 0.1890903115272522
0 195 0.1824897825717926
0 197 0.17970561981201172
0 198 0.1927187740802765
0 201 0.18828822672367096
0 202 0.17040571570396423
0 203 0.19058026373386383
0 204 0.19483940303325653
0 205 0.19989481568336487
0 207 0.20021085441112518
0 208 0.11275168508291245
0 209 0.1789473593235016
0 210 0.1773674339056015
0 213 0.16842104494571686
0 214 0.12835876643657684
0 215 0.1943281590938568
0 216 0.19762204587459564
0 217 0.16264508664608002
0 218 0.17331969738006592
0 219 0.1955619752407074
0 220 0.20010533928871155
0 221 0.18897703289985657
0 222 0.19338077306747437
0 223 0.16616258025169373
0 225 0.19514811038970947
0 226 0.18741360306739807
0 227 0.19514811038970947
0 230 0.1823955923318863
0 231 0.1986454725265503
0 232 0.1878008097410202
0 233 0.19027653336524963
0 234 0.06917144358158112
0 235 0.16859862208366394
0 237 0.16797958314418793
0 238 0.19412477314472198
0 239 0.16676169633865356
0 240 0.1846972107887268
0 241 0.1980295181274414
0 242 0.17516553401947021
0 244 0.17913603782653809
0 247 0.17377567291259766
0 248 0.19291776418685913
0 249 0.18828822672367096
0 250 0.1266736537218094
0 252 0.19874867796897888
0 253 0.19285283982753754
0 254 0.19331759214401245
0 255 0.17377567291259766
1 2 0.9462551474571228
1 3 0.9726191163063049
1 4 0.964208722114563
1 5 0.9581611156463623
1 6 0.9338399171829224
1 7 0.05779526010155678
1 8 0.8914570212364197
1 9 0.9679010510444641
1 10 0.9630849361419678
1 11 0.21155306696891785
1 12 0.10216855257749557
1 13 0.9527071714401245
1 14 0.9615030884742737
1 15 0.9537587761878967
1 16 0.9625862836837769
1 17 0.9501010179519653
1 18 0.9648363590240479
1 19 0.05596001818776131
1 20 0.20709969103336334
1 21 0.9637115597724915
1 22 0.9388911724090576
1 23 0.9549785256385803
1 24 0.7357447147369385
1 25 0.9560690522193909
1 26 0.9105435013771057
1 27 0.23165428638458252
1 28 0.9544773697853088
1 29 0.9636257886886597
1 30 0.9646248817443848
1 31 0.07913941890001297
1 33 0.9647921919822693
1 34 0.9374059438705444
1 35 0.9608765244483948
1 36 0.9598332047462463
1 37 0.9689773321151733
1 38 0.9555683732032776
1 39 0.9555683732032776
1 40 0.10752929747104645
1 41 0.9591279029846191
1 42 0.9636682271957397
1 43 0.9506950974464417
1 44 0.9586637020111084
1 45 0.9583353996276855
1 46 0.12115699052810669
1 47 0.9544773697853088
1 48 0.9340186715126038
1 49 0.9472655057907104
1 50 0.07913941890001297
1 51 0.9582032561302185
1 52 0.9543465971946716
1 53 0.9363419413566589
1 54 0.1917383223772049
1 55 0.9592481255531311
1 56 0.9602141976356506
1 57 0.9532122015953064
1 58 0.21474848687648773
1 59 0.9571583271026611
1 60 0.9584727883338928
1 61 0.9604625105857849
1 62 0.9593331217765808
1 63 0.961546778678894
1 64 0.9659156203269958
1 65 0.09176230430603027
1 66 0.9582463502883911
1 67 0.9550230503082275
1 68 0.09138233214616776
1 69 0.951151967048645
1 70 0.9511969089508057
1 71 0.9604187607765198
1 73 0.9572476744651794
1 74 0.9603340029716492
1 75 0.11709943413734436
1 76 0.9198293089866638
1 77 0.9555683732032776
1 78 0.16154266893863678
1 79 0.34779834747314453
1 80 0.9472655057907104
1 81 0.08615608513355255
1 82 0.10715528577566147
1 83 0.9467153549194336
1 84 0.9311792850494385
1 85 0.9555683732032776
1 86 0.9641663432121277
1 87 0.8494133949279785
1 88 0.952750027179718
1 89 0.9533404111862183
1 90 0.18284861743450165
1 91 0.103617824614048
1 92 0.9587898850440979
1 93 0.9678610563278198
1 94 0.10500272363424301
1 95 0.9472655057907104
1 96 0.9329403042793274
1 97 0.9566138386726379
1 98 0.9565705060958862
1 99 0.9614604115486145
1 100 0.9614186882972717
1 101 0.962088406085968
1 102 0.9657451510429382
1 103 0.9462551474571228
1 104 0.9625862836837769
1 105 0.44548889994621277
1 106 0.9522029757499695
1 107 0.9467599391937256
1 108 0.10715528577566147
1 109 0.9542643427848816
1 110 0.40489596128463745
1 111 0.9068560004234314
1 112 0.9625862836837769
1 113 0.4023105204105377
1 114 0.9484093189239502
1 116 0.9609183073043823
1 117 0.945658802986145
1 118 0.953931450843811
1 119 0.9575355052947998
1 120 0.9084785580635071
1 121 0.9560256600379944
1 122 0.07326886802911758
1 123 0.3473866581916809
1 124 0.0722440779209137
1 125 0.9642963409423828
1 126 0.9533404111862183
1 127 0.9605072736740112
1 128 0.9559013247489929
1 129 0.9564867615699768
1 130 0.9662050008773804
1 131 0.9489142298698425
1 132 0.953931450843811
1 133 0.9495525360107422
1 134 0.9210544228553772
1 135 0.9406877160072327
1 136 0.9506040811538696
1 138 0.9444676041603088
1 139 0.9500558972358704
1 140 0.2020072191953659
1 141 0.06853675097227097
1 142 0.945658802986145
1 143 0.9603340029716492
1 144 0.9602141976356506
1 145 0.05596001818776131
1 146 0.9636257886886597
1 147 0.1682807356119156
1 148 0.5398686528205872
1 149 0.9440045952796936
1 150 0.24539631605148315
1 151 0.9539769887924194
1 152 0.9352287650108337
1 153 0.941287636756897
1 154 0.9587468504905701
1 155 0.9491815567016602
1 156 0.15494629740715027
1 157 0.9586637020111084
1 158 0.9630433320999146
1 159 0.9490500092506409
1 161 0.9662443399429321
1 162 0.14746759831905365
1 163 0.9556136727333069
1 164 0.05596001818776131
1 165 0.9585461616516113
1 166 0.9544328451156616
1 167 0.9610047936439514
1 168 0.9587468504905701
1 169 0.9498851895332336
1 170 0.9536782503128052
1 171 0.9615030884742737
1 173 0.9556136727333069
1 174 0.9533404111862183
1 175 0.9549350738525391
1 176 0.15168389678001404
1 177 0.1444881558418274
1 178 0.29184162616729736
1 179 0.3957732319831848
1 180 0.35018816590309143
1 181 0.9528842568397522
1 182 0.9559832811355591
1 183 0.16798722743988037
1 184 0.192153200507164
1 185 0.947608232498169
1 186 0.9592901468276978
1 187 0.9577024579048157
1 188 0.1682807356119156
1 189 0.9669498801231384
1 190 0.9614186882972717
1 191 0.05275961756706238
1 192 0.9461649060249329
1 193 0.6763705015182495
1 194 0.11678838729858398
1 195 0.961591362953186
1 196 0.14653773605823517
1 197 0.9495073556900024
1 198 0.9637115597724915
1 199 0.13321149349212646
1 200 0.2551089823246002
1 201 0.9583353996276855
1 202 0.9439157843589783
1 203 0.9489142298698425
1 204 0.9554380178451538
1 205 0.957575798034668
1 206 0.09856852889060974
1 207 0.9506950974464417
1 208 0.43115484714508057
1 209 0.9549350738525391
1 210 0.962088406085968
1 211 0.08548034727573395
1 212 0.3200843930244446
1 213 0.9580796957015991
1 214 0.9405546188354492
1 215 0.9592071175575256
1 216 0.9684394001960754
1 217 0.9602930545806885
1 218 0.9550230503082275
1 219 0.9537180066108704
1 220 0.9522916078567505
1 221 0.9545229077339172
1 222 0.9339724183082581
1 223 0.9679840207099915
1 224 0.12945829331874847
1 225 0.9495987296104431
1 226 0.963215172290802
1 227 0.9495987296104431
1 228 0.12184310704469681
1 230 0.9631708264350891
1 231 0.962002158164978
1 232 0.962088406085968
1 233 0.9484546780586243
1 234 0.12398763746023178
1 235 0.9548923969268799
1 236 0.14043200016021729
1 237 0.9576593637466431
1 238 0.956113338470459
1 239 0.9631708264350891
1 240 0.9501010179519653
1 241 0.9631708264350891
1 242 0.9472220540046692
1 244 0.9517444968223572
1 245 0.0722440779209137
1 246 0.2844957709312439
1 247 0.9554380178451538
1 248 0.9626297950744629
1 249 0.9604187607765198
1 250 0.20687554776668549
1 251 0.09498301148414612
1 252 0.959377110004425
1 253 0.9367572665214539
1 254 0.9615030884742737
1 255 0.9522916078567505
2 3 0.9567915797233582
2 4 0.9607982039451599
2 5 0.9461225867271423
2 6 0.9285563826560974
2 7 0.07301021367311478
2 8 0.8770530223846436
2 9 0.9561724662780762
2 10 0.9512255191802979
2 11 0.22252291440963745
2 12 0.10325203090906143
2 13 0.940493643283844
2 14 0.951718807220459
2 15 0.940493643283844
2 16 0.9496825337409973
2 17 0.9410580396652222
2 18 0.958328902721405
2 20 0.18495920300483704
2 21 0.9571576714515686
2 22 0.930517852306366
2 23 0.9492323398590088
2 24 0.7171900272369385
2 25 0.9492939710617065
2 26 0.893462598323822
2 27 0.23411092162132263
2 28 0.942388117313385
2 29 0.9549351930618286
2 30 0.9485639929771423
2 31 0.06664890050888062
2 33 0.9561724662780762
2 34 0.9430456757545471
2 35 0.9489247798919678
2 36 0.9478704333305359
2 37 0.9551902413368225
2 38 0.9509099721908569
2 39 0.9445706009864807
2 40 0.1177254244685173
2 41 0.9406970143318176
2 42 0.9560471177101135
2 43 0.9395678043365479
2 44 0.9434458017349243
2 45 0.9516549110412598
2 46 0.11427904665470123
2 47 0.961426317691803
2 48 0.9309636950492859
2 49 0.9370335936546326
2 50 0.06664890050888062
2 51 0.9472444653511047
2 52 0.9464299082756042
2 53 0.9333678483963013
2 54 0.1835731565952301
2 55 0.9483005404472351
2 56 0.9471158981323242
2 57 0.943118691444397
2 58 0.20779070258140564
2 59 0.9514685273170471
2 60 0.9409922361373901
2 61 0.9506672024726868
2 62 0.9515918493270874
2 63 0.9507330656051636
2 64 0.9563013315200806
2 65 0.11802689731121063
2 66 0.9462551474571228
2 67 0.9440084099769592
2 68 0.09235142171382904
2 69 0.9463687539100647
2 70 0.9496129751205444
2 71 0.955865740776062
2 72 0.06530231237411499
2 73 0.9526456594467163
2 74 0.9494198560714722
2 75 0.15314750373363495
2 76 0.9131019115447998
2 77 0.9519665241241455
2 78 0.16325579583644867
2 79 0.3738032579421997
2 80 0.9402353167533875
2 81 0.09795347601175308
2 82 0.059068165719509125
2 83 0.9439414739608765
2 84 0.9226233959197998
2 85 0.9466837048530579
2 86 0.9533913135528564
2 87 0.8381528854370117
2 88 0.9554226398468018
2 89 0.9496716856956482
2 90 0.179188072681427
2 91 0.1134430542588234
2 92 0.9552509188652039
2 93 0.9519158601760864
2 94 0.09795346856117249
2 95 0.9370335936546326
2 96 0.9099444150924683
2 97 0.9498534202575684
2 98 0.9434458017349243
2 99 0.9474440217018127
2 100 0.9473766088485718
2 101 0.9512913227081299
2 102 0.9549975991249084
2 103 0.9349680542945862
2 104 0.9507330656051636
2 105 0.43174290657043457
2 106 0.9463687539100647
2 107 0.940800130367279
2 108 0.08860225230455399
2 109 0.9388656616210938
2 110 0.3478113114833832
2 111 0.8987205624580383
2 112 0.9507330656051636
2 113 0.3859907388687134
2 114 0.9424926042556763
2 116 0.9500434398651123
2 117 0.9428735971450806
2 118 0.9460577368736267
2 119 0.9411925077438354
2 120 0.9059008955955505
2 121 0.9439412355422974
2 122 0.08638684451580048
2 123 0.3708891272544861
2 124 0.05840816721320152
2 125 0.960914671421051
2 126 0.9433122873306274
2 127 0.9517835974693298
2 128 0.940560519695282
2 129 0.9411925077438354
2 130 0.9512255191802979
2 131 0.9408631920814514
2 132 0.9428830146789551
2 133 0.9426190257072449
2 134 0.9198710918426514
2 135 0.9345687627792358
2 136 0.9415563344955444
2 138 0.9362722635269165
2 139 0.9484350681304932
2 140 0.19419094920158386
2 141 0.06926356256008148
2 142 0.9450092315673828
2 143 0.9462551474571228
2 144 0.9492323398590088
2 146 0.9507330656051636
2 147 0.1524723470211029
2 148 0.5094743967056274
2 149 0.9347641468048096
2 150 0.24024873971939087
2 151 0.9429512023925781
2 152 0.9279229640960693
2 153 0.9384148120880127
2 154 0.953082263469696
2 155 0.9345687627792358
2 156 0.1293565034866333
2 157 0.9455611705780029
2 158 0.9511606097221375
2 159 0.9442445039749146
2 161 0.9575912952423096
2 162 0.16095396876335144
2 163 0.9467494487762451
2 164 0.05655346065759659
2 165 0.9400637745857239
2 166 0.946554958820343
2 167 0.9491233825683594
2 168 0.9467494487762451
2 169 0.9364667534828186
2 170 0.9403626322746277
2 171 0.951718807220459
2 173 0.9488604068756104
2 174 0.9443721771240234
2 175 0.9544684290885925
2 176 0.1532924622297287
2 177 0.13871939480304718
2 178 0.31713607907295227
2 179 0.39212775230407715
2 180 0.35390180349349976
2 181 0.9471158981323242
2 182 0.9449343681335449
2 183 0.16976870596408844
2 184 0.17925319075584412
2 185 0.9404988884925842
2 186 0.9494198560714722
2 187 0.9478049874305725
2 188 0.12901505827903748
2 189 0.9552561640739441
2 190 0.9473766088485718
2 191 0.07997867465019226
2 192 0.9316261410713196
2 193 0.6728867292404175
2 194 0.10116590559482574
2 195 0.9539481997489929
2 196 0.1666031926870346
2 197 0.9446830153465271
2 198 0.9540125727653503
2 199 0.1346241682767868
2 200 0.26551035046577454
2 201 0.960076630115509
2 202 0.9335611462593079
2 203 0.9408631920814514
2 204 0.9433122873306274
2 205 0.9433786273002625
2 206 0.1177254244685173
2 207 0.9416887760162354
2 208 0.43118834495544434
2 209 0.951290488243103
2 210 0.9523413777351379
2 211 0.07404586672782898
2 212 0.31079337000846863
2 213 0.948112428188324
2 214 0.9343818426132202
2 215 0.9450654983520508
2 216 0.9535874724388123
2 217 0.9451324939727783
2 218 0.9450654983520508
2 219 0.9478744864463806
2 220 0.9433122873306274
2 221 0.9466837048530579
2 222 0.9211720824241638
2 223 0.957346498966217
2 224 0.12313522398471832
2 225 0.9511763453483582
2 226 0.9598082304000854
2 227 0.9501147866249084
2 228 0.09235141426324844
2 229 0.05655346065759659
2 230 0.9545047283172607
2 231 0.9501084685325623
2 232 0.9575912952423096
2 233 0.94255530834198
2 234 0.15314750373363495
2 235 0.9438096880912781
2 236 0.1666031926870346
2 237 0.9456271529197693
2 238 0.9514685273170471
2 239 0.9534558653831482
2 240 0.9399958848953247
2 241 0.9534558653831482
2 242 0.9337628483772278
2 244 0.945930540561676
2 245 0.05840816721320152
2 246 0.27039894461631775
2 247 0.9411925077438354
2 248 0.9518492817878723
2 249 0.9474440217018127
2 250 0.1835731565952301
2 251 0.09599027782678604
2 252 0.9537603259086609
2 253 0.9326743483543396
2 254 0.9559252858161926
2 255 0.953911304473877
3 4 0.9753133058547974
3 5 0.9642873406410217
3 6 0.938430666923523
3 7 0.07161149382591248
3 8 0.8947943449020386
3 9 0.9738070368766785
3 10 0.9711469411849976
3 11 0.22253945469856262
3 12 0.10127393156290054
3 13 0.9579154849052429
3 14 0.9695875644683838
3 15 0.960000216960907
3 16 0.9696137309074402
3 17 0.9584503173828125
3 18 0.9748590588569641
3 19 0.055470019578933716
3 20 0.18618986010551453
3 21 0.9727538824081421
3 22 0.9454760551452637
3 23 0.9642617106437683
3 24 0.7483512759208679
3 25 0.9642873406410217
3 26 0.9113121628761292
3 27 0.24602770805358887
3 28 0.9627182483673096
3 29 0.9706441164016724
3 30 0.9706190228462219
3 31 0.07844645529985428
3 33 0.9727797508239746
3 34 0.9481824636459351
3 35 0.9669410586357117
3 36 0.9669410586357117
3 37 0.9748590588569641
3 38 0.9637823104858398
3 39 0.9637823104858398
3 40 0.10658774524927139
3 41 0.9621590971946716
3 42 0.970670223236084
3 43 0.960053026676178
3 44 0.9637556672096252
3 45 0.9674972891807556
3 46 0.12810252606868744
3 47 0.9647931456565857
3 48 0.9427891969680786
3 49 0.9557197093963623
3 50 0.0653720498085022
3 51 0.9663854837417603
3 52 0.9595191478729248
3 53 0.952401340007782
3 54 0.1700531542301178
3 55 0.9663854837417603
3 56 0.9663376808166504
3 57 0.9594661593437195
3 58 0.20380987226963043
3 59 0.9653497338294983
3 60 0.9605091214179993
3 61 0.9685561060905457
3 62 0.9674709439277649
3 63 0.9696137309074402
3 64 0.9759098887443542
3 65 0.1157657578587532
3 66 0.9664108753204346
3 67 0.9642873406410217
3 68 0.09058216214179993
3 69 0.9647011160850525
3 70 0.9636819362640381
3 71 0.9695624113082886
3 73 0.9674709439277649
3 74 0.9653761386871338
3 75 0.1433856338262558
3 76 0.9257857799530029
3 77 0.9668912887573242
3 78 0.1601281613111496
3 79 0.36937814950942993
3 80 0.9567664861679077
3 81 0.09607689827680588
3 82 0.09656091034412384
3 83 0.9583253264427185
3 84 0.937913179397583
3 85 0.9658549427986145
3 86 0.9732317924499512
3 87 0.8595167994499207
3 88 0.958984911441803
3 89 0.9616262912750244
3 90 0.18673992156982422
3 91 0.11126972734928131
3 92 0.9659067988395691
3 93 0.9727538824081421
3 94 0.12810252606868744
3 95 0.9578132629394531
3 96 0.9301478862762451
3 97 0.9658549427986145
3 98 0.9647931456565857
3 99 0.9674972891807556
3 100 0.9664373397827148
3 101 0.9722018837928772
3 102 0.970670223236084
3 103 0.9547002911567688
3 104 0.9716745018959045
3 105 0.44385263323783875
3 106 0.9605339169502258
3 107 0.9562558531761169
3 108 0.09656091034412384
3 109 0.9615520238876343
3 110 0.3938252329826355
3 111 0.9152394533157349
3 112 0.9716745018959045
3 113 0.39878779649734497
3 114 0.9568178057670593
3 116 0.9700667262077332
3 117 0.9541360139846802
3 118 0.9632237553596497
3 119 0.964745044708252
3 120 0.9212128520011902
3 121 0.9632237553596497
3 122 0.08473184704780579
3 123 0.34712180495262146
3 124 0.07161149382591248
3 125 0.9753598570823669
3 126 0.960586667060852
3 127 0.9696137309074402
3 128 0.9621086120605469
3 129 0.960586667060852
3 130 0.9701159596443176
3 131 0.9583722949028015
3 132 0.962185800075531
3 133 0.9620848894119263
3 134 0.9280268549919128
3 135 0.9513944983482361
3 136 0.958957850933075
3 138 0.9519585371017456
3 139 0.9594661593437195
3 140 0.18558679521083832
3 141 0.09058216214179993
3 142 0.956230640411377
3 143 0.9674456119537354
3 144 0.9652997255325317
3 146 0.9696137309074402
3 147 0.16680721938610077
3 148 0.5351414084434509
3 149 0.9514742493629456
3 150 0.25845053791999817
3 151 0.9632503986358643
3 152 0.9449892044067383
3 153 0.9551107287406921
3 154 0.9658804535865784
3 155 0.9524469375610352
3 156 0.15358953177928925
3 157 0.9627182483673096
3 158 0.9690588712692261
3 159 0.9584503173828125
3 161 0.9732317924499512
3 162 0.16371749341487885
3 163 0.9648452401161194
3 164 0.055470019578933716
3 165 0.9595191478729248
3 166 0.962691605091095
3 167 0.9701159596443176
3 168 0.9648452401161194
3 169 0.9541360139846802
3 170 0.9599514603614807
3 171 0.9695875644683838
3 173 0.9648452401161194
3 174 0.9616262912750244
3 175 0.9631981253623962
3 176 0.14381851255893707
3 177 0.13606183230876923
3 178 0.3235028386116028
3 179 0.38717949390411377
3 180 0.3693375885486603
3 181 0.9632237553596497
3 182 0.9621590971946716
3 183 0.1665162891149521
3 184 0.20023837685585022
3 185 0.9540368318557739
3 186 0.9684802889823914
3 187 0.9658804535865784
3 188 0.17831116914749146
3 189 0.9748848080635071
3 190 0.9695382118225098
3 191 0.07844645529985428
3 192 0.9525508284568787
3 193 0.6794072389602661
3 194 0.12403474003076553
3 195 0.970670223236084
3 196 0.16946369409561157
3 197 0.9589318633079529
3 198 0.9737821221351624
3 199 0.13204506039619446
3 200 0.2717464864253998
3 201 0.9674972891807556
3 202 0.9503687620162964
3 203 0.9573271870613098
3 204 0.964745044708252
3 205 0.9637300968170166
3 206 0.11547005921602249
3 207 0.9621333479881287
3 208 0.4429611265659332
3 209 0.961120069026947
3 210 0.9711719751358032
3 211 0.08473184704780579
3 212 0.3235028386116028
3 213 0.9621590971946716
3 214 0.9460450410842896
3 215 0.9632503986358643
3 216 0.9733064770698547
3 217 0.9653497338294983
3 218 0.9632503986358643
3 219 0.9599753022193909
3 220 0.960586667060852
3 221 0.9658549427986145
3 222 0.9427618980407715
3 223 0.9759098887443542
3 224 0.1358732432126999
3 225 0.958984911441803
3 226 0.9743083715438843
3 227 0.9600261449813843
3 228 0.1283247321844101
3 229 0.055470019578933716
3 230 0.9711980819702148
3 231 0.9680268168449402
3 232 0.970142126083374
3 233 0.9568449854850769
3 234 0.13655774295330048
3 235 0.9621333479881287
3 236 0.16946369409561157
3 237 0.9658549427986145
3 238 0.9653497338294983
3 239 0.9711980819702148
3 240 0.9594921469688416
3 241 0.9711980819702148
3 242 0.9525508284568787
3 244 0.9610931277275085
3 245 0.07161149382591248
3 246 0.2987906336784363
3 247 0.964745044708252
3 248 0.971699595451355
3 249 0.9674972891807556
3 250 0.2050641030073166
3 251 0.11126972734928131
3 252 0.9685298204421997
3 253 0.9444184899330139
3 254 0.9695875644683838
3 255 0.960586667060852
4 5 0.9610276818275452
4 6 0.9359951615333557
4 7 0.07183285802602768
4 8 0.8919715285301208
4 9 0.9696044325828552
4 10 0.9669100642204285
4 11 0.22752021253108978
4 12 0.10158699750900269
4 13 0.9566943049430847
4 14 0.9663767218589783
4 15 0.9577398896217346
4 16 0.9664095044136047
4 17 0.9572330713272095
4 18 0.9737551808357239
4 19 0.05564148724079132
4 20 0.19634312391281128
4 21 0.9685406684875488
4 22 0.9409727454185486
4 23 0.9609954953193665
4 24 0.7274622321128845
4 25 0.9610276818275452
4 26 0.9119369983673096
4 27 0.23444882035255432
4 28 0.9594504833221436
4 29 0.9695102572441101
4 30 0.9663767218589783
4 31 0.07868894934654236
4 33 0.9706348180770874
4 34 0.9426497220993042
4 35 0.963705837726593
4 36 0.9668179750442505
4 37 0.9706671237945557
4 38 0.9605243802070618
4 39 0.9626034498214722
4 40 0.11582698673009872
4 41 0.9578374028205872
4 42 0.9685081243515015
4 43 0.9578039050102234
4 44 0.9594504833221436
4 45 0.9653093218803406
4 46 0.12046735733747482
4 47 0.9646536111831665
4 48 0.9393280744552612
4 49 0.9523739218711853
4 50 0.05245929956436157
4 51 0.9620998501777649
4 52 0.9562217593193054
4 53 0.9479395747184753
4 54 0.1906469166278839
4 55 0.9662558436393738
4 56 0.9672424793243408
4 57 0.9561553597450256
4 58 0.2271554172039032
4 59 0.9652168154716492
4 60 0.9572014808654785
4 61 0.9684460759162903
4 62 0.9652774333953857
4 63 0.9664095044136047
4 64 0.9727569222450256
4 65 0.12441814690828323
4 66 0.964208722114563
4 67 0.9641479253768921
4 68 0.09086216986179352
4 69 0.9593231081962585
4 70 0.9603973031044006
4 71 0.9684165716171265
4 73 0.9642406702041626
4 74 0.9621329307556152
4 75 0.1506778746843338
4 76 0.9254043698310852
4 77 0.9626034498214722
4 78 0.16062313318252563
4 79 0.3677753210067749
4 80 0.9523739218711853
4 81 0.09637388586997986
4 82 0.0871734619140625
4 83 0.954984188079834
4 84 0.9429458379745483
4 85 0.9605243802070618
4 86 0.96900874376297
4 87 0.8574816584587097
4 88 0.9650826454162598
4 89 0.9656416773796082
4 90 0.18731717765331268
4 91 0.10302801430225372
4 92 0.9626684784889221
4 93 0.9685406684875488
4 94 0.09637387841939926
4 95 0.9523739218711853
4 96 0.9265512824058533
4 97 0.9636430144309998
4 98 0.9594504833221436
4 99 0.9642735719680786
4 100 0.9632037878036499
4 101 0.9700418710708618
4 102 0.9685081243515015
4 103 0.9534558653831482
4 104 0.9705438613891602
4 105 0.44295307993888855
4 106 0.9582780599594116
4 107 0.9550139307975769
4 108 0.0774875208735466
4 109 0.9561553597450256
4 110 0.38497787714004517
4 111 0.9137020707130432
4 112 0.9664095044136047
4 113 0.39748871326446533
4 114 0.9545365571975708
4 116 0.9658114314079285
4 117 0.9497312307357788
4 118 0.9599543213844299
4 119 0.9583419561386108
4 120 0.9164146184921265
4 121 0.9651601910591125
4 122 0.08499377965927124
4 123 0.3649081885814667
4 124 0.057466283440589905
4 125 0.9701359272003174
4 126 0.9572991728782654
4 127 0.96744304895401
4 128 0.9556825160980225
4 129 0.9572991728782654
4 130 0.970012366771698
4 131 0.9581896662712097
4 132 0.9589132070541382
4 133 0.9546031951904297
4 134 0.9308955669403076
4 135 0.9469456076622009
4 136 0.9566943049430847
4 138 0.9496313333511353
4 139 0.9592937231063843
4 140 0.18126150965690613
4 141 0.07950439304113388
4 142 0.9528830051422119
4 143 0.9621329307556152
4 144 0.9589132070541382
4 146 0.9664095044136047
4 147 0.15001358091831207
4 148 0.5180919766426086
4 149 0.9481016993522644
4 150 0.2592494785785675
4 151 0.9610276818275452
4 152 0.9468511939048767
4 153 0.9559552073478699
4 154 0.9667893052101135
4 155 0.9511683583259583
4 156 0.14736585319042206
4 157 0.9656941890716553
4 158 0.966878354549408
4 159 0.9561880230903625
4 161 0.9752071499824524
4 162 0.17008869349956512
4 163 0.9626355171203613
4 164 0.05564148724079132
4 165 0.9562217593193054
4 166 0.9604588747024536
4 167 0.9658758640289307
4 168 0.9626355171203613
4 169 0.9497312307357788
4 170 0.9566320776939392
4 171 0.9653420448303223
4 173 0.9678277373313904
4 174 0.9604276418685913
4 175 0.9609642028808594
4 176 0.15737789869308472
4 177 0.14366571605205536
4 178 0.3245028257369995
4 179 0.3986644446849823
4 180 0.35655149817466736
4 181 0.964119017124176
4 182 0.9588796496391296
4 183 0.1729964166879654
4 184 0.19595840573310852
4 185 0.954875648021698
4 186 0.9652466773986816
4 187 0.9615970849990845
4 188 0.17886234819889069
4 189 0.9717286229133606
4 190 0.9652774333953857
4 191 0.07868894934654236
4 192 0.9491884708404541
4 193 0.663533627986908
4 194 0.11612360179424286
4 195 0.9695407152175903
4 196 0.16998755931854248
4 197 0.9556161165237427
4 198 0.9726664423942566
4 199 0.1246618703007698
4 200 0.25365689396858215
4 201 0.9642735719680786
4 202 0.9533064961433411
4 203 0.9592379927635193
4 204 0.9604276418685913
4 205 0.9583754539489746
4 206 0.11582698673009872
4 207 0.9578039050102234
4 208 0.4554944634437561
4 209 0.9588796496391296
4 210 0.9669426679611206
4 211 0.08499377965927124
4 212 0.33074328303337097
4 213 0.9609642028808594
4 214 0.9436737895011902
4 215 0.9599875807762146
4 216 0.9701359272003174
4 217 0.9620998501777649
4 218 0.9599875807762146
4 219 0.958756148815155
4 220 0.9593847990036011
4 221 0.9626034498214722
4 222 0.937166154384613
4 223 0.9717286229133606
4 224 0.13629326224327087
4 225 0.9629938006401062
4 226 0.9701035618782043
4 227 0.9640381932258606
4 228 0.12114956229925156
4 229 0.05564148724079132
4 230 0.9690402746200562
4 231 0.965843141078949
4 232 0.9710749387741089
4 233 0.9577094316482544
4 234 0.1506778746843338
4 235 0.9578039050102234
4 236 0.16391657292842865
4 237 0.9615639448165894
4 238 0.9610608816146851
4 239 0.9690402746200562
4 240 0.9561880230903625
4 241 0.9721361994743347
4 242 0.9533930420875549
4 244 0.956760585308075
4 245 0.07183285802602768
4 246 0.2761412262916565
4 247 0.9572991728782654
4 248 0.9674755930900574
4 249 0.9642735719680786
4 250 0.20068097114562988
4 251 0.1116136834025383
4 252 0.9653093218803406
4 253 0.9409727454185486
4 254 0.9756886959075928
4 255 0.9593847990036011
5 6 0.9347199201583862
5 7 0.07239537686109543
5 8 0.8854383230209351
5 9 0.9636973142623901
5 10 0.9598907232284546
5 11 0.21632254123687744
5 12 0.08190601319074631
5 13 0.9525948762893677
5 14 0.958302915096283
5 15 0.9494335651397705
5 16 0.9593937397003174
5 17 0.9489311575889587
5 18 0.9627074003219604
5 19 0.05607721582055092
5 20 0.2171861231327057
5 21 0.9636507630348206
5 22 0.9355116486549377
5 23 0.9527812004089355
5 24 0.7262812256813049
5 25 0.9528301954269409
5 26 0.9179736971855164
5 27 0.22384873032569885
5 28 0.9575250744819641
5 29 0.9583519697189331
5 30 0.9656022787094116
5 31 0.07930515706539154
5 33 0.9616204500198364
5 34 0.9361702799797058
5 35 0.9576614499092102
5 36 0.9587069153785706
5 37 0.9678943753242493
5 38 0.9523311853408813
5 39 0.9523311853408813
5 40 0.11673403531312943
5 41 0.9537835717201233
5 42 0.9615238904953003
5 43 0.9547891616821289
5 44 0.9533299803733826
5 45 0.9561669826507568
5 46 0.10522262752056122
5 47 0.9512324333190918
5 48 0.9359747171401978
5 49 0.9503076672554016
5 50 0.06608763337135315
5 51 0.9560214877128601
5 52 0.9489806294441223
5 53 0.9361702799797058
5 54 0.2073087990283966
5 55 0.9560214877128601
5 56 0.9548798203468323
5 57 0.9541541337966919
5 58 0.21977689862251282
5 59 0.9560214877128601
5 60 0.9499368667602539
5 61 0.9603884816169739
5 62 0.9634320735931396
5 63 0.9593937397003174
5 64 0.963793158531189
5 65 0.12539246678352356
5 66 0.9592071175575256
5 67 0.957023024559021
5 68 0.09157370775938034
5 69 0.9478779435157776
5 70 0.9563452005386353
5 71 0.9592984914779663
5 72 0.06475239247083664
5 73 0.9592523574829102
5 74 0.9560690522193909
5 75 0.1380525678396225
5 76 0.9163079857826233
5 77 0.9533788561820984
5 78 0.15540573000907898
5 79 0.3374623656272888
5 80 0.9450164437294006
5 81 0.08633652329444885
5 82 0.10737969726324081
5 83 0.9412863850593567
5 84 0.926679253578186
5 85 0.9533788561820984
5 86 0.9609798192977905
5 87 0.8500100374221802
5 88 0.9473767876625061
5 89 0.9500820636749268
5 90 0.16102167963981628
5 91 0.12114062905311584
5 92 0.9566159248352051
5 93 0.9636507630348206
5 94 0.12141072750091553
5 95 0.9428998827934265
5 96 0.9251103401184082
5 97 0.9554742574691772
5 98 0.9522812366485596
5 99 0.9572108387947083
5 100 0.9592523574829102
5 101 0.9588975310325623
5 102 0.9625645875930786
5 103 0.9429512023925781
5 104 0.9583519697189331
5 105 0.4418431222438812
5 106 0.9478779435157776
5 107 0.9445120692253113
5 108 0.07809432595968246
5 109 0.9530998468399048
5 110 0.3956003189086914
5 111 0.9065548181533813
5 112 0.9604353904724121
5 113 0.39294666051864624
5 114 0.9493395686149597
5 116 0.9577087163925171
5 117 0.9465804100036621
5 118 0.9527812004089355
5 119 0.9521840214729309
5 120 0.9048770666122437
5 121 0.9517319202423096
5 122 0.08565936237573624
5 123 0.36215105652809143
5 124 0.057916298508644104
5 125 0.9632019400596619
5 126 0.9490311145782471
5 127 0.9646021723747253
5 128 0.9505347609519958
5 129 0.9532350301742554
5 130 0.9588484764099121
5 131 0.9477317333221436
5 132 0.9517319202423096
5 133 0.9494335651397705
5 134 0.9164681434631348
5 135 0.9384019374847412
5 136 0.9494335651397705
5 138 0.9443212151527405
5 139 0.955208420753479
5 140 0.19255562126636505
5 141 0.057233572006225586
5 142 0.942345142364502
5 143 0.9571150541305542
5 144 0.9527812004089355
5 145 0.05607721582055092
5 146 0.9625187516212463
5 147 0.16863314807415009
5 148 0.5334592461585999
5 149 0.9449211359024048
5 150 0.25359493494033813
5 151 0.9528301954269409
5 152 0.9350525736808777
5 153 0.9432590007781982
5 154 0.9576149582862854
5 155 0.9501053690910339
5 156 0.14176897704601288
5 157 0.9575250744819641
5 158 0.964016854763031
5 159 0.9489311575889587
5 161 0.9630621671676636
5 162 0.1536874920129776
5 163 0.9565684199333191
5 164 0.05607721582055092
5 165 0.9489806294441223
5 166 0.9511822462081909
5 167 0.9588484764099121
5 168 0.9544752836227417
5 169 0.9518744945526123
5 170 0.9482836127281189
5 171 0.9572601318359375
5 173 0.9586616158485413
5 174 0.9521840214729309
5 175 0.9506322741508484
5 176 0.15200155973434448
5 177 0.13031166791915894
5 178 0.30188676714897156
5 179 0.39400988817214966
5 180 0.35653629899024963
5 181 0.9527812004089355
5 182 0.9537835717201233
5 183 0.16232691705226898
5 184 0.19255562126636505
5 185 0.938959002494812
5 186 0.9633912444114685
5 187 0.955521821975708
5 188 0.16281822323799133
5 189 0.963793158531189
5 190 0.9571624994277954
5 191 0.07930515706539154
5 192 0.9449682235717773
5 193 0.6626915335655212
5 194 0.1170329600572586
5 195 0.9604833126068115
5 196 0.16520018875598907
5 197 0.9472763538360596
5 198 0.9657297730445862
5 199 0.12563809752464294
5 200 0.2632744014263153
5 201 0.9561669826507568
5 202 0.9448298215866089
5 203 0.946675181388855
5 204 0.9521840214729309
5 205 0.9511822462081909
5 206 0.11673403531312943
5 207 0.9505830407142639
5 208 0.42080631852149963
5 209 0.9516826868057251
5 210 0.9630621671676636
5 211 0.08565936237573624
5 212 0.3207547068595886
5 213 0.9495818614959717
5 214 0.9350525736808777
5 215 0.958071231842041
5 216 0.966315746307373
5 217 0.9560214877128601
5 218 0.9528301954269409
5 219 0.9525507092475891
5 220 0.9511330723762512
5 221 0.9554742574691772
5 222 0.9348562955856323
5 223 0.9648295044898987
5 224 0.12972941994667053
5 225 0.9484294056892395
5 226 0.9621154069900513
5 227 0.9484294056892395
5 228 0.12972941994667053
5 230 0.9610276818275452
5 231 0.9608869552612305
5 232 0.9599387049674988
5 233 0.9504409432411194
5 234 0.1173446774482727
5 235 0.9495315551757812
5 236 0.12848904728889465
5 237 0.9533788561820984
5 238 0.9560214877128601
5 239 0.9610276818275452
5 240 0.9520907402038574
5 241 0.9610276818275452
5 242 0.9492058157920837
5 244 0.9484800100326538
5 245 0.057916298508644104
5 246 0.27490973472595215
5 247 0.9500820636749268
5 248 0.9604833126068115
5 249 0.9592984914779663
5 250 0.20225249230861664
5 251 0.10383482277393341
5 252 0.9603423476219177
5 253 0.9333733320236206
5 254 0.9603884816169739
5 255 0.9521840214729309
6 7 0.07428838312625885
6 8 0.8623522520065308
6 9 0.9420089721679688
6 10 0.9347245693206787
6 11 0.23085816204547882
6 12 0.10505963861942291
6 13 0.9320885539054871
6 14 0.9362794160842896
6 15 0.9256007075309753
6 16 0.9342406988143921
6 17 0.924030065536499
6 18 0.9378477334976196
6 19 0.05754353106021881
6 20 0.21791259944438934
6 21 0.9365792870521545
6 22 0.9193804264068604
6 23 0.9281639456748962
6 24 0.6958697438240051
6 25 0.9261149168014526
6 26 0.8818991780281067
6 27 0.20843328535556793
6 28 0.9266006946563721
6 29 0.9395853877067566
6 30 0.9384194016456604
6 31 0.08137884736061096
6 33 0.9377464652061462
6 34 0.9190724492073059
6 35 0.9333528876304626
6 36 0.9279887676239014
6 37 0.9378477334976196
6 38 0.9299301505088806
6 39 0.9267049431800842
6 40 0.11978641897439957
6 41 0.9226731657981873
6 42 0.935410737991333
6 43 0.9247248768806458
6 44 0.9298292398452759
6 45 0.9329675436019897
6 46 0.12458540499210358
6 47 0.9276768565177917
6 48 0.9109978079795837
6 49 0.91977459192276
6 50 0.08137884736061096
6 51 0.9283691644668579
6 52 0.9241334199905396
6 53 0.9092252254486084
6 54 0.2127295583486557
6 55 0.9380396604537964
6 56 0.9238569140434265
6 57 0.9358283281326294
6 58 0.21612685918807983
6 59 0.926220178604126
6 60 0.9260913729667664
6 61 0.9330692887306213
6 62 0.9360833764076233
6 63 0.9342406988143921
6 64 0.9400766491889954
6 65 0.09435892105102539
6 66 0.9338399171829224
6 67 0.928266167640686
6 68 0.09396819770336151
6 69 0.9251108765602112
6 70 0.9306110143661499
6 71 0.9351097941398621
6 72 0.06644555181264877
6 73 0.9350111484527588
6 74 0.9306197166442871
6 75 0.09208054840564728
6 76 0.9011365175247192
6 77 0.9256299138069153
6 78 0.13953565061092377
6 79 0.3576400578022003
6 80 0.9176027178764343
6 81 0.08859406411647797
6 82 0.11018747836351395
6 83 0.9235257506370544
6 84 0.913403332233429
6 85 0.9310052394866943
6 86 0.9337574243545532
6 87 0.8419081568717957
6 88 0.9375837445259094
6 89 0.9274729490280151
6 90 0.1481391340494156
6 91 0.10654991865158081
6 92 0.9290615916252136
6 93 0.9408461451530457
6 94 0.10797401517629623
6 95 0.9176027178764343
6 96 0.9013333916664124
6 97 0.9320802688598633
6 98 0.9309054613113403
6 99 0.9361809492111206
6 100 0.9425169825553894
6 101 0.9337574243545532
6 102 0.9364784955978394
6 103 0.9198782444000244
6 104 0.9363785982131958
6 105 0.41111087799072266
6 106 0.921868622303009
6 107 0.9192836284637451
6 108 0.09015338867902756
6 109 0.9293369650840759
6 110 0.41114896535873413
6 111 0.8817144632339478
6 112 0.9321028590202332
6 113 0.40060320496559143
6 114 0.9232335686683655
6 116 0.9291660189628601
6 117 0.9256988167762756
6 118 0.9238569140434265
6 119 0.928551435470581
6 120 0.8923904895782471
6 121 0.9238569140434265
6 122 0.07534217089414597
6 123 0.37450143694877625
6 124 0.07428838312625885
6 125 0.9383295774459839
6 126 0.9317867755889893
6 127 0.935309648513794
6 128 0.9224614500999451
6 129 0.9274729490280151
6 130 0.9368635416030884
6 131 0.9193882942199707
6 132 0.9238569140434265
6 133 0.9266820549964905
6 134 0.8969761729240417
6 135 0.9105346202850342
6 136 0.9234380722045898
6 138 0.928683340549469
6 139 0.930418848991394
6 140 0.217856302857399
6 141 0.09396819770336151
6 142 0.9267852902412415
6 143 0.9338399171829224
6 144 0.9292407035827637
6 145 0.05754353106021881
6 146 0.9342406988143921
6 147 0.18497659265995026
6 148 0.4971162676811218
6 149 0.9260991811752319
6 150 0.26811161637306213
6 151 0.9250392317771912
6 152 0.914594292640686
6 153 0.9134232997894287
6 154 0.9300318956375122
6 155 0.9159934520721436
6 156 0.11776626855134964
6 157 0.9255244731903076
6 158 0.9324830174446106
6 159 0.9337567090988159
6 161 0.9369626045227051
6 162 0.15164051949977875
6 163 0.9311058521270752
6 165 0.9295313954353333
6 166 0.932961106300354
6 167 0.9357941150665283
6 168 0.9332537055015564
6 169 0.9213528037071228
6 170 0.9243171811103821
6 171 0.9330692887306213
6 173 0.9321797490119934
6 174 0.9231591820716858
6 175 0.9291405081748962
6 176 0.15597614645957947
6 177 0.1485767662525177
6 178 0.2936461865901947
6 179 0.3989926278591156
6 180 0.3284089267253876
6 181 0.9303174614906311
6 182 0.9291405081748962
6 183 0.14189423620700836
6 184 0.1519927680492401
6 185 0.9133168458938599
6 186 0.9349132776260376
6 187 0.9321797490119934
6 188 0.16707561910152435
6 189 0.9390131831169128
6 190 0.9317943453788757
6 191 0.05425256863236427
6 192 0.920758843421936
6 193 0.6381961703300476
6 194 0.12009317427873611
6 195 0.933275043964386
6 196 0.12557028234004974
6 197 0.9179231524467468
6 198 0.9376460313796997
6 199 0.11280789226293564
6 200 0.23883584141731262
6 201 0.9329675436019897
6 202 0.9128246903419495
6 203 0.9237250685691833
6 204 0.9242376089096069
6 205 0.929729163646698
6 206 0.11057207733392715
6 207 0.9311990141868591
6 208 0.4017907977104187
6 209 0.925906777381897
6 210 0.9337574243545532
6 211 0.06278514117002487
6 212 0.3065537214279175
6 213 0.9302183389663696
6 214 0.9080223441123962
6 215 0.9304174184799194
6 216 0.9393946528434753
6 217 0.9315926432609558
6 218 0.9261149168014526
6 219 0.9352424144744873
6 220 0.9274729490280151
6 221 0.9256299138069153
6 222 0.9229973554611206
6 223 0.9422034621238708
6 224 0.12529093027114868
6 225 0.9257019758224487
6 226 0.9360968470573425
6 227 0.9224614500999451
6 228 0.13312160968780518
6 229 0.05754353106021881
6 230 0.938129723072052
6 231 0.9346241354942322
6 232 0.9337574243545532
6 233 0.9319950938224792
6 234 0.13457927107810974
6 235 0.9236459136009216
6 236 0.16951988637447357
6 237 0.9288550615310669
6 238 0.9283691644668579
6 239 0.9370623826980591
6 240 0.921868622303009
6 241 0.9370623826980591
6 242 0.9196717143058777
6 244 0.9258038997650146
6 245 0.07428838312625885
6 246 0.2681673765182495
6 247 0.9231591820716858
6 248 0.935410737991333
6 249 0.931896448135376
6 250 0.2127295583486557
6 251 0.09767076373100281
6 252 0.94046550989151
6 253 0.9127976894378662
6 254 0.9330692887306213
6 255 0.9274729490280151
7 8 0.06224220246076584
7 9 0.07172191143035889
7 10 0.07198157161474228
7 11 0.11952286213636398
7 13 0.05822225287556648
7 14 0.057615119963884354
7 15 0.07277781516313553
7 16 0.07194431126117706
7 17 0.07273929566144943
7 18 0.07164823263883591
7 20 0.06666667014360428
7 21 0.07179581373929977
7 22 0.05907317250967026
7 23 0.07247138023376465
7 25 0.07239537686109543
7 26 0.07629365473985672
7 28 0.07243335247039795
7 29 0.05755544826388359
7 30 0.07201889902353287
7 33 0.05737753212451935
7 34 0.05891278013586998
7 35 0.07220640033483505
7 36 0.07220640033483505
7 38 0.07235746085643768
7 39 0.07235746085643768
7 41 0.058038100600242615
7 42 0.05749595910310745
7 43 0.07262410968542099
7 44 0.07243335247039795
7 45 0.07209372520446777
7 48 0.05917004495859146
7 49 0.07308816909790039
7 51 0.07231960445642471
7 53 0.05891278013586998
7 55 0.07231960445642471
7 56 0.0579771026968956
7 57 0.0728163942694664
7 58 0.06324554979801178
7 59 0.07231960445642471
7 60 0.0728163942694664
7 61 0.07201889902353287
7 62 0.07216878235340118
7 63 0.07194431126117706
7 64 0.07157479226589203
7 66 0.0722440779209137
7 67 0.07239537686109543
7 69 0.07273929566144943
7 70 0.07266244292259216
7 71 0.05767497792840004
7 73 0.05773502215743065
7 74 0.0722440779209137
7 75 0.09534625709056854
7 76 0.07524967938661575
7 77 0.07235746085643768
7 80 0.058470532298088074
7 84 0.05939793214201927
7 85 0.07235746085643768
7 86 0.05752567946910858
7 88 0.07270084321498871
7 89 0.07258584350347519
7 92 0.05776512250304222
7 93 0.05743664875626564
7 94 0.22360678017139435
7 95 0.058470532298088074
7 96 0.06006385013461113
7 97 0.07235746085643768
7 98 0.07243335247039795
7 99 0.07209372520446777
7 100 0.07216878235340118
7 102 0.05749595910310745
7 103 0.07301021367311478
7 104 0.07194431126117706
7 106 0.07273929566144943
7 107 0.0730491578578949
7 109 0.0728163942694664
7 111 0.06078774854540825
7 112 0.07194431126117706
7 114 0.07293249666690826
7 116 0.05770498141646385
7 117 0.07312723994255066
7 118 0.0579771026968956
7 119 0.07258584350347519
7 120 0.06082287058234215
7 121 0.0579771026968956
7 123 0.11633500456809998
7 125 0.057348039001226425
7 126 0.05806867033243179
7 127 0.07194431126117706
7 128 0.07270084321498871
7 129 0.07258584350347519
7 130 0.05758525803685188
7 133 0.05822225287556648
7 138 0.07336301356554031
7 139 0.0728163942694664
7 140 0.06819943338632584
7 142 0.05850179120898247
7 143 0.0722440779209137
7 144 0.0579771026968956
7 146 0.07194431126117706
7 147 0.16064386069774628
7 148 0.05207556486129761
7 149 0.0732448473572731
7 151 0.07239537686109543
7 152 0.058976780623197556
7 153 0.07336301356554031
7 154 0.07228181511163712
7 156 0.09325047582387924
7 157 0.05794667825102806
7 158 0.05764502286911011
7 159 0.07273929566144943
7 161 0.05752567946910858
7 163 0.07228181511163712
7 165 0.07266244292259216
7 166 0.058007579296827316
7 167 0.07198157161474228
7 168 0.07228181511163712
7 169 0.05850179120898247
7 170 0.07293249666690826
7 171 0.07201889902353287
7 173 0.07228181511163712
7 174 0.07258584350347519
7 175 0.07254762947559357
7 181 0.07247138023376465
7 183 0.08304548263549805
7 185 0.058753687888383865
7 186 0.0722440779209137
7 187 0.05782545357942581
7 188 0.08032193034887314
7 189 0.057259831577539444
7 190 0.07216878235340118
7 192 0.05853310227394104
7 194 0.1154700443148613
7 196 0.08451543003320694
7 197 0.07285503298044205
7 198 0.07179581373929977
7 200 0.10540925711393356
7 202 0.05872201919555664
7 204 0.07258584350347519
7 205 0.07250947505235672
7 206 0.24806946516036987
7 207 0.05809928849339485
7 210 0.07190710306167603
7 213 0.058038100600242615
7 215 0.07239537686109543
7 216 0.07168504595756531
7 217 0.07231960445642471
7 218 0.057916298508644104
7 220 0.07258584350347519
7 221 0.07235746085643768
7 222 0.07404360920190811
7 223 0.07157479226589203
7 227 0.07270084321498871
7 230 0.07183285802602768
7 231 0.07205627858638763
7 232 0.07190710306167603
7 233 0.07285503298044205
7 235 0.05809928849339485
7 237 0.07235746085643768
7 238 0.07231960445642471
7 239 0.07183285802602768
7 240 0.07273929566144943
7 242 0.05853310227394104
7 244 0.07262410968542099
7 247 0.05806867033243179
7 248 0.07186995446681976
7 249 0.07209372520446777
7 252 0.05767497792840004
7 253 0.05907317250967026
7 254 0.057615119963884354
7 255 0.07258584350347519
8 9 0.8972901701927185
8 10 0.8882178664207458
8 11 0.19528338313102722
8 12 0.09902674704790115
8 13 0.8912482857704163
8 14 0.8897990584373474
8 15 0.8878508806228638
8 16 0.8933554887771606
8 17 0.8839854001998901
8 18 0.8985982537269592
8 19 0.06026575341820717
8 20 0.1919134557247162
8 21 0.8993319272994995
8 22 0.8732506036758423
8 23 0.8999003171920776
8 24 0.6489624977111816
8 25 0.8876913785934448
8 26 0.8500146269798279
8 27 0.1781989187002182
8 28 0.892665445804596
8 29 0.8955944180488586
8 30 0.8886784315109253
8 31 0.07102387398481369
8 33 0.8950580954551697
8 34 0.8823385238647461
8 35 0.8954864144325256
8 36 0.8887449502944946
8 37 0.9019428491592407
8 38 0.8996116518974304
8 39 0.8917301893234253
8 40 0.10615269094705582
8 41 0.8827849626541138
8 42 0.9024971127510071
8 43 0.8882359266281128
8 44 0.892665445804596
8 45 0.8918453454971313
8 46 0.11308196187019348
8 47 0.8881570100784302
8 48 0.8965497016906738
8 49 0.8734403252601624
8 51 0.8811357617378235
8 52 0.8819208741188049
8 53 0.8754631876945496
8 54 0.1358495056629181
8 55 0.8957650661468506
8 56 0.8852402567863464
8 57 0.8803900480270386
8 58 0.24111324548721313
8 59 0.8935143947601318
8 60 0.8803900480270386
8 61 0.9077295660972595
8 62 0.8938969373703003
8 63 0.8978334665298462
8 64 0.8999044895172119
8 65 0.12577444314956665
8 66 0.8959536552429199
8 67 0.8843117952346802
8 68 0.061508480459451675
8 69 0.8828535676002502
8 70 0.8864434957504272
8 71 0.8940890431404114
8 72 0.05219167470932007
8 73 0.8938969373703003
8 74 0.8959536552429199
8 75 0.11869122833013535
8 76 0.8840495347976685
8 77 0.889478325843811
8 78 0.16005448997020721
8 79 0.31213250756263733
8 80 0.8791268467903137
8 81 0.10438334941864014
8 82 0.11540014296770096
8 83 0.8761831521987915
8 84 0.8734300136566162
8 85 0.8917301893234253
8 86 0.8928934335708618
8 87 0.7813658714294434
8 88 0.8801243305206299
8 89 0.8809909820556641
8 90 0.1670815646648407
8 91 0.11159049719572067
8 92 0.8954864144325256
8 93 0.8937459588050842
8 94 0.11308196187019348
8 95 0.87685227394104
8 96 0.8715393543243408
8 97 0.8838487267494202
8 98 0.8870298862457275
8 99 0.8985763192176819
8 100 0.8950199484825134
8 101 0.8928934335708618
8 102 0.903615415096283
8 103 0.8793252110481262
8 104 0.9011919498443604
8 105 0.3469078242778778
8 106 0.8851172924041748
8 107 0.8797942996025085
8 108 0.10490921884775162
8 109 0.8792570233345032
8 110 0.3215867877006531
8 111 0.8430252075195312
8 112 0.8922359943389893
8 113 0.3318046033382416
8 114 0.8886030912399292
8 116 0.8866972923278809
8 117 0.8784589171409607
8 118 0.8965172171592712
8 119 0.8753436207771301
8 120 0.8269497156143188
8 121 0.8908787369728088
8 122 0.07890639454126358
8 123 0.32885971665382385
8 124 0.06224220246076584
8 125 0.8945980668067932
8 126 0.8855088949203491
8 127 0.8944749236106873
8 128 0.878993034362793
8 129 0.8888973593711853
8 130 0.8926981687545776
8 131 0.8788568377494812
8 132 0.8965172171592712
8 133 0.8957781195640564
8 134 0.8647236227989197
8 135 0.8724268078804016
8 136 0.8833210468292236
8 138 0.8858574628829956
8 139 0.8769909143447876
8 140 0.19101975858211517
8 141 0.08611186593770981
8 142 0.8727694749832153
8 143 0.9004502892494202
8 144 0.879601776599884
8 146 0.8955944180488586
8 147 0.13123463094234467
8 148 0.4861946702003479
8 149 0.885570228099823
8 150 0.2229844480752945
8 151 0.8944504261016846
8 152 0.8855913281440735
8 153 0.8778665065765381
8 154 0.889673113822937
8 155 0.8781439065933228
8 156 0.13059259951114655
8 157 0.8983009457588196
8 158 0.895867109298706
8 159 0.879457950592041
8 161 0.8940123319625854
8 162 0.184224471449852
8 163 0.8874236345291138
8 164 0.06026575341820717
8 165 0.8909661769866943
8 166 0.8879621624946594
8 167 0.893818199634552
8 168 0.8941721320152283
8 169 0.8909758925437927
8 170 0.8817938566207886
8 171 0.8931610584259033
8 173 0.8885483741760254
8 174 0.8809909820556641
8 175 0.8974603414535522
8 176 0.1349453628063202
8 177 0.1478252410888672
8 178 0.27036285400390625
8 179 0.35936635732650757
8 180 0.24739903211593628
8 181 0.886367917060852
8 182 0.8929448127746582
8 183 0.16152916848659515
8 184 0.20163196325302124
8 185 0.8868125081062317
8 186 0.8925811648368835
8 187 0.8885483741760254
8 188 0.1374838948249817
8 189 0.8965632915496826
8 190 0.8916509747505188
8 191 0.07102387398481369
8 192 0.8846216797828674
8 193 0.6002508401870728
8 194 0.12577444314956665
8 195 0.898023784160614
8 196 0.11178407073020935
8 197 0.8842582702636719
8 198 0.8926287889480591
8 199 0.09282783418893814
8 200 0.21322938799858093
8 201 0.8940890431404114
8 202 0.8851924538612366
8 203 0.8811277747154236
8 204 0.8832499980926514
8 205 0.8981167674064636
8 206 0.08685220032930374
8 207 0.8814555406570435
8 208 0.39419618248939514
8 209 0.9031047224998474
8 210 0.8906556367874146
8 211 0.05260426551103592
8 212 0.2973991632461548
8 213 0.9019758701324463
8 214 0.8672370910644531
8 215 0.8854383230209351
8 216 0.897944450378418
8 217 0.8912637233734131
8 218 0.8955768942832947
8 219 0.885391891002655
8 220 0.8900268077850342
8 221 0.8861005902290344
8 222 0.8606630563735962
8 223 0.8976770043373108
8 224 0.1312180906534195
8 225 0.8755992650985718
8 226 0.8899357914924622
8 227 0.8869118690490723
8 228 0.10661469399929047
8 229 0.06026575341820717
8 230 0.8942070007324219
8 231 0.8936246633529663
8 232 0.9007258415222168
8 233 0.8887929320335388
8 234 0.13352763652801514
8 235 0.8882359266281128
8 236 0.138086199760437
8 237 0.8861005902290344
8 238 0.8901383280754089
8 239 0.9076201915740967
8 240 0.8817216753959656
8 241 0.8919715285301208
8 242 0.8812061548233032
8 244 0.8859758377075195
8 245 0.07780275493860245
8 246 0.277206152677536
8 247 0.8821204900741577
8 248 0.8957871198654175
8 249 0.8907235264778137
8 250 0.17932133376598358
8 251 0.07439366728067398
8 252 0.8952108025550842
8 253 0.8766975998878479
8 254 0.8853164315223694
8 255 0.8877678513526917
9 10 0.9674817323684692
9 11 0.2314550131559372
9 12 0.10143010318279266
9 13 0.9573047161102295
9 14 0.9690165519714355
9 15 0.9593926072120667
9 16 0.9700769186019897
9 17 0.9599282741546631
9 18 0.972251296043396
9 19 0.0555555559694767
9 20 0.20560282468795776
9 21 0.9701343774795532
9 22 0.9416379928588867
9 23 0.9615904092788696
9 24 0.7345151305198669
9 25 0.9626588821411133
9 26 0.9116230607032776
9 27 0.23408673703670502
9 28 0.9610857963562012
9 29 0.9680128693580627
9 30 0.9731488227844238
9 31 0.07856741547584534
9 33 0.9711934328079224
9 34 0.9496446251869202
9 35 0.9663605690002441
9 36 0.9642890691757202
9 37 0.9763622879981995
9 38 0.9631926417350769
9 39 0.9652685523033142
9 40 0.11564810574054718
9 41 0.9605208039283752
9 42 0.9711360335350037
9 43 0.9615334272384644
9 44 0.962124764919281
9 45 0.9658867120742798
9 46 0.12830005586147308
9 47 0.962124764919281
9 48 0.942121148109436
9 49 0.9519514441490173
9 50 0.07856741547584534
9 51 0.9637261033058167
9 52 0.9578717947006226
9 53 0.9454192519187927
9 54 0.19536174833774567
9 55 0.9647635221481323
9 56 0.9647090435028076
9 57 0.9599011540412903
9 58 0.21773241460323334
9 59 0.9637261033058167
9 60 0.9578121900558472
9 61 0.9669504165649414
9 62 0.9668923020362854
9 63 0.9700769186019897
9 64 0.9733080267906189
9 65 0.1159442588686943
9 66 0.9658284783363342
9 67 0.9616204500198364
9 68 0.07938160747289658
9 69 0.9578415155410767
9 70 0.9578717947006226
9 71 0.9669209122657776
9 72 0.06415002793073654
9 73 0.9668923020362854
9 74 0.9637559056282043
9 75 0.1436067521572113
9 76 0.9239751696586609
9 77 0.962154746055603
9 78 0.15396006405353546
9 79 0.3672073483467102
9 80 0.954048216342926
9 81 0.09622504562139511
9 82 0.10638079792261124
9 83 0.9514114260673523
9 84 0.9393593668937683
9 85 0.9642305374145508
9 86 0.9695751667022705
9 87 0.8561573624610901
9 88 0.9594207406044006
9 89 0.9589443206787109
9 90 0.18702787160873413
9 91 0.09429649263620377
9 92 0.9642890691757202
9 93 0.975283682346344
9 94 0.12830005586147308
9 95 0.9561450481414795
9 96 0.9391210079193115
9 97 0.9642305374145508
9 98 0.9662808179855347
9 99 0.9658867120742798
9 100 0.9699980020523071
9 101 0.9685437083244324
9 102 0.9711360335350037
9 103 0.9530305862426758
9 104 0.9680128693580627
9 105 0.4490731358528137
9 106 0.9588848948478699
9 107 0.9535389542579651
9 108 0.09670981019735336
9 109 0.9578121900558472
9 110 0.40196946263313293
9 111 0.9177407622337341
9 112 0.9690449237823486
9 113 0.3994027078151703
9 114 0.9582932591438293
9 116 0.9684584736824036
9 117 0.9556072950363159
9 118 0.9615904092788696
9 119 0.9599854946136475
9 120 0.9160898923873901
9 121 0.9615904092788696
9 122 0.08486250787973404
9 123 0.3587821125984192
9 124 0.05737753212451935
9 125 0.971722424030304
9 126 0.9589443206787109
9 127 0.9680128693580627
9 128 0.9583778977394104
9 129 0.9620679020881653
9 130 0.9674817323684692
9 131 0.9567099213600159
9 132 0.9626299738883972
9 133 0.9562607407569885
9 134 0.928382158279419
9 135 0.9475913047790527
9 136 0.9562607407569885
9 138 0.9502694606781006
9 139 0.9567676782608032
9 140 0.2054385542869568
9 141 0.09072183817625046
9 142 0.9598031044006348
9 143 0.9699736833572388
9 144 0.9605507850646973
9 146 0.9711089134216309
9 147 0.17282527685165405
9 148 0.5359666347503662
9 149 0.9508400559425354
9 150 0.2550424635410309
9 151 0.9616204500198364
9 152 0.9464462995529175
9 153 0.9502694606781006
9 154 0.9663330316543579
9 155 0.9496994018554688
9 156 0.15382637083530426
9 157 0.9642027616500854
9 158 0.9664187431335449
9 159 0.9599282741546631
9 161 0.9695751667022705
9 162 0.163969948887825
9 163 0.9632225036621094
9 165 0.9578717947006226
9 166 0.9600156545639038
9 167 0.9674817323684692
9 168 0.96529620885849
9 169 0.9524603486061096
9 170 0.9562008380889893
9 171 0.9679834842681885
9 173 0.9632225036621094
9 174 0.961026668548584
9 175 0.9678053855895996
9 176 0.15713483095169067
9 177 0.12909944355487823
9 178 0.3084246814250946
9 179 0.3929126560688019
9 180 0.36434462666511536
9 181 0.9615904092788696
9 182 0.9605208039283752
9 183 0.1727292388677597
9 184 0.17609018087387085
9 185 0.9481334686279297
9 186 0.9637559056282043
9 187 0.96529620885849
9 188 0.16706442832946777
9 189 0.9733080267906189
9 190 0.9668923020362854
9 191 0.05237828195095062
9 192 0.9508710503578186
9 193 0.669986367225647
9 194 0.12422599643468857
9 195 0.9690742492675781
9 196 0.16972501575946808
9 197 0.9583204388618469
9 198 0.9711642265319824
9 199 0.1244693398475647
9 200 0.2608253061771393
9 201 0.9658867120742798
9 202 0.947622537612915
9 203 0.953569769859314
9 204 0.9599854946136475
9 205 0.9631359577178955
9 206 0.11564810574054718
9 207 0.9604917168617249
9 208 0.43026793003082275
9 209 0.9594801664352417
9 210 0.9685437083244324
9 211 0.08486250787973404
9 212 0.3053092658519745
9 213 0.9626021385192871
9 214 0.9453888535499573
9 215 0.9626588821411133
9 216 0.9758355617523193
9 217 0.9647635221481323
9 218 0.9616204500198364
9 219 0.9614555835723877
9 220 0.961026668548584
9 221 0.962154746055603
9 222 0.9442156553268433
9 223 0.974334716796875
9 224 0.11340229958295822
9 225 0.9594207406044006
9 226 0.9716933965682983
9 227 0.9573350548744202
9 228 0.1285226047039032
9 229 0.0555555559694767
9 230 0.9706348180770874
9 231 0.9664187431335449
9 232 0.9685437083244324
9 233 0.9562302827835083
9 234 0.12992991507053375
9 235 0.9615334272384644
9 236 0.15154018998146057
9 237 0.9642305374145508
9 238 0.9626887440681458
9 239 0.9706348180770874
9 240 0.9578415155410767
9 241 0.9696044325828552
9 242 0.9540196657180786
9 244 0.9584081768989563
9 245 0.07172191143035889
9 246 0.28580188751220703
9 247 0.9599854946136475
9 248 0.9690742492675781
9 249 0.9669209122657776
9 250 0.20037104189395905
9 251 0.09429649263620377
9 252 0.9689891338348389
9 253 0.9448155760765076
9 254 0.9669504165649414
9 255 0.9589443206787109
10 11 0.23229297995567322
10 12 0.09161758422851562
10 13 0.9534364342689514
10 14 0.9642303586006165
10 15 0.9523887038230896
10 16 0.964267373085022
10 17 0.9539790153503418
10 18 0.9695824384689331
10 19 0.05575668811798096
10 20 0.21114595234394073
10 21 0.9736466407775879
10 22 0.940794825553894
10 23 0.9598551392555237
10 24 0.7453804016113281
10 25 0.9578062295913696
10 26 0.9116284251213074
10 27 0.2472991645336151
10 28 0.9583086371421814
10 29 0.968410313129425
10 30 0.9631934762001038
10 31 0.0788518637418747
10 33 0.9695468544960022
10 34 0.9414209127426147
10 35 0.9605036377906799
10 36 0.9636221528053284
10 37 0.9706138968467712
10 38 0.9625130295753479
10 39 0.959388017654419
10 40 0.11606680601835251
10 41 0.9619094133377075
10 42 0.9684440493583679
10 43 0.9545593857765198
10 44 0.9583086371421814
10 45 0.9631562829017639
10 46 0.12071677297353745
10 47 0.9583086371421814
10 48 0.9370136857032776
10 49 0.9501368999481201
10 50 0.06570988893508911
10 51 0.9599272608757019
10 52 0.95820152759552
10 53 0.9477818608283997
10 54 0.20612385869026184
10 55 0.9588861465454102
10 56 0.9577685594558716
10 57 0.9528934955596924
10 58 0.21852070093154907
10 59 0.9588861465454102
10 60 0.9549901485443115
10 61 0.9631934762001038
10 62 0.962081253528595
10 63 0.9653031229972839
10 64 0.9696188569068909
10 65 0.12467575073242188
10 66 0.9599647521972656
10 67 0.9609329700469971
10 68 0.07966900616884232
10 69 0.9592148661613464
10 70 0.9571554064750671
10 71 0.9652321338653564
10 73 0.96312016248703
10 74 0.9630849361419678
10 75 0.150989830493927
10 76 0.9208203554153442
10 77 0.9604296684265137
10 78 0.16095568239688873
10 79 0.36578649282455444
10 80 0.9490846991539001
10 81 0.0858430340886116
10 82 0.0970599353313446
10 83 0.9548559188842773
10 84 0.9363469481468201
10 85 0.9614713191986084
10 86 0.9658389687538147
10 87 0.8451516032218933
10 88 0.9566145539283752
10 89 0.9592812061309814
10 90 0.1711427867412567
10 91 0.11184477061033249
10 92 0.9625826478004456
10 93 0.9674450755119324
10 94 0.12071677297353745
10 95 0.9490846991539001
10 96 0.9219843745231628
10 97 0.959388017654419
10 98 0.9572658538818359
10 99 0.9621184468269348
10 100 0.962081253528595
10 101 0.9679093956947327
10 102 0.9653400182723999
10 103 0.9491233825683594
10 104 0.9673745632171631
10 105 0.43476518988609314
10 106 0.9571204781532288
10 107 0.9517329931259155
10 108 0.10676592588424683
10 109 0.9581349492073059
10 110 0.3832535445690155
10 111 0.91778165102005
10 112 0.968410313129425
10 113 0.40084871649742126
10 114 0.9502130150794983
10 116 0.962618887424469
10 117 0.9485392570495605
10 118 0.9619418382644653
10 119 0.9592812061309814
10 120 0.9183119535446167
10 121 0.9577685594558716
10 122 0.08516974747180939
10 123 0.3600810170173645
10 124 0.07198157161474228
10 125 0.9711125493049622
10 126 0.956146240234375
10 127 0.969446063041687
10 128 0.9566145539283752
10 129 0.9571912884712219
10 130 0.9678756594657898
10 131 0.950718879699707
10 132 0.9577685594558716
10 133 0.9565796256065369
10 134 0.9306636452674866
10 135 0.9467904567718506
10 136 0.954484224319458
10 138 0.9473727941513062
10 139 0.9570866823196411
10 140 0.21109141409397125
10 141 0.09105028957128525
10 142 0.949592113494873
10 143 0.9599647521972656
10 144 0.9619418382644653
10 145 0.05575668811798096
10 146 0.9673745632171631
10 147 0.16766928136348724
10 148 0.543529748916626
10 149 0.9511191844940186
10 150 0.2445046603679657
10 151 0.9609329700469971
10 152 0.9413823485374451
10 153 0.9484289884567261
10 154 0.9594255685806274
10 155 0.9446747303009033
10 156 0.14095865190029144
10 157 0.9593513607978821
10 158 0.9626561403274536
10 159 0.9560733437538147
10 161 0.9679093956947327
10 162 0.16456358134746552
10 163 0.9594255685806274
10 164 0.05575668811798096
10 165 0.9571554064750671
10 166 0.9614036083221436
10 167 0.9647668600082397
10 168 0.9604661464691162
10 169 0.950644850730896
10 170 0.9512630105018616
10 171 0.9652671217918396
10 173 0.9635879397392273
10 174 0.9571912884712219
10 175 0.9556428790092468
10 176 0.13141977787017822
10 177 0.1367649883031845
10 178 0.33142805099487305
10 179 0.37629368901252747
10 180 0.348915696144104
10 181 0.9598551392555237
10 182 0.9577317833900452
10 183 0.15542134642601013
10 184 0.21109141409397125
10 185 0.9452223777770996
10 186 0.9651650190353394
10 187 0.9604661464691162
10 188 0.17345097661018372
10 189 0.9696188569068909
10 190 0.9610422849655151
10 191 0.0788518637418747
10 192 0.9522069692611694
10 193 0.6694101691246033
10 194 0.07480545341968536
10 195 0.9694786667823792
10 196 0.1581723988056183
10 197 0.9554969072341919
10 198 0.9674450755119324
10 199 0.1327274739742279
10 200 0.2693571150302887
10 201 0.9714593887329102
10 202 0.9468263983726501
10 203 0.9517694115638733
10 204 0.9551013112068176
10 205 0.9614036083221436
10 206 0.10713858902454376
10 207 0.95665043592453
10 208 0.45867496728897095
10 209 0.956687331199646
10 210 0.9668741822242737
10 211 0.08516974747180939
10 212 0.3251746892929077
10 213 0.9556428790092468
10 214 0.9435049891471863
10 215 0.9578062295913696
10 216 0.968016505241394
10 217 0.9609683752059937
10 218 0.9609329700469971
10 219 0.9513015151023865
10 220 0.9551013112068176
10 221 0.9614713191986084
10 222 0.9359085559844971
10 223 0.9716796278953552
10 224 0.12898790836334229
10 225 0.9555678963661194
10 226 0.9690129160881042
10 227 0.9555678963661194
10 228 0.13657543063163757
10 229 0.05575668811798096
10 230 0.9658758640289307
10 231 0.9657681584358215
10 232 0.9710149765014648
10 233 0.9513015151023865
10 234 0.13040030002593994
10 235 0.95665043592453
10 236 0.17033949494361877
10 237 0.959388017654419
10 238 0.9599272608757019
10 239 0.9669100642204285
10 240 0.9602620601654053
10 241 0.9669100642204285
10 242 0.9479936361312866
10 244 0.9608324766159058
10 245 0.05758525803685188
10 246 0.29021114110946655
10 247 0.956146240234375
10 248 0.9663746953010559
10 249 0.9621184468269348
10 250 0.19606903195381165
10 251 0.12044820934534073
10 252 0.9652321338653564
10 253 0.9386687278747559
10 254 0.9642303586006165
10 255 0.9592812061309814
11 12 0.08451543003320694
11 13 0.22616392374038696
11 14 0.24102133512496948
11 15 0.22616392374038696
11 16 0.24077171087265015
11 17 0.24343223869800568
11 18 0.23121726512908936
11 20 0.09960239380598068
11 21 0.24027474224567413
11 22 0.22064357995986938
11 23 0.22521165013313293
11 24 0.13058069348335266
11 25 0.22930191457271576
11 26 0.22341148555278778
11 28 0.24240833520889282
11 29 0.21497473120689392
11 30 0.23671738803386688
11 31 0.054554469883441925
11 33 0.23574122786521912
11 34 0.23324717581272125
11 35 0.2416488230228424
11 36 0.22007304430007935
11 37 0.20980826020240784
11 38 0.2335060089826584
11 39 0.2335060089826584
11 41 0.2254485934972763
11 42 0.23622779548168182
11 43 0.23002640902996063
11 44 0.22076474130153656
11 45 0.2412717491388321
11 46 0.06681530922651291
11 47 0.22509345412254333
11 48 0.22984561324119568
11 49 0.20092126727104187
11 50 0.10910893976688385
11 51 0.22473999857902527
11 52 0.22146299481391907
11 53 0.22884626686573029
11 55 0.23338384926319122
11 56 0.2208806574344635
11 57 0.23933866620063782
11 58 0.05669466778635979
11 59 0.22041809558868408
11 60 0.2349870353937149
11 61 0.2281094789505005
11 62 0.23721003532409668
11 63 0.23217271268367767
11 64 0.23525765538215637
11 65 0.0690065547823906
11 66 0.2288227081298828
11 67 0.23795481026172638
11 69 0.22169722616672516
11 70 0.225805401802063
11 71 0.23696333169937134
11 72 0.13363061845302582
11 73 0.2070196568965912
11 74 0.24177493155002594
11 75 0.1709408462047577
11 76 0.22934845089912415
11 77 0.23783020675182343
11 80 0.22712837159633636
11 83 0.21850942075252533
11 84 0.24847939610481262
11 85 0.2162092626094818
11 86 0.2363499104976654
11 87 0.17078250646591187
11 88 0.2433035522699356
11 89 0.21689167618751526
11 92 0.23733368515968323
11 93 0.22740289568901062
11 95 0.2358640879392624
11 96 0.2288307398557663
11 97 0.24215437471866608
11 98 0.24240833520889282
11 99 0.21542119979858398
11 100 0.23289711773395538
11 101 0.2363499104976654
11 102 0.23622779548168182
11 103 0.23561249673366547
11 104 0.2364722192287445
11 105 0.07559289038181305
11 106 0.24343223869800568
11 107 0.2313726842403412
11 109 0.22628381848335266
11 110 0.15700137615203857
11 111 0.24067053198814392
11 112 0.21497473120689392
11 113 0.0526578463613987
11 114 0.24407880008220673
11 116 0.24139724671840668
11 117 0.23161998391151428
11 118 0.2338736355304718
11 119 0.21689167618751526
11 120 0.2408096045255661
11 121 0.24253562092781067
11 123 0.10428520292043686
11 124 0.05976143106818199
11 125 0.23990404605865479
11 126 0.22556734085083008
11 127 0.24077171087265015
11 128 0.23895885050296783
11 129 0.22990518808364868
11 130 0.22368954122066498
11 131 0.2006000429391861
11 132 0.21654966473579407
11 133 0.23921185731887817
11 134 0.22857318818569183
11 135 0.21956872940063477
11 136 0.22616392374038696
11 138 0.21482965350151062
11 139 0.23063543438911438
11 142 0.22287961840629578
11 143 0.2374575287103653
11 144 0.23820464313030243
11 146 0.2364722192287445
11 147 0.09600307792425156
11 148 0.09336329996585846
11 149 0.2232380509376526
11 150 0.23788553476333618
11 151 0.2422812581062317
11 152 0.23350058495998383
11 153 0.22798247635364532
11 154 0.23326188325881958
11 155 0.21956872940063477
11 157 0.2294221818447113
11 158 0.2282278835773468
11 159 0.23908524215221405
11 161 0.22345809638500214
11 163 0.23326188325881958
11 165 0.225805401802063
11 166 0.21666347980499268
11 167 0.23229297995567322
11 168 0.23326188325881958
11 169 0.17480754852294922
11 170 0.21356895565986633
11 171 0.24102133512496948
11 173 0.2419012188911438
11 174 0.2342430055141449
11 175 0.23845525085926056
11 177 0.05976143106818199
11 178 0.07787612080574036
11 179 0.06419407576322556
11 180 0.05793622508645058
11 181 0.2338736355304718
11 182 0.21244195103645325
11 184 0.081513911485672
11 185 0.1887272298336029
11 186 0.21155306696891785
11 187 0.23758156597614288
11 188 0.1920061558485031
11 189 0.23953506350517273
11 190 0.23721003532409668
11 192 0.24486154317855835
11 193 0.10591951757669449
11 195 0.2405228465795517
11 196 0.10101525485515594
11 197 0.23511172831058502
11 198 0.23169350624084473
11 199 0.06482037156820297
11 201 0.23696333169937134
11 202 0.2193319946527481
11 203 0.22676526010036469
11 204 0.22990518808364868
11 205 0.23399655520915985
11 206 0.1111873984336853
11 207 0.22568628191947937
11 208 0.18575941026210785
11 209 0.21244195103645325
11 210 0.23205263912677765
11 212 0.11681418865919113
11 213 0.23411968350410461
11 214 0.22909489274024963
11 215 0.22497545182704926
11 216 0.23133604228496552
11 217 0.24202769994735718
11 218 0.23362834751605988
11 219 0.20028038322925568
11 220 0.2385808527469635
11 221 0.22918182611465454
11 222 0.20797275006771088
11 223 0.22670283913612366
11 225 0.2302694320678711
11 226 0.24015098810195923
11 227 0.23895885050296783
11 228 0.09449111670255661
11 230 0.23181304335594177
11 231 0.21530932188034058
11 232 0.23205263912677765
11 233 0.23075781762599945
11 235 0.21700604259967804
11 236 0.12626907229423523
11 237 0.22918182611465454
11 238 0.22041809558868408
11 239 0.23181304335594177
11 240 0.24343223869800568
11 241 0.22752021253108978
11 242 0.24486154317855835
11 244 0.24304676055908203
11 247 0.2342430055141449
11 248 0.23193274438381195
11 249 0.2412717491388321
11 252 0.2326548993587494
11 253 0.2250564694404602
11 254 0.2324134260416031
11 255 0.22990518808364868
12 13 0.092631034553051
12 14 0.10185010731220245
12 15 0.10292337089776993
12 16 0.1017446219921112
12 17 0.10286889225244522
12 18 0.10132590681314468
12 21 0.10153461992740631
12 22 0.10442761331796646
12 23 0.10249000787734985
12 25 0.10238251835107803
12 26 0.07552686333656311
12 28 0.09219259768724442
12 29 0.1017446219921112
12 30 0.09166509658098221
12 33 0.10143010318279266
12 34 0.10414406657218933
12 35 0.10211528092622757
12 36 0.10211528092622757
12 37 0.10132590681314468
12 38 0.0920960083603859
12 39 0.0920960083603859
12 41 0.09233804792165756
12 42 0.10163945704698563
12 43 0.08216480165719986
12 44 0.10243622213602066
12 45 0.10195592790842056
12 46 0.15811388194561005
12 47 0.10243622213602066
12 48 0.10459885001182556
12 49 0.07235359400510788
12 50 0.12909944355487823
12 51 0.0818202942609787
12 52 0.08220817148685455
12 53 0.08331525325775146
12 55 0.10227537155151367
12 56 0.081992007791996
12 57 0.1029779314994812
12 58 0.17888544499874115
12 59 0.061365216970443726
12 60 0.1029779314994812
12 61 0.08148008584976196
12 62 0.10206206887960434
12 63 0.1017446219921112
12 64 0.10122203826904297
12 65 0.08164965361356735
12 66 0.10216855257749557
12 67 0.10238251835107803
12 69 0.08229511231184006
12 70 0.09248419106006622
12 71 0.10195592790842056
12 73 0.09185586124658585
12 74 0.10216855257749557
12 76 0.09577720612287521
12 77 0.0920960083603859
12 78 0.06324554979801178
12 80 0.0930260494351387
12 81 0.10540925711393356
12 83 0.08273403346538544
12 84 0.10500170290470123
12 85 0.0920960083603859
12 86 0.10169199109077454
12 87 0.09237603843212128
12 88 0.10281451791524887
12 89 0.10265187174081802
12 92 0.08169221878051758
12 93 0.08122768998146057
12 95 0.0930260494351387
12 96 0.09556100517511368
12 97 0.10232890397310257
12 98 0.10243622213602066
12 99 0.08156473934650421
12 100 0.10206206887960434
12 101 0.10169199109077454
12 102 0.10163945704698563
12 103 0.0826016217470169
12 104 0.0813956931233406
12 106 0.09258200228214264
12 107 0.10330711305141449
12 109 0.09268013387918472
12 111 0.10745857656002045
12 112 0.1017446219921112
12 114 0.10314212739467621
12 116 0.10200896114110947
12 117 0.1034175455570221
12 118 0.081992007791996
12 119 0.09238668531179428
12 120 0.10752066969871521
12 121 0.10249000787734985
12 123 0.10968170315027237
12 124 0.1414213627576828
12 125 0.09124016761779785
12 126 0.10265187174081802
12 127 0.1017446219921112
12 128 0.09253305941820145
12 129 0.10265187174081802
12 130 0.09161758422851562
12 131 0.10319703072309494
12 132 0.05124500393867493
12 133 0.07204635441303253
12 134 0.07424157112836838
12 135 0.09352699667215347
12 136 0.10292337089776993
12 138 0.10375096648931503
12 139 0.1029779314994812
12 142 0.1034175455570221
12 143 0.10216855257749557
12 144 0.09224100410938263
12 146 0.1017446219921112
12 149 0.07250869274139404
12 150 0.15011732280254364
12 151 0.09214426577091217
12 152 0.10425721108913422
12 153 0.09337586909532547
12 154 0.10222192108631134
12 155 0.1039188876748085
12 157 0.10243622213602066
12 158 0.0815223827958107
12 159 0.09258200228214264
12 161 0.10169199109077454
12 162 0.05773502215743065
12 163 0.10222192108631134
12 165 0.07193214446306229
12 166 0.08203510195016861
12 167 0.10179731994867325
12 168 0.10222192108631134
12 169 0.07239227741956711
12 170 0.09282791614532471
12 171 0.10185010731220245
12 173 0.10222192108631134
12 174 0.10265187174081802
12 175 0.10259783267974854
12 176 0.12909944355487823
12 177 0.0707106813788414
12 179 0.1519109010696411
12 181 0.081992007791996
12 182 0.10259783267974854
12 183 0.05872201919555664
12 185 0.08309026062488556
12 186 0.07151798903942108
12 187 0.10222192108631134
12 189 0.10122203826904297
12 190 0.09185586124658585
12 192 0.10347288846969604
12 194 0.08164965361356735
12 195 0.10163945704698563
12 196 0.05976143106818199
12 197 0.10303258150815964
12 198 0.10153461992740631
12 200 0.07453560084104538
12 201 0.10195592790842056
12 202 0.08304548263549805
12 203 0.10319703072309494
12 204 0.09238668531179428
12 205 0.10254388302564621
12 207 0.09243540465831757
12 209 0.10259783267974854
12 210 0.10169199109077454
12 212 0.06142950803041458
12 213 0.10259783267974854
12 214 0.10425721108913422
12 215 0.09214426577091217
12 216 0.09124016761779785
12 217 0.10227537155151367
12 218 0.09214426577091217
12 219 0.10303258150815964
12 220 0.09238668531179428
12 221 0.0920960083603859
12 222 0.06282808631658554
12 223 0.10122203826904297
12 225 0.10281451791524887
12 226 0.1014823243021965
12 227 0.10281451791524887
12 230 0.10158699750900269
12 231 0.10190297663211823
12 232 0.09152279049158096
12 233 0.09272932261228561
12 235 0.10270600765943527
12 237 0.0920960083603859
12 238 0.0818202942609787
12 239 0.10158699750900269
12 240 0.10286889225244522
12 241 0.10158699750900269
12 242 0.10347288846969604
12 244 0.10270600765943527
12 247 0.09238668531179428
12 248 0.09147550910711288
12 249 0.08156473934650421
12 252 0.09176032990217209
12 253 0.08354208618402481
12 254 0.10185010731220245
12 255 0.10265187174081802
13 14 0.9570755958557129
13 15 0.9427965879440308
13 16 0.9550371766090393
13 17 0.9433563947677612
13 18 0.9594499468803406
13 19 0.05637345090508461
13 20 0.218333438038826
13 21 0.9582911729812622
13 22 0.9361544251441956
13 23 0.9504303932189941
13 24 0.7038447856903076
13 25 0.9494335651397705
13 26 0.9128285646438599
13 27 0.2125295251607895
13 28 0.9520401954650879
13 29 0.9560843706130981
13 30 0.9570755958557129
13 31 0.07972410321235657
13 33 0.9593926072120667
13 34 0.9303968548774719
13 35 0.9553633332252502
13 36 0.9522103071212769
13 37 0.9604929089546204
13 38 0.9499896168708801
13 39 0.948936402797699
13 40 0.11735069751739502
13 41 0.9461504220962524
13 42 0.9571883082389832
13 43 0.9513763189315796
13 44 0.9509859085083008
13 45 0.9549218416213989
13 46 0.10577848553657532
13 47 0.9467686414718628
13 48 0.9290769696235657
13 49 0.9372425079345703
13 50 0.053149402141571045
13 51 0.9484399557113647
13 52 0.9423596858978271
13 53 0.9303968548774719
13 54 0.2033209353685379
13 55 0.9579138159751892
13 56 0.9472658038139343
13 57 0.9432963728904724
13 58 0.22093789279460907
13 59 0.9494926333427429
13 60 0.9454160928726196
13 61 0.9581238627433777
13 62 0.9538151621818542
13 63 0.9560843706130981
13 64 0.9595082998275757
13 65 0.10924755036830902
13 66 0.9516556262969971
13 67 0.9525948762893677
13 68 0.09205746650695801
13 69 0.9433563947677612
13 70 0.9455326199531555
13 71 0.9538725018501282
13 72 0.06509445607662201
13 73 0.9559160470962524
13 74 0.9485009908676147
13 75 0.11796456575393677
13 76 0.9156719446182251
13 77 0.9468300342559814
13 78 0.15622667968273163
13 79 0.35036787390708923
13 80 0.9436255693435669
13 81 0.08679260313510895
13 82 0.10794694721698761
13 83 0.9388079643249512
13 84 0.9261710047721863
13 85 0.948936402797699
13 86 0.9555898308753967
13 87 0.8438042402267456
13 88 0.9428576827049255
13 89 0.9466487765312195
13 90 0.1786177158355713
13 91 0.12178057432174683
13 92 0.9501083493232727
13 93 0.9572461247444153
13 94 0.09764167666435242
13 95 0.9372425079345703
13 96 0.9190691113471985
13 97 0.948936402797699
13 98 0.9467686414718628
13 99 0.9528231620788574
13 100 0.9580169916152954
13 101 0.9534965753555298
13 102 0.9655572175979614
13 103 0.940493643283844
13 104 0.9560843706130981
13 105 0.4234643280506134
13 106 0.9507677555084229
13 107 0.9388687610626221
13 108 0.07850686460733414
13 109 0.9411765933036804
13 110 0.4027886986732483
13 111 0.9146617650985718
13 112 0.9529427886009216
13 113 0.3668065667152405
13 114 0.9437388777732849
13 116 0.9512190222740173
13 117 0.9377435445785522
13 118 0.9472658038139343
13 119 0.9455922842025757
13 120 0.9118704795837402
13 121 0.9483206868171692
13 122 0.08611186593770981
13 123 0.3753529191017151
13 124 0.05822225287556648
13 125 0.9578561186790466
13 126 0.9487618803977966
13 127 0.9550371766090393
13 128 0.943915843963623
13 129 0.9477052688598633
13 130 0.9555319547653198
13 131 0.9421169757843018
13 132 0.951485276222229
13 133 0.9427965879440308
13 134 0.9180347323417664
13 135 0.9337331056594849
13 136 0.944915235042572
13 138 0.9364955425262451
13 139 0.9475359320640564
13 140 0.20349963009357452
13 142 0.9388079643249512
13 143 0.9506040811538696
13 144 0.9472658038139343
13 145 0.05637345090508461
13 146 0.9550371766090393
13 147 0.16367831826210022
13 148 0.5343823432922363
13 149 0.9445821642875671
13 150 0.25879722833633423
13 151 0.9483798146247864
13 152 0.9346268177032471
13 153 0.935427725315094
13 154 0.9521527290344238
13 155 0.9390808939933777
13 156 0.14930444955825806
13 157 0.9520401954650879
13 158 0.955474853515625
13 159 0.9497089385986328
13 161 0.9587298035621643
13 162 0.1723262220621109
13 163 0.9479443430900574
13 165 0.9476478695869446
13 166 0.9530407786369324
13 167 0.9534364342689514
13 168 0.9479443430900574
13 169 0.940936803817749
13 170 0.9448004364967346
13 171 0.9581238627433777
13 173 0.9553090929985046
13 174 0.9445357322692871
13 175 0.9440385103225708
13 176 0.1328735053539276
13 177 0.11644450575113297
13 178 0.3034815490245819
13 179 0.398697167634964
13 180 0.3217310905456543
13 181 0.9462109208106995
13 182 0.9503743052482605
13 183 0.1571405827999115
13 184 0.18364600837230682
13 185 0.9342982769012451
13 186 0.9516556262969971
13 187 0.9542570114135742
13 188 0.15783266723155975
13 189 0.9595082998275757
13 190 0.9548656344413757
13 191 0.0664367526769638
13 192 0.9403753876686096
13 193 0.6494995951652527
13 194 0.12605486810207367
13 195 0.9540500640869141
13 196 0.1476203352212906
13 197 0.9437969326972961
13 198 0.9572461247444153
13 199 0.1105140745639801
13 200 0.2224721908569336
13 201 0.9517738223075867
13 202 0.9348632097244263
13 203 0.9453033804893494
13 204 0.9445357322692871
13 205 0.9498745203018188
13 206 0.10832372307777405
13 207 0.9471479654312134
13 208 0.4388645887374878
13 209 0.9524862766265869
13 210 0.9545432329177856
13 211 0.061508480459451675
13 212 0.31928789615631104
13 213 0.9503743052482605
13 214 0.9346268177032471
13 215 0.947326123714447
13 216 0.9609863758087158
13 217 0.9537032246589661
13 218 0.9494335651397705
13 219 0.9501596093177795
13 220 0.9498183727264404
13 221 0.9499896168708801
13 222 0.9322506785392761
13 223 0.96055006980896
13 224 0.11507182568311691
13 225 0.9460322856903076
13 226 0.9577975273132324
13 227 0.9460322856903076
13 228 0.11507182568311691
13 229 0.05637345090508461
13 230 0.9546031951904297
13 231 0.9575724601745605
13 232 0.9576831459999084
13 233 0.9480387568473816
13 234 0.1457209289073944
13 235 0.9450337886810303
13 236 0.1476203352212906
13 237 0.9520960450172424
13 238 0.9515979290008545
13 239 0.9587854743003845
13 240 0.9486501812934875
13 241 0.9577398896217346
13 242 0.9467653036117554
13 244 0.9450337886810303
13 245 0.07277781516313553
13 246 0.29683324694633484
13 247 0.9466487765312195
13 248 0.956142246723175
13 249 0.9559713006019592
13 250 0.20840394496917725
13 251 0.10438334941864014
13 252 0.9601686596870422
13 253 0.9372292160987854
13 254 0.9570755958557129
13 255 0.9477052688598633
14 15 0.9518342614173889
14 16 0.9658036828041077
14 17 0.953425943851471
14 18 0.9680211544036865
14 20 0.2160567045211792
14 21 0.9658784866333008
14 22 0.9444735646247864
14 23 0.9561774730682373
14 24 0.7266095876693726
14 25 0.9572601318359375
14 26 0.9088043570518494
14 27 0.24330362677574158
14 28 0.9577622413635254
14 29 0.9637311697006226
14 30 0.9647303223609924
14 31 0.07889275252819061
14 33 0.9690165519714355
14 34 0.9472126364707947
14 35 0.9630818367004395
14 36 0.9610016942024231
14 37 0.9690532088279724
14 38 0.963012158870697
14 39 0.9598855376243591
14 40 0.11612698435783386
14 41 0.9550934433937073
14 42 0.9668757319450378
14 43 0.9540082812309265
14 44 0.958805501461029
14 45 0.9615789651870728
14 46 0.1207793727517128
14 47 0.9577622413635254
14 48 0.9374995231628418
14 49 0.9495768547058105
14 50 0.06574396789073944
14 51 0.9635500907897949
14 52 0.9576517343521118
14 53 0.9408483505249023
14 54 0.2062307447195053
14 55 0.9614666700363159
14 56 0.9572213292121887
14 57 0.9586318135261536
14 58 0.2049693912267685
14 59 0.958341658115387
14 60 0.9523388147354126
14 61 0.9636929035186768
14 62 0.9646590352058411
14 63 0.9658036828041077
14 64 0.9701216220855713
14 65 0.11642436683177948
14 66 0.9604625105857849
14 67 0.958302915096283
14 68 0.09109750390052795
14 69 0.9555214047431946
14 70 0.9534652829170227
14 71 0.9646941423416138
14 72 0.06441566348075867
14 73 0.9615405201911926
14 74 0.9604625105857849
14 75 0.15106812119483948
14 76 0.9202139973640442
14 77 0.9588432908058167
14 78 0.1481560319662094
14 79 0.3687278926372528
14 80 0.9495768547058105
14 81 0.096623495221138
14 82 0.09711026400327682
14 83 0.9521910548210144
14 84 0.9336241483688354
14 85 0.9598855376243591
14 86 0.9653041362762451
14 87 0.862054705619812
14 88 0.9571105241775513
14 89 0.9545510411262512
14 90 0.18780232965946198
14 91 0.12051066756248474
14 92 0.9599616527557373
14 93 0.9710491895675659
14 94 0.11272741109132767
14 95 0.9516823291778564
14 96 0.93003249168396
14 97 0.9598855376243591
14 98 0.9629787802696228
14 99 0.9636557698249817
14 100 0.9646590352058411
14 101 0.9663398265838623
14 102 0.9658405184745789
14 103 0.951718807220459
14 104 0.9637311697006226
14 105 0.4349905848503113
14 106 0.9544737339019775
14 107 0.9490699768066406
14 108 0.09711026400327682
14 109 0.9544364809989929
14 110 0.39858850836753845
14 111 0.9226353764533997
14 112 0.9637311697006226
14 113 0.3959798812866211
14 114 0.9549077749252319
14 116 0.9620791673660278
14 117 0.9479778409004211
14 118 0.9572213292121887
14 119 0.9566420316696167
14 120 0.9187881350517273
14 121 0.9561774730682373
14 122 0.07304049283266068
14 123 0.36306053400039673
14 125 0.9674859046936035
14 126 0.9576875567436218
14 127 0.9647673964500427
14 128 0.9550161957740784
14 129 0.958733081817627
14 130 0.9663039445877075
14 131 0.9522628784179688
14 132 0.9561774730682373
14 133 0.9518342614173889
14 134 0.9225044250488281
14 135 0.9472814202308655
14 136 0.9518342614173889
14 138 0.9489208459854126
14 139 0.9617783427238464
14 140 0.21120087802410126
14 141 0.06832312792539597
14 142 0.9490311145782471
14 143 0.9625437259674072
14 144 0.9572213292121887
14 146 0.9658036828041077
14 147 0.16775621473789215
14 148 0.5175586938858032
14 149 0.9473923444747925
14 150 0.2713880240917206
14 151 0.9572601318359375
14 152 0.9408086538314819
14 153 0.9436373114585876
14 154 0.9599231481552124
14 155 0.9441061615943909
14 156 0.14103174209594727
14 157 0.9577622413635254
14 158 0.9641931653022766
14 159 0.9597123265266418
14 161 0.9673755764961243
14 162 0.14112764596939087
14 163 0.9599231481552124
14 165 0.9545118808746338
14 166 0.9556355476379395
14 167 0.9642303586006165
14 168 0.9661698937416077
14 169 0.9500844478607178
14 170 0.9528067708015442
14 171 0.9709543585777283
14 173 0.9599231481552124
14 174 0.9555965065956116
14 175 0.958228349685669
14 176 0.14463672041893005
14 177 0.12963402271270752
14 178 0.3097018301486969
14 179 0.3996969759464264
14 180 0.3602677583694458
14 181 0.9593090415000916
14 182 0.9571834206581116
14 183 0.15550194680690765
14 184 0.20628923177719116
14 185 0.9478282332420349
14 186 0.9615030884742737
14 187 0.9620053768157959
14 188 0.16197150945663452
14 189 0.9701216220855713
14 190 0.9615405201911926
14 191 0.052595172077417374
14 192 0.9537545442581177
14 193 0.6622487902641296
14 194 0.10810833424329758
14 195 0.9668757319450378
14 196 0.16434112191200256
14 197 0.9507453441619873
14 198 0.9689809083938599
14 199 0.1171732023358345
14 200 0.2429266721010208
14 201 0.9626173377037048
14 202 0.9441456198692322
14 203 0.9533140063285828
14 204 0.9555965065956116
14 205 0.9598132371902466
14 206 0.09826130419969559
14 207 0.9623767733573914
14 208 0.43876540660858154
14 209 0.9571834206581116
14 210 0.9642683863639832
14 211 0.07304049283266068
14 212 0.2971886098384857
14 213 0.9550934433937073
14 214 0.9408086538314819
14 215 0.9572601318359375
14 216 0.9685184359550476
14 217 0.958341658115387
14 218 0.9572601318359375
14 219 0.9580910801887512
14 220 0.9555965065956116
14 221 0.9578010439872742
14 222 0.9417263865470886
14 223 0.9701216220855713
14 224 0.11387187987565994
14 225 0.9581576585769653
14 226 0.9684817790985107
14 227 0.9550161957740784
14 228 0.12905479967594147
14 230 0.9715501070022583
14 231 0.9631552696228027
14 232 0.9642683863639832
14 233 0.9570416808128357
14 234 0.15106812119483948
14 235 0.959238588809967
14 236 0.1704278290271759
14 237 0.9619699716567993
14 238 0.9593833684921265
14 239 0.9663767218589783
14 240 0.9523782730102539
14 241 0.9663767218589783
14 242 0.9548083543777466
14 244 0.959238588809967
14 245 0.07201889902353287
14 246 0.2802327275276184
14 247 0.9566420316696167
14 248 0.9648053646087646
14 249 0.9636557698249817
14 250 0.2012007236480713
14 251 0.06886324286460876
14 252 0.9709247350692749
14 253 0.9466006755828857
14 254 0.9636929035186768
14 255 0.9566420316696167
15 16 0.9560843706130981
15 17 0.9444151520729065
15 18 0.9604929089546204
15 20 0.20377787947654724
15 21 0.9562010765075684
15 22 0.9264811873435974
15 23 0.9462109208106995
15 24 0.6955479979515076
15 25 0.9547023773193359
15 26 0.9039446115493774
15 27 0.22086401283740997
15 28 0.9488772749900818
15 29 0.9550371766090393
15 30 0.9539307951927185
15 31 0.0664367526769638
15 33 0.9593926072120667
15 34 0.9303968548774719
15 35 0.9501083493232727
15 36 0.9511592984199524
15 37 0.9615357518196106
15 38 0.9499896168708801
15 39 0.948936402797699
15 40 0.11735069751739502
15 41 0.9450944662094116
15 42 0.956142246723175
15 43 0.9492621421813965
15 44 0.9509859085083008
15 45 0.9517738223075867
15 46 0.13018891215324402
15 47 0.9488772749900818
15 48 0.9333832263946533
15 49 0.9383063316345215
15 50 0.07972410321235657
15 51 0.9537032246589661
15 52 0.944474995136261
15 53 0.933612585067749
15 54 0.19315488636493683
15 55 0.9515979290008545
15 56 0.951485276222229
15 57 0.9517754316329956
15 58 0.22554078698158264
15 59 0.9494926333427429
15 60 0.9432963728904724
15 61 0.9570755958557129
15 62 0.9559160470962524
15 63 0.9529427886009216
15 64 0.9584664106369019
15 65 0.12605486810207367
15 66 0.9516556262969971
15 67 0.9515411257743835
15 68 0.09205746650695801
15 69 0.9444151520729065
15 70 0.9476478695869446
15 71 0.9549218416213989
15 72 0.06509445607662201
15 73 0.9517142176628113
15 74 0.9527071714401245
15 75 0.15266002714633942
15 76 0.9134813547134399
15 77 0.9478831887245178
15 78 0.14971725642681122
15 79 0.3587099611759186
15 80 0.9393701553344727
15 81 0.09764168411493301
15 82 0.09813358634710312
15 83 0.9366791844367981
15 84 0.9240095615386963
15 85 0.948936402797699
15 86 0.9555898308753967
15 87 0.8568772077560425
15 88 0.9417994618415833
15 89 0.9445357322692871
15 90 0.16187229752540588
15 91 0.09568474441766739
15 92 0.9553633332252502
15 93 0.9572461247444153
15 94 0.12205210328102112
15 95 0.9478809237480164
15 96 0.9146977663040161
15 97 0.9499896168708801
15 98 0.953094482421875
15 99 0.9528231620788574
15 100 0.9517142176628113
15 101 0.9566364884376526
15 102 0.956142246723175
15 103 0.9415563344955444
15 104 0.9539900422096252
15 105 0.45568445324897766
15 106 0.9444151520729065
15 107 0.9420586228370667
15 108 0.08832022547721863
15 109 0.9432963728904724
15 110 0.38749295473098755
15 111 0.9036018252372742
15 112 0.9529427886009216
15 113 0.3950224816799164
15 114 0.9426773190498352
15 116 0.9522689580917358
15 117 0.942001223564148
15 118 0.9451560974121094
15 119 0.9477052688598633
15 120 0.9063372611999512
15 121 0.9493755102157593
15 122 0.08611186593770981
15 123 0.36688634753227234
15 124 0.07277781516313553
15 125 0.9568126797676086
15 126 0.9477052688598633
15 127 0.9539900422096252
15 128 0.9470904469490051
15 129 0.9477052688598633
15 130 0.9576273560523987
15 131 0.9410548210144043
15 132 0.9472658038139343
15 133 0.9406780004501343
15 134 0.9125767350196838
15 135 0.9315939545631409
15 136 0.9502118229866028
15 138 0.9407669305801392
15 139 0.9443562030792236
15 140 0.18364600837230682
15 141 0.09205746650695801
15 142 0.940936803817749
15 143 0.9506040811538696
15 144 0.9483206868171692
15 146 0.9560843706130981
15 147 0.15783266723155975
15 148 0.5268024802207947
15 149 0.9339209794998169
15 150 0.27038517594337463
15 151 0.9462723731994629
15 152 0.936772882938385
15 153 0.9450383186340332
15 154 0.9563611745834351
15 155 0.9422896504402161
15 156 0.14930444955825806
15 157 0.9499315619468689
15 158 0.955474853515625
15 159 0.9444151520729065
15 161 0.9545432329177856
15 162 0.16638393700122833
15 163 0.9479443430900574
15 164 0.05637345090508461
15 165 0.9434173107147217
15 166 0.9445974230766296
15 167 0.9534364342689514
15 168 0.950048565864563
15 169 0.9451944231987
15 170 0.9511698484420776
15 171 0.9528825283050537
15 173 0.9521527290344238
15 174 0.9466487765312195
15 175 0.9472063779830933
15 176 0.15944820642471313
15 177 0.14555563032627106
15 178 0.2750301659107208
15 179 0.4065147340297699
15 180 0.35559752583503723
15 181 0.9451560974121094
15 182 0.9450944662094116
15 183 0.17527218163013458
15 184 0.1985362321138382
15 185 0.9364362955093384
15 186 0.9516556262969971
15 187 0.950048565864563
15 188 0.1812152862548828
15 189 0.9584664106369019
15 190 0.9527647495269775
15 191 0.07972410321235657
15 192 0.9393104314804077
15 193 0.6449469923973083
15 194 0.11765120923519135
15 195 0.9540500640869141
15 196 0.16607289016246796
15 197 0.9427365064620972
15 198 0.9562010765075684
15 199 0.1026202067732811
15 200 0.26082947850227356
15 201 0.9507244229316711
15 202 0.9359315633773804
15 203 0.9399927258491516
15 204 0.9434792399406433
15 205 0.9467082619667053
15 206 0.10832372307777405
15 207 0.9450337886810303
15 208 0.42076706886291504
15 209 0.9472063779830933
15 210 0.9545432329177856
15 211 0.0738101676106453
15 212 0.33509424328804016
15 213 0.9493183493614197
15 214 0.936772882938385
15 215 0.9536486268043518
15 216 0.9609863758087158
15 217 0.9537032246589661
15 218 0.9483798146247864
15 219 0.9427365064620972
15 220 0.9445357322692871
15 221 0.9520960450172424
15 222 0.9290174245834351
15 223 0.9595082998275757
15 224 0.13041473925113678
15 225 0.9417994618415833
15 226 0.9588419795036316
15 227 0.9449741244316101
15 228 0.11507182568311691
15 229 0.05637345090508461
15 230 0.9546031951904297
15 231 0.9523283839225769
15 232 0.9545432329177856
15 233 0.9437969326972961
15 234 0.1318427473306656
15 235 0.9439767599105835
15 236 0.16607289016246796
15 237 0.9499896168708801
15 238 0.9494926333427429
15 239 0.9650588631629944
15 240 0.9475914239883423
15 241 0.9566943049430847
15 242 0.9446353316307068
15 244 0.9439767599105835
15 245 0.07277781516313553
15 246 0.2934213876724243
15 247 0.9455922842025757
15 248 0.9550961256027222
15 249 0.9538725018501282
15 250 0.19315488636493683
15 251 0.10438334941864014
15 252 0.9507244229316711
15 253 0.9275559782981873
15 254 0.9539307951927185
15 255 0.9466487765312195
16 17 0.9545317888259888
16 18 0.96908038854599
16 19 0.05572781711816788
16 20 0.2158329337835312
16 21 0.9679772853851318
16 22 0.9488078355789185
16 23 0.9572726488113403
16 24 0.7299578785896301
16 25 0.9625187516212463
16 26 0.911156415939331
16 27 0.24717114865779877
16 28 0.9588547348976135
16 29 0.9648033380508423
16 30 0.9668399095535278
16 31 0.07881103456020355
16 33 0.9700769186019897
16 34 0.9430527687072754
16 35 0.9620842933654785
16 36 0.9610453844070435
16 37 0.96908038854599
16 38 0.9599325060844421
16 39 0.9599325060844421
16 40 0.11600670963525772
16 41 0.9593236446380615
16 42 0.9700108170509338
16 43 0.9572001695632935
16 44 0.9588547348976135
16 45 0.9636949896812439
16 46 0.1045670360326767
16 47 0.9588547348976135
16 48 0.9397212266921997
16 49 0.9506966471672058
16 50 0.07881103456020355
16 51 0.9594302773475647
16 52 0.9556143283843994
16 53 0.9462316036224365
16 54 0.2060171514749527
16 55 0.9625520706176758
16 56 0.9614437818527222
16 57 0.9534479379653931
16 58 0.22295773029327393
16 59 0.9594302773475647
16 60 0.9544957280158997
16 61 0.9647673964500427
16 62 0.9626215100288391
16 63 0.9699792861938477
16 64 0.9701467752456665
16 65 0.12461119890213013
16 66 0.961546778678894
16 67 0.9583519697189331
16 68 0.07962775230407715
16 69 0.9545317888259888
16 70 0.9545688033103943
16 71 0.9636949896812439
16 72 0.06434894353151321
16 73 0.9615830779075623
16 74 0.9636257886886597
16 75 0.15091165900230408
16 76 0.9279229640960693
16 77 0.9588913321495056
16 78 0.15443746745586395
16 79 0.35735058784484863
16 80 0.9496449828147888
16 81 0.08579859137535095
16 82 0.10671065002679825
16 83 0.9491004347801208
16 84 0.9337255358695984
16 85 0.9588913321495056
16 86 0.965338945388794
16 87 0.8552876710891724
16 88 0.9540271162986755
16 89 0.9556512236595154
16 90 0.1876078099012375
16 91 0.12038585543632507
16 92 0.9610453844070435
16 93 0.9669442176818848
16 94 0.12869788706302643
16 95 0.9496449828147888
16 96 0.9258283376693726
16 97 0.9599325060844421
16 98 0.959896981716156
16 99 0.9636949896812439
16 100 0.9667752385139465
16 101 0.965338945388794
16 102 0.9658743143081665
16 103 0.9496825337409973
16 104 0.9658384919166565
16 105 0.4436403810977936
16 106 0.9545317888259888
16 107 0.9512402415275574
16 108 0.10671065002679825
16 109 0.9565911889076233
16 110 0.4057359993457794
16 111 0.9140264391899109
16 112 0.9648033380508423
16 113 0.38542696833610535
16 114 0.9528693556785583
16 116 0.962120532989502
16 117 0.9491004347801208
16 118 0.9614437818527222
16 119 0.9556512236595154
16 120 0.9101787805557251
16 121 0.9583154320716858
16 122 0.08512565493583679
16 123 0.34594520926475525
16 124 0.07194431126117706
16 125 0.9695783257484436
16 126 0.9577401280403137
16 127 0.9648033380508423
16 128 0.9540271162986755
16 129 0.9587845206260681
16 130 0.9663388133049011
16 131 0.9533765912055969
16 132 0.9572726488113403
16 133 0.9560843706130981
16 134 0.9269444346427917
16 135 0.9452430605888367
16 136 0.9539900422096252
16 138 0.9447711706161499
16 139 0.9534479379653931
16 140 0.21098212897777557
16 141 0.06825236231088638
16 142 0.9480481743812561
16 143 0.9646652936935425
16 144 0.9572726488113403
16 146 0.9720497131347656
16 147 0.1733611673116684
16 148 0.524515688419342
16 149 0.9485188722610474
16 150 0.27110692858695984
16 151 0.9614771008491516
16 152 0.9408950209617615
16 153 0.9447711706161499
16 154 0.9610089659690857
16 155 0.9452430605888367
16 156 0.15430335700511932
16 157 0.957812488079071
16 158 0.9642313718795776
16 159 0.9545317888259888
16 161 0.965338945388794
16 162 0.17035260796546936
16 163 0.9620490670204163
16 164 0.05572781711816788
16 165 0.9556143283843994
16 166 0.9577757716178894
16 167 0.9673745632171631
16 168 0.9620490670204163
16 169 0.9533092975616455
16 170 0.9518199563026428
16 171 0.9637311697006226
16 173 0.9610089659690857
16 174 0.9556512236595154
16 175 0.9593236446380615
16 176 0.1510545015335083
16 177 0.12230532616376877
16 178 0.30938103795051575
16 179 0.3864029049873352
16 180 0.35710471868515015
16 181 0.9583154320716858
16 182 0.9561920166015625
16 183 0.16131554543972015
16 184 0.20607557892799377
16 185 0.9479032158851624
16 186 0.9636257886886597
16 187 0.9620490670204163
16 188 0.1791398823261261
16 189 0.9742662906646729
16 190 0.9657368063926697
16 191 0.07881103456020355
16 192 0.948555588722229
16 193 0.6735640168190002
16 194 0.11630378663539886
16 195 0.9679425954818726
16 196 0.17025130987167358
16 197 0.9529055953025818
16 198 0.9679772853851318
16 199 0.13265874981880188
16 200 0.2502586543560028
16 201 0.9636949896812439
16 202 0.9442238807678223
16 203 0.9533765912055969
16 204 0.9577401280403137
16 205 0.9598624110221863
16 206 0.09815952926874161
16 207 0.9582451581954956
16 208 0.44054725766181946
16 209 0.9572359323501587
16 210 0.967408299446106
16 211 0.08512565493583679
16 212 0.3218812942504883
16 213 0.9572359323501587
16 214 0.9398342370986938
16 215 0.9614771008491516
16 216 0.9695783257484436
16 217 0.9594302773475647
16 218 0.9593937397003174
16 219 0.9539539217948914
16 220 0.9556512236595154
16 221 0.9588913321495056
16 222 0.941816508769989
16 223 0.9701467752456665
16 224 0.13650473952293396
16 225 0.9540271162986755
16 226 0.9674786925315857
16 227 0.9540271162986755
16 228 0.13650473952293396
16 229 0.05572781711816788
16 230 0.9684766530990601
16 231 0.9631944894790649
16 232 0.96637362241745
16 233 0.9529055953025818
16 234 0.15091165900230408
16 235 0.9582451581954956
16 236 0.16417090594768524
16 237 0.9599325060844421
16 238 0.9594302773475647
16 239 0.9664095044136047
16 240 0.9534851908683777
16 241 0.96744304895401
16 242 0.9517139792442322
16 244 0.9561551213264465
16 245 0.07194431126117706
16 246 0.29343369603157043
16 247 0.9556512236595154
16 248 0.9700108170509338
16 249 0.9668070673942566
16 250 0.20099234580993652
16 251 0.1117868646979332
16 252 0.9636949896812439
16 253 0.9498702883720398
16 254 0.9647673964500427
16 255 0.9556512236595154
17 18 0.9589422345161438
17 19 0.05634361505508423
17 20 0.20367003977298737
17 21 0.9577839970588684
17 22 0.9281392693519592
17 23 0.9478187561035156
17 24 0.72420334815979
17 25 0.9489311575889587
17 26 0.8968067765235901
17 27 0.24573735892772675
17 28 0.9525901079177856
17 29 0.9566250443458557
17 30 0.9586645364761353
17 31 0.07968190312385559
17 33 0.9620150923728943
17 34 0.9309758543968201
17 35 0.9517063498497009
17 36 0.9517063498497009
17 37 0.9578999280929565
17 38 0.9505395293235779
17 39 0.9600133299827576
17 40 0.11728858947753906
17 41 0.9445942640304565
17 42 0.9556362628936768
17 43 0.9455901980400085
17 44 0.947321355342865
17 45 0.9533677101135254
17 46 0.13012000918388367
17 47 0.9494287967681885
17 48 0.9285852313041687
17 49 0.9399363398551941
17 50 0.07968190312385559
17 51 0.9479379653930664
17 52 0.9450322389602661
17 53 0.9331185221672058
17 54 0.20321330428123474
17 55 0.9531984329223633
17 56 0.9488730430603027
17 57 0.9427971243858337
17 58 0.22082097828388214
17 59 0.9521463513374329
17 60 0.944915771484375
17 61 0.9555214047431946
17 62 0.9554101824760437
17 63 0.9555783867835999
17 64 0.961082935333252
17 65 0.1259881556034088
17 66 0.9501010179519653
17 67 0.9499843716621399
17 68 0.09200873970985413
17 69 0.9428571462631226
17 70 0.9460893273353577
17 71 0.9523189067840576
17 72 0.06506000459194183
17 73 0.9501606822013855
17 74 0.9564069509506226
17 75 0.15257923305034637
17 76 0.9129979610443115
17 77 0.9494868516921997
17 78 0.14963801205158234
17 79 0.35852012038230896
17 80 0.9399363398551941
17 81 0.09759000688791275
17 82 0.09808164834976196
17 83 0.9383111000061035
17 84 0.9267609715461731
17 85 0.9515921473503113
17 86 0.9540380239486694
17 87 0.8552359938621521
17 88 0.9465892314910889
17 89 0.9514276385307312
17 90 0.18410202860832214
17 91 0.12171611934900284
17 92 0.9559081792831421
17 93 0.9588284492492676
17 94 0.13012000918388367
17 95 0.9409996271133423
17 96 0.915306031703949
17 97 0.9473815560340881
17 98 0.9515363574028015
17 99 0.9533677101135254
17 100 0.9543602466583252
17 101 0.9540380239486694
17 102 0.9566817879676819
17 103 0.9474308490753174
17 104 0.9555783867835999
17 105 0.45314306020736694
17 106 0.9428571462631226
17 107 0.9415600895881653
17 108 0.1078898087143898
17 109 0.9491530656814575
17 110 0.39238375425338745
17 111 0.90533447265625
17 112 0.9545317888259888
17 113 0.402504563331604
17 114 0.9453613758087158
17 116 0.9570116996765137
17 117 0.9383111000061035
17 118 0.9457101225852966
17 119 0.9472037553787231
17 120 0.9003272652626038
17 121 0.9488730430603027
17 122 0.07377111166715622
17 123 0.35258862376213074
17 124 0.07273929566144943
17 125 0.9604777693748474
17 126 0.9472037553787231
17 127 0.9555783867835999
17 128 0.9444739818572998
17 129 0.9514276385307312
17 130 0.9560733437538147
17 131 0.9426800012588501
17 132 0.9457101225852966
17 133 0.9444151520729065
17 134 0.9110026955604553
17 135 0.936445951461792
17 136 0.942297637462616
17 138 0.9349327087402344
17 139 0.9427971243858337
17 140 0.17362725734710693
17 141 0.09200873970985413
17 142 0.9404388666152954
17 143 0.951151967048645
17 144 0.9457101225852966
17 145 0.05634361505508423
17 146 0.9597649574279785
17 147 0.15774913132190704
17 148 0.5113718509674072
17 149 0.934492290019989
17 150 0.2702420651912689
17 151 0.951037585735321
17 152 0.9330597519874573
17 153 0.9413363337516785
17 154 0.9495457410812378
17 155 0.9385839104652405
17 156 0.1424424648284912
17 157 0.9483751058578491
17 158 0.9560173749923706
17 159 0.9439153075218201
17 161 0.9561302065849304
17 162 0.17223501205444336
17 163 0.9558550119400024
17 164 0.05634361505508423
17 165 0.9439752101898193
17 166 0.9451524019241333
17 167 0.9539790153503418
17 168 0.954803466796875
17 169 0.9404388666152954
17 170 0.9474834203720093
17 171 0.9523782730102539
17 173 0.9484942555427551
17 174 0.9472037553787231
17 175 0.9519822001457214
17 176 0.15272367000579834
17 177 0.14547859132289886
17 178 0.30964013934135437
17 179 0.3906727135181427
17 180 0.3695129156112671
17 181 0.9467644691467285
17 182 0.9445942640304565
17 183 0.16913874447345734
17 184 0.2033919394016266
17 185 0.9380775094032288
17 186 0.9490500092506409
17 187 0.9495457410812378
17 188 0.17527681589126587
17 189 0.961082935333252
17 190 0.9512105584144592
17 191 0.07968190312385559
17 192 0.9451998472213745
17 193 0.6567394137382507
17 194 0.11758894473314285
17 195 0.9556362628936768
17 196 0.16598500311374664
17 197 0.9401177763938904
17 198 0.9609173536300659
17 199 0.11045558005571365
17 200 0.2645251452922821
17 201 0.9512701034545898
17 202 0.9397076964378357
17 203 0.9437415599822998
17 204 0.9493157267570496
17 205 0.947262167930603
17 206 0.11728858947753906
17 207 0.9498162865638733
17 208 0.42506638169288635
17 209 0.9456496834754944
17 210 0.9571762681007385
17 212 0.3317572772502899
17 213 0.9467051029205322
17 214 0.9287697672843933
17 215 0.951037585735321
17 216 0.9594348669052124
17 217 0.9489901065826416
17 218 0.9489311575889587
17 219 0.9411776661872864
17 220 0.9461477994918823
17 221 0.9536973834037781
17 222 0.9296029210090637
17 223 0.9621241688728333
17 224 0.13034571707248688
17 225 0.9444739818572998
17 226 0.9562467336654663
17 227 0.9455316066741943
17 228 0.13034571707248688
17 229 0.05634361505508423
17 230 0.9551430344581604
17 231 0.9560173749923706
17 232 0.9540380239486694
17 233 0.9422375559806824
17 234 0.15257923305034637
17 235 0.9466466903686523
17 236 0.15983740985393524
17 237 0.9473815560340881
17 238 0.9489901065826416
17 239 0.9603680968284607
17 240 0.9460317492485046
17 241 0.9582780599594116
17 242 0.9430709481239319
17 244 0.9455901980400085
17 245 0.07273929566144943
17 246 0.2693955898284912
17 247 0.9440358877182007
17 248 0.9566817879676819
17 249 0.9533677101135254
17 250 0.16765096783638
17 251 0.12171611934900284
17 252 0.9512701034545898
17 253 0.9324362277984619
17 254 0.9523782730102539
17 255 0.9450918436050415
18 19 0.05549848824739456
18 20 0.20539163053035736
18 21 0.9711955189704895
18 22 0.9449032545089722
18 23 0.9647566080093384
18 24 0.7228699326515198
18 25 0.9658195972442627
18 26 0.9139664173126221
18 27 0.2420514076948166
18 28 0.9632123112678528
18 29 0.9701113104820251
18 30 0.9680211544036865
18 31 0.07848671078681946
18 33 0.972251296043396
18 34 0.9465585350990295
18 35 0.9653679132461548
18 36 0.9664025902748108
18 37 0.9733060002326965
18 38 0.9632400870323181
18 39 0.968424379825592
18 40 0.10664243996143341
18 41 0.9616132974624634
18 42 0.9721982479095459
18 43 0.9605457186698914
18 44 0.9621744155883789
18 45 0.9669607281684875
18 46 0.1281682699918747
18 47 0.9663261771202087
18 48 0.9485723376274109
18 49 0.953068196773529
18 50 0.06540559232234955
18 51 0.9637725353240967
18 52 0.9600115418434143
18 53 0.9476138353347778
18 54 0.20016521215438843
18 55 0.9679177403450012
18 56 0.9637181758880615
18 57 0.9568283557891846
18 58 0.22657161951065063
18 59 0.9658451080322266
18 60 0.9578717350959778
18 61 0.9690532088279724
18 62 0.9700357913970947
18 63 0.9701113104820251
18 64 0.9794876575469971
18 65 0.12409839779138565
18 66 0.9689773321151733
18 67 0.9627074003219604
18 68 0.09062865376472473
18 69 0.9599846005439758
18 70 0.9620939493179321
18 71 0.9710930585861206
18 72 0.06408413499593735
18 73 0.9669333696365356
18 74 0.9669067859649658
18 75 0.1434592306613922
18 76 0.9348873496055603
18 77 0.9632400870323181
18 78 0.14739350974559784
18 79 0.364092618227005
18 80 0.9551628828048706
18 81 0.09612619876861572
18 82 0.09661047160625458
18 83 0.9556735754013062
18 84 0.9469060301780701
18 85 0.9653138518333435
18 86 0.971670389175415
18 87 0.8564479351043701
18 88 0.9605188369750977
18 89 0.9631599187850952
18 90 0.18683575093746185
18 91 0.10276322811841965
18 92 0.9664025902748108
18 93 0.9711955189704895
18 94 0.1281682699918747
18 95 0.9593521952629089
18 96 0.9284734725952148
18 97 0.9653138518333435
18 98 0.9632123112678528
18 99 0.9669607281684875
18 100 0.9669333696365356
18 101 0.9757919907569885
18 102 0.9721982479095459
18 103 0.9572826623916626
18 104 0.9721731543540955
18 105 0.441814661026001
18 106 0.9610269069671631
18 107 0.9546530842781067
18 108 0.09661047160625458
18 109 0.9599586129188538
18 110 0.39653709530830383
18 111 0.9178869128227234
18 112 0.9701113104820251
18 113 0.3964671790599823
18 114 0.9552186131477356
18 116 0.9664300680160522
18 117 0.958817183971405
18 118 0.9637181758880615
18 119 0.9621198177337646
18 120 0.9238645434379578
18 121 0.9637181758880615
18 122 0.08477533608675003
18 123 0.3639703392982483
18 124 0.07164823263883591
18 125 0.9727786779403687
18 126 0.9621198177337646
18 127 0.96908038854599
18 128 0.9584352374076843
18 129 0.9621198177337646
18 130 0.9726768136024475
18 131 0.9567727446556091
18 132 0.9637181758880615
18 133 0.9594499468803406
18 134 0.93495112657547
18 135 0.9476708769798279
18 136 0.9615357518196106
18 138 0.953498363494873
18 139 0.9651758074760437
18 140 0.1856820285320282
18 141 0.09062865376472473
18 142 0.9556735754013062
18 143 0.9648363590240479
18 144 0.9647566080093384
18 146 0.9701113104820251
18 147 0.16689282655715942
18 148 0.5372816920280457
18 149 0.9509129524230957
18 150 0.2699912488460541
18 151 0.9627074003219604
18 152 0.9507561326026917
18 153 0.9566521644592285
18 154 0.9705192446708679
18 155 0.9529356956481934
18 156 0.14698712527751923
18 157 0.9652882218360901
18 158 0.9705886840820312
18 159 0.9610269069671631
18 161 0.971670389175415
18 162 0.17550162971019745
18 163 0.9643046259880066
18 164 0.05549848824739456
18 165 0.958970308303833
18 166 0.9621466398239136
18 167 0.968550980091095
18 168 0.9653403759002686
18 169 0.9535777568817139
18 170 0.9562637209892273
18 171 0.9680211544036865
18 173 0.9663761258125305
18 174 0.9642000198364258
18 175 0.9636924266815186
18 176 0.15697342157363892
18 177 0.14329646527767181
18 178 0.3143322467803955
18 179 0.3873782157897949
18 180 0.36674872040748596
18 181 0.9616411924362183
18 182 0.9636924266815186
18 183 0.17255181074142456
18 184 0.20522750914096832
18 185 0.9524216055870056
18 186 0.9658715724945068
18 187 0.9653403759002686
18 188 0.17840267717838287
18 189 0.9743594527244568
18 190 0.9669333696365356
18 191 0.07848671078681946
18 192 0.9540880918502808
18 193 0.6678041815757751
18 194 0.12409839779138565
18 195 0.9701384902000427
18 196 0.15138453245162964
18 197 0.9635999202728271
18 198 0.974281907081604
18 199 0.12434149533510208
18 200 0.2643335461616516
18 201 0.9669607281684875
18 202 0.9561156630516052
18 203 0.9557271003723145
18 204 0.960039496421814
18 205 0.9621466398239136
18 206 0.11552930623292923
18 207 0.9595050811767578
18 208 0.45432382822036743
18 209 0.9636924266815186
18 210 0.9706400036811829
18 211 0.08477533608675003
18 212 0.3298932611942291
18 213 0.9657715559005737
18 214 0.9539253115653992
18 215 0.9647822380065918
18 216 0.9738059639930725
18 217 0.9658451080322266
18 218 0.9658195972442627
18 219 0.9573360681533813
18 220 0.9610795974731445
18 221 0.9642770290374756
18 222 0.9411237239837646
18 223 0.9743594527244568
18 224 0.1283905804157257
18 225 0.9605188369750977
18 226 0.972751796245575
18 227 0.9626023769378662
18 228 0.12083819508552551
18 229 0.05549848824739456
18 230 0.9716964960098267
18 231 0.9716212153434753
18 232 0.9768224358558655
18 233 0.9583799839019775
18 234 0.1502906233072281
18 235 0.9657491445541382
18 236 0.1574399173259735
18 237 0.9653138518333435
18 238 0.9658451080322266
18 239 0.9768431782722473
18 240 0.9599846005439758
18 241 0.9758138656616211
18 242 0.9519912004470825
18 244 0.962627112865448
18 245 0.07164823263883591
18 246 0.30230289697647095
18 247 0.9621198177337646
18 248 0.9721982479095459
18 249 0.9669607281684875
18 250 0.20016521215438843
18 251 0.11989042907953262
18 252 0.9669607281684875
18 253 0.9459613561630249
18 254 0.9721491932868958
18 255 0.9621198177337646
19 21 0.055612798780202866
19 23 0.05613608658313751
19 24 0.07358778268098831
19 25 0.05607721582055092
19 26 0.059096809476614
19 28 0.056106630712747574
19 29 0.05572781711816788
19 30 0.05578560009598732
19 33 0.0555555559694767
19 35 0.055930834263563156
19 36 0.055930834263563156
19 37 0.05549848824739456
19 39 0.056047845631837845
19 41 0.05619514361023903
19 42 0.05567022040486336
19 43 0.05625439062714577
19 44 0.056106630712747574
19 48 0.057291146367788315
19 49 0.056613851338624954
19 53 0.05704205483198166
19 55 0.05601852759718895
19 56 0.05613608658313751
19 58 0.08164966106414795
19 59 0.05601852759718895
19 60 0.05640333145856857
19 61 0.05578560009598732
19 62 0.055901702493429184
19 63 0.05572781711816788
19 64 0.05544159188866615
19 66 0.05596001818776131
19 67 0.05607721582055092
19 71 0.05584355816245079
19 74 0.05596001818776131
19 76 0.058288149535655975
19 80 0.056613851338624954
19 82 0.17407765984535217
19 83 0.05664411932229996
19 84 0.05751180276274681
19 85 0.056047845631837845
19 86 0.055698998272418976
19 87 0.06324554979801178
19 89 0.056224748492240906
19 93 0.055612798780202866
19 96 0.0581565760076046
19 98 0.056106630712747574
19 99 0.05584355816245079
19 100 0.055901702493429184
19 101 0.055698998272418976
19 102 0.05567022040486336
19 103 0.05655346065759659
19 104 0.05572781711816788
19 106 0.05634361505508423
19 109 0.05640333145856857
19 110 0.09044313430786133
19 111 0.05885748192667961
19 112 0.05572781711816788
19 114 0.05649326741695404
19 116 0.055872607976198196
19 117 0.05664411932229996
19 118 0.05613608658313751
19 119 0.056224748492240906
19 121 0.05613608658313751
19 125 0.05552699789404869
19 127 0.05572781711816788
19 129 0.056224748492240906
19 130 0.05575668811798096
19 131 0.056523337960243225
19 132 0.05613608658313751
19 133 0.05637345090508461
19 134 0.058091118931770325
19 136 0.05637345090508461
19 139 0.05640333145856857
19 141 0.20412413775920868
19 142 0.05664411932229996
19 143 0.05596001818776131
19 149 0.05673521012067795
19 151 0.05607721582055092
19 152 0.05710402503609657
19 153 0.056826744228601456
19 154 0.05598925054073334
19 155 0.05691872164607048
19 157 0.056106630712747574
19 158 0.055814556777477264
19 159 0.05634361505508423
19 161 0.055698998272418976
19 162 0.10540926456451416
19 163 0.05598925054073334
19 165 0.056284088641405106
19 166 0.05616559833288193
19 167 0.05575668811798096
19 168 0.05598925054073334
19 170 0.05649326741695404
19 173 0.05598925054073334
19 174 0.056224748492240906
19 175 0.05619514361023903
19 178 0.05607721582055092
19 181 0.05613608658313751
19 182 0.05619514361023903
19 186 0.05596001818776131
19 188 0.20739035308361053
19 189 0.05544159188866615
19 190 0.055901702493429184
19 192 0.05667443200945854
19 195 0.05567022040486336
19 197 0.05643326789140701
19 198 0.055612798780202866
19 202 0.05685735493898392
19 203 0.056523337960243225
19 204 0.056224748492240906
19 205 0.05616559833288193
19 207 0.05625439062714577
19 210 0.055698998272418976
19 212 0.11215443164110184
19 213 0.05619514361023903
19 215 0.05607721582055092
19 216 0.05552699789404869
19 217 0.05601852759718895
19 218 0.05607721582055092
19 219 0.05643326789140701
19 220 0.056224748492240906
19 221 0.056047845631837845
19 222 0.05735393241047859
19 225 0.05631382763385773
19 227 0.05631382763385773
19 231 0.055814556777477264
19 232 0.055698998272418976
19 235 0.05625439062714577
19 237 0.056047845631837845
19 240 0.05634361505508423
19 241 0.05564148724079132
19 242 0.05667443200945854
19 244 0.05625439062714577
19 247 0.056224748492240906
19 248 0.05567022040486336
19 249 0.05584355816245079
19 250 0.09016696363687515
19 252 0.05584355816245079
19 254 0.05578560009598732
20 21 0.20102830231189728
20 22 0.19691058993339539
20 23 0.18842557072639465
20 24 0.09500142186880112
20 25 0.19788068532943726
20 26 0.1881910115480423
20 28 0.183497816324234
20 29 0.18705520033836365
20 30 0.2160567045211792
20 33 0.19603990018367767
20 34 0.1914665400981903
20 35 0.21661920845508575
20 36 0.19736416637897491
20 37 0.20539163053035736
20 38 0.20260089635849
20 39 0.20742471516132355
20 40 0.08268982917070389
20 41 0.20313334465026855
20 42 0.20602716505527496
20 43 0.21303074061870575
20 44 0.21730004251003265
20 45 0.2114749401807785
20 46 0.14907120168209076
20 47 0.18832670152187347
20 48 0.2070951759815216
20 49 0.19977432489395142
20 51 0.21213752031326294
20 52 0.21314318478107452
20 53 0.17182894051074982
20 54 0.2328101098537445
20 55 0.19285228848457336
20 56 0.19325700402259827
20 57 0.2184491902589798
20 58 0.12649109959602356
20 59 0.21695882081985474
20 60 0.20874033868312836
20 61 0.21125544607639313
20 62 0.20688384771347046
20 63 0.20144407451152802
20 64 0.2051810622215271
20 66 0.2119159698486328
20 67 0.20753340423107147
20 69 0.17457431554794312
20 70 0.20829901099205017
20 71 0.2066686749458313
20 73 0.21650634706020355
20 74 0.20709969103336334
20 76 0.21069912612438202
20 77 0.20260089635849
20 79 0.050944048911333084
20 80 0.19490179419517517
20 82 0.1348399668931961
20 83 0.1755053848028183
20 84 0.19799312949180603
20 85 0.2122485637664795
20 86 0.2061336785554886
20 87 0.14696937799453735
20 88 0.20356236398220062
20 89 0.17904505133628845
20 91 0.07968191057443619
20 92 0.19736416637897491
20 93 0.2058146744966507
20 94 0.07453560084104538
20 95 0.1851567029953003
20 96 0.20521816611289978
20 97 0.20742471516132355
20 98 0.2124711573123932
20 99 0.21628117561340332
20 100 0.21650634706020355
20 101 0.16298942267894745
20 102 0.2156098335981369
20 103 0.21416328847408295
20 104 0.21103665232658386
20 106 0.19882073998451233
20 107 0.1850578635931015
20 108 0.08989331871271133
20 109 0.19903147220611572
20 110 0.22184699773788452
20 111 0.20769146084785461
20 112 0.21103665232658386
20 113 0.07049073278903961
20 114 0.20907314121723175
20 116 0.20196743309497833
20 117 0.21938173472881317
20 118 0.18842557072639465
20 119 0.2129184603691101
20 120 0.19767433404922485
20 121 0.20775127410888672
20 123 0.1809655725955963
20 125 0.20071813464164734
20 126 0.20807939767837524
20 127 0.21103665232658386
20 128 0.20356236398220062
20 129 0.21775750815868378
20 130 0.19674962759017944
20 131 0.19459019601345062
20 132 0.20775127410888672
20 133 0.2134815901517868
20 134 0.2099868655204773
20 135 0.19105255603790283
20 136 0.20377787947654724
20 138 0.21519817411899567
20 139 0.21359476447105408
20 140 0.1818651556968689
20 142 0.20963142812252045
20 143 0.2167322337627411
20 144 0.21258270740509033
20 145 0.08606629818677902
20 146 0.20624035596847534
20 147 0.13386988639831543
20 148 0.06943408399820328
20 149 0.21485154330730438
20 150 0.1769149750471115
20 151 0.2171861231327057
20 152 0.19658927619457245
20 153 0.15650776028633118
20 154 0.2120266556739807
20 155 0.19105255603790283
20 156 0.06216698884963989
20 157 0.2124711573123932
20 158 0.20175759494304657
20 159 0.20851930975914001
20 161 0.1965460628271103
20 162 0.054433103650808334
20 163 0.21684543788433075
20 165 0.21314318478107452
20 166 0.20786048471927643
20 167 0.20154841244220734
20 168 0.20720785856246948
20 169 0.19988113641738892
20 170 0.18476231396198273
20 171 0.20645417273044586
20 173 0.20238907635211945
20 174 0.20807939767837524
20 175 0.19829683005809784
20 177 0.06666667014360428
20 178 0.10135351866483688
20 179 0.10741723328828812
20 181 0.20775127410888672
20 182 0.2176428586244583
20 185 0.181157186627388
20 186 0.20709969103336334
20 187 0.20238907635211945
20 189 0.2147243767976761
20 190 0.2020726054906845
20 192 0.20974361896514893
20 193 0.06950480490922928
20 195 0.19165319204330444
20 196 0.05634361505508423
20 197 0.17485207319259644
20 198 0.20102830231189728
20 201 0.20186243951320648
20 202 0.20063357055187225
20 203 0.21404920518398285
20 204 0.1984012871980667
20 205 0.19335860013961792
20 207 0.20334751904010773
20 208 0.11397281289100647
20 209 0.20796984434127808
20 210 0.21092750132083893
20 211 0.05634361505508423
20 213 0.19829683005809784
20 214 0.19658927619457245
20 215 0.20270705223083496
20 216 0.21505513787269592
20 217 0.20731620490550995
20 218 0.19788068532943726
20 219 0.20399409532546997
20 220 0.20807939767837524
20 221 0.20260089635849
20 222 0.21225833892822266
20 223 0.2004094123840332
20 225 0.21325580775737762
20 226 0.1961408108472824
20 227 0.18902218341827393
20 228 0.07027283310890198
20 230 0.21070970594882965
20 231 0.21136508882045746
20 232 0.2061336785554886
20 233 0.21856509149074554
20 235 0.20818911492824554
20 236 0.05634361505508423
20 237 0.19777704775333405
20 238 0.21213752031326294
20 239 0.20592084527015686
20 240 0.20367003977298737
20 241 0.21549856662750244
20 242 0.2194991409778595
20 244 0.21303074061870575
20 245 0.06666667014360428
20 246 0.07813454419374466
20 247 0.20324034988880157
20 248 0.20602716505527496
20 249 0.19224993884563446
20 250 0.16296707093715668
20 252 0.21628117561340332
20 253 0.18706506490707397
20 254 0.20645417273044586
20 255 0.19356223940849304
21 22 0.9447288513183594
21 23 0.9615405797958374
21 24 0.7407285571098328
21 25 0.9657297730445862
21 26 0.9136579036712646
21 27 0.246660977602005
21 28 0.9641562104225159
21 29 0.970043420791626
21 30 0.9658784866333008
21 31 0.07864838093519211
21 33 0.9732239842414856
21 34 0.9485082030296326
21 35 0.9632090330123901
21 36 0.9632090330123901
21 37 0.973253071308136
21 38 0.9662631154060364
21 39 0.9631461501121521
21 40 0.11576727777719498
21 41 0.9594271183013916
21 42 0.9731687307357788
21 43 0.9593957662582397
21 44 0.961035966873169
21 45 0.9658467173576355
21 46 0.09632419049739838
21 47 0.9620760679244995
21 48 0.9388437271118164
21 49 0.9560808539390564
21 50 0.07864838093519211
21 51 0.962642252445221
21 52 0.9609455466270447
21 53 0.9463933706283569
21 54 0.20559193193912506
21 55 0.9636806845664978
21 56 0.9615405797958374
21 57 0.9546167850494385
21 58 0.22249755263328552
21 59 0.9647191166877747
21 60 0.9556623697280884
21 61 0.9658784866333008
21 62 0.9668523073196411
21 63 0.970043420791626
21 64 0.9732831120491028
21 65 0.12435399740934372
21 66 0.9647489786148071
21 67 0.9615716934204102
21 68 0.09081532061100006
21 69 0.9588284492492676
21 70 0.9567720293998718
21 71 0.9658467173576355
21 73 0.9637435078620911
21 74 0.9668236970901489
21 75 0.15060018002986908
21 76 0.9249272346496582
21 77 0.9662631154060364
21 78 0.16054031252861023
21 79 0.35935622453689575
21 80 0.9539818167686462
21 81 0.08562150597572327
21 82 0.09680946171283722
21 83 0.9544917941093445
21 84 0.9381951689720154
21 85 0.9641851186752319
21 86 0.9685091376304626
21 87 0.8546947240829468
21 88 0.9583215117454529
21 89 0.9599323868751526
21 90 0.18722058832645416
21 91 0.12013737112283707
21 92 0.9683931469917297
21 93 0.9690722227096558
21 94 0.12040524184703827
21 95 0.9550312757492065
21 96 0.9282297492027283
21 97 0.9631461501121521
21 98 0.9599958658218384
21 99 0.9648115634918213
21 100 0.965816080570221
21 101 0.9685091376304626
21 102 0.9711048007011414
21 103 0.9540125727653503
21 104 0.9669442176818848
21 105 0.44953587651252747
21 106 0.9588284492492676
21 107 0.9555704593658447
21 108 0.10649040341377258
21 109 0.957753598690033
21 110 0.38729429244995117
21 111 0.9208685755729675
21 112 0.9679772853851318
21 113 0.39728379249572754
21 114 0.9540444016456604
21 116 0.9684207439422607
21 117 0.9513416290283203
21 118 0.9625812768936157
21 119 0.9588900804519653
21 120 0.9170337915420532
21 121 0.9615405797958374
21 122 0.08494995534420013
21 123 0.35358354449272156
21 124 0.05743664875626564
21 125 0.9778704047203064
21 126 0.9588900804519653
21 127 0.9721094965934753
21 128 0.9572775959968567
21 129 0.9578478336334229
21 130 0.9684786796569824
21 131 0.9545522928237915
21 132 0.9594593644142151
21 133 0.9582911729812622
21 134 0.92718505859375
21 135 0.9506779313087463
21 136 0.9593361616134644
21 138 0.9491417407989502
21 139 0.9556623697280884
21 140 0.19096091389656067
21 141 0.06811148673295975
21 142 0.9502915740013123
21 143 0.9626742005348206
21 144 0.9594593644142151
21 145 0.055612798780202866
21 146 0.9669442176818848
21 147 0.16146980226039886
21 148 0.5271718502044678
21 149 0.9507681727409363
21 150 0.24387367069721222
21 151 0.9615716934204102
21 152 0.9442458748817444
21 153 0.9554623365402222
21 154 0.9631770849227905
21 155 0.9517331719398499
21 156 0.12720489501953125
21 157 0.9651963114738464
21 158 0.9684491753578186
21 159 0.9588284492492676
21 161 0.9674766063690186
21 162 0.15827679634094238
21 163 0.9621391892433167
21 164 0.055612798780202866
21 165 0.9567720293998718
21 166 0.9610048532485962
21 167 0.9664115309715271
21 168 0.9642149806022644
21 169 0.9576419591903687
21 170 0.9582333564758301
21 171 0.9679467678070068
21 173 0.9662908315658569
21 174 0.9609746932983398
21 175 0.9594271183013916
21 176 0.14418870210647583
21 177 0.1292324662208557
21 178 0.3149797022342682
21 179 0.38303470611572266
21 180 0.35636767745018005
21 181 0.9615405797958374
21 182 0.9594271183013916
21 183 0.14905795454978943
21 184 0.21054665744304657
21 185 0.9480559825897217
21 186 0.965786337852478
21 187 0.9642149806022644
21 188 0.17300336062908173
21 189 0.9722553491592407
21 190 0.964779794216156
21 191 0.07864838093519211
21 192 0.9592050909996033
21 193 0.6691796779632568
21 194 0.0994831994175911
21 195 0.9721367359161377
21 196 0.16989991068840027
21 197 0.9561694860458374
21 198 0.9701030850410461
21 199 0.13238495588302612
21 200 0.2724459767341614
21 201 0.9710227847099304
21 202 0.9475449919700623
21 203 0.9566478729248047
21 204 0.9578478336334229
21 205 0.9620460271835327
21 206 0.11576727777719498
21 207 0.9583529233932495
21 208 0.4418696463108063
21 209 0.9625522494316101
21 210 0.9685091376304626
21 211 0.08494995534420013
21 212 0.327454149723053
21 213 0.9583853483200073
21 214 0.9463630318641663
21 215 0.9615716934204102
21 216 0.9716944098472595
21 217 0.9616038203239441
21 218 0.9615716934204102
21 219 0.9551233649253845
21 220 0.9578478336334229
21 221 0.9631461501121521
21 222 0.9377461671829224
21 223 0.9753386378288269
21 224 0.12865504622459412
21 225 0.9583215117454529
21 226 0.9716641902923584
21 227 0.9635411500930786
21 228 0.1362229883670807
21 229 0.055612798780202866
21 230 0.9685406684875488
21 231 0.9663798213005066
21 232 0.9695417284965515
21 233 0.9551233649253845
21 234 0.15060018002986908
21 235 0.9593957662582397
21 236 0.16989991068840027
21 237 0.9621071219444275
21 238 0.962642252445221
21 239 0.9685406684875488
21 240 0.9577839970588684
21 241 0.9685406684875488
21 242 0.9550026655197144
21 244 0.9583529233932495
21 245 0.05743664875626564
21 246 0.2928280532360077
21 247 0.9588900804519653
21 248 0.9711048007011414
21 249 0.9668819308280945
21 250 0.19556304812431335
21 251 0.12013737112283707
21 252 0.9648115634918213
21 253 0.9479097723960876
21 254 0.9689809083938599
21 255 0.9609746932983398
22 23 0.9354235529899597
22 24 0.7099225521087646
22 25 0.9387190937995911
22 26 0.88898766040802
22 27 0.2367764115333557
22 28 0.9349325895309448
22 29 0.9445578455924988
22 30 0.9434098601341248
22 31 0.0808892771601677
22 33 0.9437564015388489
22 34 0.9233313202857971
22 35 0.9416005611419678
22 36 0.935202419757843
22 37 0.9480775594711304
22 38 0.9371589422225952
22 39 0.9371589422225952
22 40 0.1007479876279831
22 41 0.9342648983001709
22 42 0.946765661239624
22 43 0.9288146495819092
22 44 0.9360023140907288
22 45 0.9422606229782104
22 46 0.08255727589130402
22 47 0.932793140411377
22 48 0.9208095073699951
22 49 0.9250351786613464
22 50 0.05392618477344513
22 51 0.933464527130127
22 52 0.9346703886985779
22 53 0.9211562275886536
22 54 0.18566323816776276
22 55 0.9366686344146729
22 56 0.932212769985199
22 57 0.9312738180160522
22 58 0.21949680149555206
22 59 0.9366686344146729
22 60 0.9280476570129395
22 61 0.9391555190086365
22 62 0.9368468523025513
22 63 0.9445578455924988
22 64 0.9460486173629761
22 65 0.11937069147825241
22 66 0.9399580955505371
22 67 0.9323042035102844
22 68 0.09340289235115051
22 69 0.9324362277984619
22 70 0.9303780198097229
22 71 0.9475841522216797
22 72 0.06604582071304321
22 73 0.9347151517868042
22 74 0.9356904029846191
22 75 0.09152659773826599
22 76 0.9034945368766785
22 77 0.936090350151062
22 78 0.16511455178260803
22 79 0.3385604918003082
22 80 0.9293527007102966
22 81 0.08806109428405762
22 82 0.10952460020780563
22 83 0.935249388217926
22 84 0.9155839085578918
22 85 0.9350217580795288
22 86 0.9419453144073486
22 87 0.848901629447937
22 88 0.9308696389198303
22 89 0.9336849451065063
22 90 0.18122823536396027
22 91 0.12356040626764297
22 92 0.935202419757843
22 93 0.945789098739624
22 94 0.09906872361898422
22 95 0.921796977519989
22 96 0.9092166423797607
22 97 0.9318159222602844
22 98 0.9360023140907288
22 99 0.938001811504364
22 100 0.948570728302002
22 101 0.9408833980560303
22 102 0.9425201416015625
22 103 0.9229702353477478
22 104 0.9434953331947327
22 105 0.4226481020450592
22 106 0.9281392693519592
22 107 0.9310142397880554
22 108 0.09956781566143036
22 109 0.9377260208129883
22 110 0.3957427442073822
22 111 0.8876317739486694
22 112 0.9403078556060791
22 113 0.3851802945137024
22 114 0.9306044578552246
22 116 0.9363592863082886
22 117 0.9222897887229919
22 118 0.932212769985199
22 119 0.9347569346427917
22 120 0.8903903961181641
22 121 0.932212769985199
22 123 0.32929667830467224
22 124 0.05907317250967026
22 125 0.9485645890235901
22 126 0.9347569346427917
22 127 0.9403078556060791
22 128 0.9276486039161682
22 129 0.9315410256385803
22 130 0.9429209232330322
22 131 0.9300221800804138
22 132 0.932212769985199
22 133 0.9307804107666016
22 134 0.9015479683876038
22 135 0.9191645383834839
22 136 0.9307804107666016
22 138 0.930680513381958
22 139 0.929123044013977
22 140 0.2165457010269165
22 141 0.05837680771946907
22 142 0.9266096353530884
22 143 0.9399580955505371
22 144 0.9300721883773804
22 145 0.05719735473394394
22 146 0.9424328207969666
22 147 0.16013941168785095
22 148 0.5191203951835632
22 149 0.9259364008903503
22 150 0.2625795900821686
22 151 0.9355116486549377
22 152 0.9178020358085632
22 153 0.9187626242637634
22 154 0.937246561050415
22 155 0.924590528011322
22 156 0.12394354492425919
22 157 0.9370720386505127
22 158 0.9385787844657898
22 159 0.9313620328903198
22 161 0.9440692663192749
22 162 0.1567573994398117
22 163 0.9340441823005676
22 164 0.05719735473394394
22 165 0.9303780198097229
22 166 0.9327026605606079
22 167 0.9397318363189697
22 168 0.9383140802383423
22 169 0.9287695288658142
22 170 0.928450345993042
22 171 0.9444735646247864
22 173 0.9361791014671326
22 174 0.9304690361022949
22 175 0.9331935048103333
22 176 0.1415562480688095
22 177 0.12553049623966217
22 178 0.2982945442199707
22 179 0.38337257504463196
22 180 0.3321601450443268
22 181 0.9343532919883728
22 182 0.9396218657493591
22 183 0.14717279374599457
22 184 0.196401908993721
22 185 0.9219223856925964
22 186 0.9431588649749756
22 187 0.940449059009552
22 188 0.16607050597667694
22 189 0.9513338208198547
22 190 0.9432416558265686
22 191 0.06740773469209671
22 192 0.9260250329971313
22 193 0.6451347470283508
22 194 0.1108442172408104
22 195 0.9414587020874023
22 196 0.09985189139842987
22 197 0.9263882637023926
22 198 0.9447288513183594
22 199 0.12013848125934601
22 200 0.2568579614162445
22 201 0.9401311874389648
22 202 0.9181734919548035
22 203 0.9321775436401367
22 204 0.9315410256385803
22 205 0.9434110522270203
22 206 0.0915890783071518
22 207 0.9395400285720825
22 208 0.40855464339256287
22 209 0.9353362321853638
22 210 0.9440692663192749
22 211 0.08737040311098099
22 212 0.3047094941139221
22 213 0.9396218657493591
22 214 0.9145357608795166
22 215 0.9323042035102844
22 216 0.943271279335022
22 217 0.9345325827598572
22 218 0.939788281917572
22 219 0.9382236003875732
22 220 0.9304690361022949
22 221 0.9318159222602844
22 222 0.9130706191062927
22 223 0.9481626749038696
22 224 0.13232077658176422
22 225 0.9319432973861694
22 226 0.9431824088096619
22 227 0.9287223219871521
22 228 0.14010433852672577
22 229 0.05719735473394394
22 230 0.9473378658294678
22 231 0.9407071471214294
22 232 0.94725501537323
22 233 0.9414514899253845
22 234 0.12672914564609528
22 235 0.9427576065063477
22 236 0.1497778296470642
22 237 0.9350217580795288
22 238 0.9345325827598572
22 239 0.9399119019508362
22 240 0.9259908199310303
22 241 0.9409727454185486
22 242 0.922783374786377
22 244 0.9341773390769958
22 245 0.07384146749973297
22 246 0.28386276960372925
22 247 0.9326130151748657
22 248 0.9446429014205933
22 249 0.9443899989128113
22 250 0.20629248023033142
22 251 0.11473466455936432
22 252 0.9443899989128113
22 253 0.9356597661972046
22 254 0.9380919337272644
22 255 0.9358288645744324
23 24 0.7270438075065613
23 25 0.9569784998893738
23 26 0.9056676626205444
23 27 0.23653285205364227
23 28 0.9522311091423035
23 29 0.9624865651130676
23 30 0.9572213292121887
23 31 0.07938841730356216
23 33 0.9605507850646973
23 34 0.9382205605506897
23 35 0.9565736651420593
23 36 0.9565736651420593
23 37 0.9626796841621399
23 38 0.9533310532569885
23 39 0.9543797969818115
23 40 0.11685658991336823
23 41 0.9516304135322571
23 42 0.9646168351173401
23 43 0.9515810608863831
23 44 0.9522311091423035
23 45 0.9592607021331787
23 46 0.12964074313640594
23 47 0.9532809853553772
23 48 0.9380294680595398
23 49 0.9407117962837219
23 50 0.07938841730356216
23 51 0.9528323411941528
23 52 0.9499769806861877
23 53 0.932883620262146
23 54 0.16703347861766815
23 55 0.9580734372138977
23 56 0.9516806602478027
23 57 0.947767972946167
23 58 0.21542415022850037
23 59 0.9580734372138977
23 60 0.9467125535011292
23 61 0.9582651853561401
23 62 0.9571213722229004
23 63 0.9572726488113403
23 64 0.9627301692962646
23 65 0.1255241185426712
23 66 0.9560256600379944
23 67 0.9517319202423096
23 68 0.09166985005140305
23 69 0.9541445970535278
23 70 0.9520833492279053
23 71 0.9613505601882935
23 73 0.9539833068847656
23 74 0.9570727944374084
23 75 0.1520172506570816
23 76 0.921632707118988
23 77 0.9554286003112793
23 78 0.1555688977241516
23 79 0.3516616225242615
23 80 0.94706791639328
23 81 0.08642716705799103
23 82 0.09772038459777832
23 83 0.9454542994499207
23 84 0.9276521801948547
23 85 0.9533310532569885
23 86 0.965115487575531
23 87 0.8402513861656189
23 88 0.9483714699745178
23 89 0.9542357921600342
23 90 0.1723073273897171
23 91 0.11260582506656647
23 92 0.9555270671844482
23 93 0.9594593644142151
23 94 0.1215381994843483
23 95 0.9428304433822632
23 96 0.9162876009941101
23 97 0.9522823095321655
23 98 0.950131356716156
23 99 0.9582157731056213
23 100 0.9571213722229004
23 101 0.9599042534828186
23 102 0.9604499936103821
23 103 0.9439412355422974
23 104 0.9604009985923767
23 105 0.4354318082332611
23 106 0.9478187561035156
23 107 0.9412685036659241
23 108 0.10749242454767227
23 109 0.9498788118362427
23 110 0.37063005566596985
23 111 0.9042025804519653
23 112 0.9572726488113403
23 113 0.37037068605422974
23 114 0.9471648931503296
23 116 0.9566232562065125
23 117 0.9528738260269165
23 118 0.9558823704719543
23 119 0.9489754438400269
23 120 0.9080310463905334
23 121 0.9537815451622009
23 122 0.07349938899278641
23 123 0.34566932916641235
23 124 0.07247138023376465
23 125 0.9673303365707397
23 126 0.9500274658203125
23 127 0.9583154320716858
23 128 0.9483714699745178
23 129 0.9500274658203125
23 130 0.9567252397537231
23 131 0.9434384107589722
23 132 0.9558823704719543
23 133 0.951485276222229
23 134 0.9315613508224487
23 135 0.9415172934532166
23 136 0.9472658038139343
23 138 0.936805784702301
23 139 0.9456571340560913
23 140 0.2026427835226059
23 141 0.09166985005140305
23 142 0.9443944096565247
23 143 0.953931450843811
23 144 0.9495798349380493
23 145 0.05613608658313751
23 146 0.9604009985923767
23 147 0.16881020367145538
23 148 0.5340193510055542
23 149 0.9437898993492126
23 150 0.23847566545009613
23 151 0.9517319202423096
23 152 0.9381712675094604
23 153 0.9431858658790588
23 154 0.9544297456741333
23 155 0.9393871426582336
23 156 0.148675799369812
23 157 0.9532809853553772
23 158 0.958762526512146
23 159 0.9488730430603027
23 161 0.9599042534828186
23 162 0.17751790583133698
23 163 0.9544297456741333
23 164 0.05613608658313751
23 165 0.9489237666130066
23 166 0.9542828798294067
23 167 0.9567252397537231
23 168 0.9523343443870544
23 169 0.9443944096565247
23 170 0.9450507164001465
23 171 0.9572213292121887
23 173 0.9586203694343567
23 174 0.9500274658203125
23 175 0.9505788683891296
23 176 0.15877683460712433
23 177 0.1449427604675293
23 178 0.3179435133934021
23 179 0.37625932693481445
23 180 0.3569105863571167
23 181 0.9495798349380493
23 182 0.9526818990707397
23 183 0.15046051144599915
23 184 0.212527796626091
23 185 0.9388803243637085
23 186 0.9528842568397522
23 187 0.9554774165153503
23 188 0.1746312379837036
23 189 0.9637675881385803
23 190 0.9560753703117371
23 191 0.0661570206284523
23 192 0.9417184591293335
23 193 0.6815208792686462
23 194 0.1255241185426712
23 195 0.9604499936103821
23 196 0.15312373638153076
23 197 0.9524948000907898
23 198 0.9594593644142151
23 199 0.12577000260353088
23 200 0.255911648273468
23 201 0.9655303359031677
23 202 0.9394382834434509
23 203 0.9455537796020508
23 204 0.9510795474052429
23 205 0.9542828798294067
23 206 0.11685658991336823
23 207 0.9494757652282715
23 208 0.45503804087638855
23 209 0.9558365345001221
23 210 0.9578197598457336
23 211 0.08574929088354111
23 212 0.330535352230072
23 213 0.953733503818512
23 214 0.9435139298439026
23 215 0.9569784998893738
23 216 0.9621351957321167
23 217 0.9570252299308777
23 218 0.9569784998893738
23 219 0.9503828287124634
23 220 0.9521316289901733
23 221 0.9533310532569885
23 222 0.9304717779159546
23 223 0.9627301692962646
23 224 0.1298656165599823
23 225 0.9483714699745178
23 226 0.9600052237510681
23 227 0.9494251608848572
23 228 0.1298656165599823
23 229 0.05613608658313751
23 230 0.9599543213844299
23 231 0.956673800945282
23 232 0.9661576747894287
23 233 0.9451029300689697
23 234 0.13819749653339386
23 235 0.9505284428596497
23 236 0.14087384939193726
23 237 0.9554286003112793
23 238 0.9570252299308777
23 239 0.962036669254303
23 240 0.9551988840103149
23 241 0.9609954953193665
23 242 0.943839430809021
23 244 0.9505284428596497
23 245 0.0579771026968956
23 246 0.2989809513092041
23 247 0.9521316289901733
23 248 0.9594083428382874
23 249 0.957170844078064
23 250 0.1771567165851593
23 251 0.11260582506656647
23 252 0.9550809264183044
23 253 0.9343532919883728
23 254 0.9593090415000916
23 255 0.953183650970459
24 25 0.716652512550354
24 26 0.6755141019821167
24 27 0.29374733567237854
24 28 0.7335435748100281
24 29 0.7381596565246582
24 30 0.7430301308631897
24 31 0.10406884551048279
24 33 0.7317896485328674
24 34 0.6995997428894043
24 35 0.7175257802009583
24 36 0.7298732399940491
24 37 0.7392060160636902
24 38 0.7231513261795044
24 39 0.7190268635749817
24 40 0.0942678153514862
24 41 0.7305655479431152
24 42 0.7305689454078674
24 43 0.7064979672431946
24 44 0.7211572527885437
24 45 0.7150362730026245
24 47 0.7197809815406799
24 48 0.6759539246559143
24 49 0.7235106825828552
24 51 0.7255211472511292
24 52 0.7137739062309265
24 53 0.7303821444511414
24 54 0.14597412943840027
24 55 0.7076579928398132
24 56 0.7380596399307251
24 57 0.7166696786880493
24 58 0.09012626856565475
24 59 0.731017529964447
24 60 0.7277379631996155
24 61 0.7183993458747864
24 62 0.722636878490448
24 63 0.7340587377548218
24 64 0.7289286255836487
24 65 0.12066802382469177
24 66 0.7179000973701477
24 67 0.7042727470397949
24 69 0.7283494472503662
24 70 0.7110127210617065
24 71 0.7301041483879089
24 73 0.7212656736373901
24 74 0.7192728519439697
24 75 0.11775439232587814
24 76 0.6662706732749939
24 77 0.7341498732566833
24 78 0.21242964267730713
24 79 0.2504574656486511
24 80 0.7235106825828552
24 81 0.07080987840890884
24 82 0.11528990417718887
24 83 0.7405707240104675
24 84 0.6771466135978699
24 85 0.731400191783905
24 86 0.7336791157722473
24 87 0.6577795147895813
24 88 0.7238204479217529
24 89 0.7419835925102234
24 90 0.1457255333662033
24 91 0.12490326911211014
24 92 0.7147818803787231
24 93 0.7434568405151367
24 94 0.08497186005115509
24 95 0.706846296787262
24 96 0.6918708682060242
24 97 0.7149024605751038
24 98 0.7142760157585144
24 99 0.7328436970710754
24 100 0.7185232639312744
24 101 0.7282141447067261
24 102 0.7182790040969849
24 103 0.7019307017326355
24 104 0.7231230735778809
24 105 0.3785303235054016
24 106 0.7269673943519592
24 107 0.7147967219352722
24 108 0.08966992050409317
24 109 0.7429567575454712
24 110 0.31946444511413574
24 111 0.6828845739364624
24 112 0.7381596565246582
24 113 0.37501633167266846
24 114 0.7191981673240662
24 116 0.7277428507804871
24 117 0.7044453024864197
24 118 0.7311747670173645
24 119 0.7281920313835144
24 120 0.6688335537910461
24 121 0.7077661156654358
24 122 0.08029086142778397
24 123 0.22103984653949738
24 125 0.7436718344688416
24 126 0.7102631330490112
24 127 0.7299578785896301
24 128 0.7196764349937439
24 129 0.7130213975906372
24 130 0.737174391746521
24 131 0.7251268625259399
24 132 0.7297977805137634
24 133 0.7315008044242859
24 134 0.692517101764679
24 135 0.7232182025909424
24 136 0.7038447856903076
24 138 0.6969590187072754
24 139 0.7166696786880493
24 140 0.18789225816726685
24 141 0.060084179043769836
24 142 0.7044453024864197
24 143 0.7233907580375671
24 144 0.7256668210029602
24 145 0.07358778268098831
24 146 0.7272239327430725
24 147 0.14498326182365417
24 148 0.4180428981781006
24 149 0.7139281630516052
24 150 0.13109594583511353
24 151 0.7304078340530396
24 152 0.6891540288925171
24 153 0.7206556797027588
24 154 0.7141550183296204
24 155 0.7078603506088257
24 156 0.12402499467134476
24 157 0.7239097356796265
24 158 0.7269867658615112
24 159 0.7186750173568726
24 160 0.060084179043769836
24 161 0.7309466004371643
24 162 0.13186617195606232
24 163 0.7388758063316345
24 164 0.07358778268098831
24 165 0.7234382033348083
24 166 0.734314501285553
24 167 0.7344390153884888
24 168 0.719648540019989
24 169 0.7280657887458801
24 170 0.7205838561058044
24 171 0.7266095876693726
24 173 0.7169017791748047
24 174 0.7144005298614502
24 175 0.7167813181877136
24 176 0.13008606433868408
24 177 0.0855012834072113
24 178 0.27648207545280457
24 179 0.1598750352859497
24 180 0.3278757631778717
24 181 0.7270438075065613
24 182 0.7209165096282959
24 184 0.194371297955513
24 185 0.7214326858520508
24 186 0.7357447147369385
24 187 0.7237686514854431
24 188 0.2212902307510376
24 189 0.7343683838844299
24 190 0.7185232639312744
24 191 0.10406884551048279
24 192 0.7228947281837463
24 193 0.5883322358131409
24 194 0.0658189207315445
24 195 0.7319344878196716
24 196 0.08029086142778397
24 197 0.7045915722846985
24 198 0.7298154234886169
24 199 0.15456527471542358
24 200 0.20528759062290192
24 201 0.7328436970710754
24 202 0.7224384546279907
24 203 0.7237403988838196
24 204 0.7447418570518494
24 205 0.7246705293655396
24 206 0.08248433470726013
24 207 0.7313358187675476
24 208 0.3218744099140167
24 209 0.7112675905227661
24 210 0.7323128581047058
24 211 0.11240720003843307
24 212 0.3590140640735626
24 213 0.7112675905227661
24 214 0.6975583434104919
24 215 0.7290323376655579
24 216 0.7314134836196899
24 217 0.7090320587158203
24 218 0.7249057292938232
24 219 0.7184342741966248
24 220 0.700609028339386
24 221 0.7190268635749817
24 222 0.7090522050857544
24 223 0.7384482026100159
24 224 0.14019641280174255
24 225 0.7100070118904114
24 226 0.7362567186355591
24 227 0.7017190456390381
24 228 0.16022446751594543
24 229 0.07358778268098831
24 230 0.7206379771232605
24 231 0.7242485880851746
24 232 0.7241153717041016
24 233 0.7045915722846985
24 234 0.08152227103710175
24 235 0.7161571383476257
24 236 0.14452354609966278
24 237 0.7176520824432373
24 238 0.737887978553772
24 239 0.7179083228111267
24 240 0.7172929644584656
24 241 0.7288270592689514
24 242 0.6937008500099182
24 244 0.7258162498474121
24 245 0.09500142186880112
24 246 0.24940919876098633
24 247 0.7309503555297852
24 248 0.7373967170715332
24 249 0.7259947061538696
24 250 0.1327037513256073
24 251 0.07948389649391174
24 252 0.7287342548370361
24 253 0.7057134509086609
24 254 0.730714738368988
24 255 0.7075047492980957
25 26 0.9080317616462708
25 27 0.2362847775220871
25 28 0.9533299803733826
25 29 0.9593937397003174
25 30 0.9603884816169739
25 31 0.07930515706539154
25 33 0.9626588821411133
25 34 0.9351040720939636
25 35 0.9545249342918396
25 36 0.9545249342918396
25 37 0.9647822380065918
25 38 0.9544265866279602
25 39 0.9544265866279602
25 40 0.11673403531312943
25 41 0.954833984375
25 42 0.9636051654815674
25 43 0.9516345858573914
25 44 0.9575250744819641
25 45 0.9582546949386597
25 46 0.12141072750091553
25 47 0.9564762711524963
25 48 0.9327620267868042
25 49 0.9418416619300842
25 50 0.07930515706539154
25 51 0.9528800845146179
25 52 0.9542410969734192
25 53 0.9393690824508667
25 54 0.18202723562717438
25 55 0.9560214877128601
25 56 0.9538305401802063
25 57 0.9457195997238159
25 58 0.22893425822257996
25 59 0.9581156969070435
25 60 0.9520455002784729
25 61 0.9572601318359375
25 62 0.9582074284553528
25 63 0.9625187516212463
25 64 0.9648295044898987
25 65 0.12539246678352356
25 66 0.9571150541305542
25 67 0.9517819881439209
25 68 0.09157370775938034
25 69 0.9489311575889587
25 70 0.953188955783844
25 71 0.9592984914779663
25 72 0.06475239247083664
25 73 0.9550725817680359
25 74 0.9539769887924194
25 75 0.14495518803596497
25 76 0.923934817314148
25 77 0.9544265866279602
25 78 0.14245526492595673
25 79 0.34022843837738037
25 80 0.9481911063194275
25 81 0.09712859243154526
25 82 0.08785611391067505
25 83 0.9455216526985168
25 84 0.9309793710708618
25 85 0.9544265866279602
25 86 0.9620209336280823
25 87 0.8571032881736755
25 88 0.9484294056892395
25 89 0.9500820636749268
25 90 0.1721266210079193
25 91 0.09518192708492279
25 92 0.9566159248352051
25 93 0.9605321288108826
25 94 0.12141072750091553
25 95 0.9450164437294006
25 96 0.922936201095581
25 97 0.9554742574691772
25 98 0.9522812366485596
25 99 0.9572108387947083
25 100 0.9561175107955933
25 101 0.9641032814979553
25 102 0.9615238904953003
25 103 0.9450654983520508
25 104 0.9593937397003174
25 105 0.4487111568450928
25 106 0.9499843716621399
25 107 0.9466273784637451
25 108 0.09761790186166763
25 109 0.9478282332420349
25 110 0.3803849220275879
25 111 0.9043543934822083
25 112 0.9583519697189331
25 113 0.38018864393234253
25 114 0.9514515399932861
25 116 0.9587531089782715
25 117 0.9497568607330322
25 118 0.950682520866394
25 119 0.9511330723762512
25 120 0.9059778451919556
25 121 0.9580277800559998
25 122 0.08565936237573624
25 123 0.35934367775917053
25 124 0.07239537686109543
25 125 0.9642398953437805
25 126 0.9532350301742554
25 127 0.9604353904724121
25 128 0.9484294056892395
25 129 0.9500820636749268
25 130 0.9588484764099121
25 131 0.9456186294555664
25 132 0.9517319202423096
25 133 0.947326123714447
25 134 0.9229832887649536
25 135 0.9384019374847412
25 136 0.9557561874389648
25 138 0.940072238445282
25 139 0.9509912133216858
25 140 0.20243026316165924
25 141 0.09157370775938034
25 142 0.9412863850593567
25 143 0.9581611156463623
25 144 0.950682520866394
25 146 0.9604353904724121
25 147 0.16863314807415009
25 148 0.5202641487121582
25 149 0.9396185278892517
25 150 0.2574372887611389
25 151 0.9517819881439209
25 152 0.9435918927192688
25 153 0.9432590007781982
25 154 0.9597081542015076
25 155 0.9437216520309448
25 156 0.1485198736190796
25 157 0.9575250744819641
25 158 0.959843635559082
25 159 0.9489311575889587
25 161 0.9609798192977905
25 162 0.17142066359519958
25 163 0.9544752836227417
25 164 0.05607721582055092
25 165 0.9489806294441223
25 166 0.9532820582389832
25 167 0.9578062295913696
25 168 0.9534287452697754
25 169 0.944462776184082
25 170 0.9482836127281189
25 171 0.958302915096283
25 173 0.9544752836227417
25 174 0.9521840214729309
25 175 0.9527331590652466
25 176 0.15861031413078308
25 177 0.1375512033700943
25 178 0.3050314486026764
25 179 0.39919424057006836
25 180 0.37057313323020935
25 181 0.950682520866394
25 182 0.9506322741508484
25 183 0.16232691705226898
25 184 0.20736759901046753
25 185 0.9432125091552734
25 186 0.9571150541305542
25 187 0.9544752836227417
25 188 0.17444808781147003
25 189 0.9648295044898987
25 190 0.9592523574829102
25 191 0.07930515706539154
25 192 0.9428495168685913
25 193 0.673258364200592
25 194 0.12539246678352356
25 195 0.9615238904953003
25 196 0.17131872475147247
25 197 0.951495885848999
25 198 0.9667693972587585
25 199 0.12563809752464294
25 200 0.2747211158275604
25 201 0.9592984914779663
25 202 0.9405786395072937
25 203 0.9530145525932312
25 204 0.9500820636749268
25 205 0.9532820582389832
25 206 0.11673403531312943
25 207 0.9495315551757812
25 208 0.43655839562416077
25 209 0.9537835717201233
25 210 0.9599387049674988
25 211 0.08565936237573624
25 212 0.33018866181373596
25 213 0.954833984375
25 214 0.9403896331787109
25 215 0.9538784027099609
25 216 0.9642398953437805
25 217 0.954974353313446
25 218 0.9528301954269409
25 219 0.953605592250824
25 220 0.9490311145782471
25 221 0.9523311853408813
25 222 0.9316400289535522
25 223 0.963793158531189
25 224 0.12972941994667053
25 225 0.9484294056892395
25 226 0.9610764384269714
25 227 0.9484294056892395
25 228 0.12209827452898026
25 229 0.05607721582055092
25 230 0.9610276818275452
25 231 0.9567137360572815
25 232 0.9609798192977905
25 233 0.9462214708328247
25 234 0.14495518803596497
25 235 0.9505830407142639
25 236 0.15908166766166687
25 237 0.9565218687057495
25 238 0.954974353313446
25 239 0.9610276818275452
25 240 0.9499843716621399
25 241 0.9599875807762146
25 242 0.9449682235717773
25 244 0.9484800100326538
25 245 0.057916298508644104
25 246 0.29187947511672974
25 247 0.9500820636749268
25 248 0.9636051654815674
25 249 0.9603423476219177
25 250 0.17191462218761444
25 251 0.11248772591352463
25 252 0.9561669826507568
25 253 0.939788281917572
25 254 0.958302915096283
25 255 0.9532350301742554
26 27 0.1572682410478592
26 28 0.9162448048591614
26 29 0.911156415939331
26 30 0.9132000207901001
26 31 0.05571701005101204
26 33 0.9127174019813538
26 34 0.8910685777664185
26 35 0.9111704230308533
26 36 0.9144757390022278
26 37 0.9161529541015625
26 38 0.904244065284729
26 39 0.9009317755699158
26 40 0.11355675756931305
26 41 0.9077274799346924
26 42 0.91679447889328
26 43 0.9020355343818665
26 44 0.9040871262550354
26 45 0.9086484909057617
26 46 0.059709228575229645
26 47 0.90187668800354
26 48 0.8983455896377563
26 49 0.9044537544250488
26 50 0.08357550948858261
26 51 0.9092885255813599
26 52 0.8958592414855957
26 53 0.8910685777664185
26 54 0.202486053109169
26 55 0.9048745036125183
26 56 0.9012444019317627
26 57 0.8988683819770813
26 58 0.2316112518310547
26 59 0.9048745036125183
26 60 0.9066460132598877
26 61 0.9077054858207703
26 62 0.9162017703056335
26 63 0.9078630805015564
26 64 0.9163058996200562
26 65 0.07928669452667236
26 66 0.9050317406654358
26 67 0.9113457798957825
26 68 0.08444160223007202
26 69 0.9001365303993225
26 70 0.9091641306877136
26 71 0.9108486771583557
26 72 0.06823912262916565
26 73 0.9084933996200562
26 74 0.9083387851715088
26 75 0.12366334348917007
26 76 0.8703466653823853
26 77 0.9009317755699158
26 78 0.17059780657291412
26 79 0.27984294295310974
26 80 0.9055689573287964
26 81 0.056865934282541275
26 82 0.08229947090148926
26 83 0.8904315233230591
26 84 0.8814128637313843
26 85 0.9053481221199036
26 86 0.9150740504264832
26 87 0.7848981618881226
26 88 0.8930047154426575
26 89 0.9037752747535706
26 90 0.12288058549165726
26 91 0.09118836373090744
26 92 0.9100686311721802
26 93 0.912562370300293
26 94 0.11088857054710388
26 95 0.8933014273643494
26 96 0.8672364354133606
26 97 0.9119725823402405
26 98 0.90077143907547
26 99 0.9097485542297363
26 100 0.9162017703056335
26 101 0.9150740504264832
26 102 0.9146012663841248
26 103 0.9057170748710632
26 104 0.9177430868148804
26 105 0.41255754232406616
26 106 0.9045761227607727
26 107 0.8894806504249573
26 108 0.09258690476417542
26 109 0.9022016525268555
26 110 0.38483285903930664
26 111 0.8800072073936462
26 112 0.906765341758728
26 113 0.34150275588035583
26 114 0.8958501815795898
26 116 0.9102217555046082
26 117 0.9060531258583069
26 118 0.9089850783348083
26 119 0.8993449807167053
26 120 0.8607941269874573
26 121 0.9078792929649353
26 122 0.0773758813738823
26 123 0.3431907594203949
26 124 0.0610349215567112
26 125 0.9111544489860535
26 126 0.9037752747535706
26 127 0.9133519530296326
26 128 0.9118631482124329
26 129 0.9037752747535706
26 130 0.9050384163856506
26 131 0.8907597661018372
26 132 0.9034559726715088
26 133 0.895060658454895
26 134 0.8719819784164429
26 135 0.8891419768333435
26 136 0.9017236232757568
26 138 0.8921828866004944
26 139 0.9022016525268555
26 140 0.16650189459323883
26 141 0.07237851619720459
26 142 0.8859681487083435
26 143 0.9039294123649597
26 144 0.9100909233093262
26 145 0.059096809476614
26 146 0.911156415939331
26 147 0.1593293845653534
26 148 0.512521505355835
26 149 0.9041572213172913
26 150 0.23890556395053864
26 151 0.9069271087646484
26 152 0.8841623663902283
26 153 0.893302321434021
26 154 0.9099162817001343
26 155 0.9059605598449707
26 156 0.15651725232601166
26 157 0.9085080623626709
26 158 0.9125745296478271
26 159 0.9045761227607727
26 161 0.9117823839187622
26 162 0.1370457261800766
26 163 0.9110192060470581
26 165 0.9113816022872925
26 166 0.9039308428764343
26 167 0.9149235486984253
26 168 0.9032987356185913
26 169 0.900473952293396
26 170 0.9114301800727844
26 171 0.9153978824615479
26 173 0.9110192060470581
26 174 0.9037752747535706
26 175 0.9044064879417419
26 176 0.11143402010202408
26 177 0.13732858002185822
26 178 0.27174675464630127
26 179 0.3633228838443756
26 180 0.3372736871242523
26 181 0.9056676626205444
26 182 0.9077274799346924
26 183 0.15206024050712585
26 184 0.20292417705059052
26 185 0.8886622190475464
26 186 0.9160552620887756
26 187 0.9143279790878296
26 188 0.16545744240283966
26 189 0.9130294322967529
26 190 0.9084933996200562
26 192 0.9054215550422668
26 193 0.6395147442817688
26 194 0.1145252212882042
26 195 0.9113112688064575
26 196 0.12251181900501251
26 197 0.9071270823478699
26 198 0.9092758297920227
26 199 0.12412813305854797
26 200 0.2734299302101135
26 201 0.9053483009338379
26 202 0.9016237258911133
26 203 0.8963270783424377
26 204 0.9037752747535706
26 205 0.8983988761901855
26 206 0.10409370064735413
26 207 0.9053600430488586
26 208 0.3960360586643219
26 209 0.9044064879417419
26 210 0.9117823839187622
26 211 0.051583923399448395
26 212 0.3280844986438751
26 213 0.9032995104789734
26 214 0.8942863941192627
26 215 0.916869044303894
26 216 0.916623592376709
26 217 0.9125989675521851
26 218 0.9179736971855164
26 219 0.8982337117195129
26 220 0.9048828482627869
26 221 0.9130766987800598
26 222 0.885772168636322
26 223 0.9152137637138367
26 224 0.09650468081235886
26 225 0.9029885530471802
26 226 0.9109973311424255
26 227 0.9018791913986206
26 228 0.10454674065113068
26 229 0.059096809476614
26 230 0.9097448587417603
26 231 0.9114750623703003
26 232 0.9172684550285339
26 233 0.8926753401756287
26 234 0.10911471396684647
26 235 0.8987111449241638
26 236 0.10316784679889679
26 237 0.92301344871521
26 238 0.9125989675521851
26 239 0.9196096062660217
26 240 0.9145653247833252
26 241 0.913033127784729
26 242 0.9110037088394165
26 244 0.9009274244308472
26 246 0.21817880868911743
26 247 0.9048828482627869
26 248 0.9080213904380798
26 249 0.9141488075256348
26 250 0.202486053109169
26 251 0.10030720382928848
26 252 0.916348934173584
26 253 0.8957480192184448
26 254 0.914298951625824
26 255 0.9059903621673584
27 28 0.2447037547826767
27 29 0.24305163323879242
27 30 0.2391798347234726
27 33 0.25051388144493103
27 34 0.24878352880477905
27 35 0.21912990510463715
27 36 0.25220611691474915
27 37 0.22974370419979095
27 38 0.24859055876731873
27 39 0.2527337372303009
27 40 0.07102207839488983
27 41 0.24924388527870178
27 42 0.21399356424808502
27 43 0.22455598413944244
27 44 0.22811366617679596
27 45 0.23530025780200958
27 47 0.2447037547826767
27 48 0.17363841831684113
27 49 0.25110098719596863
27 51 0.24431951344013214
27 52 0.24547773599624634
27 53 0.2530001997947693
27 54 0.059988003224134445
27 55 0.22775547206401825
27 56 0.24483224749565125
27 57 0.21264217793941498
27 59 0.24017849564552307
27 60 0.22515054047107697
27 61 0.22680845856666565
27 62 0.1983538717031479
27 63 0.2512906789779663
27 64 0.24180327355861664
27 66 0.2026975005865097
27 67 0.23213942348957062
27 68 0.09053574502468109
27 69 0.2499023824930191
27 70 0.2121926099061966
27 71 0.21465986967086792
27 73 0.2314128577709198
27 74 0.23579098284244537
27 75 0.10919021815061569
27 76 0.18096894025802612
27 77 0.24859055876731873
27 78 0.10242950916290283
27 79 0.33910679817199707
27 80 0.217620849609375
27 83 0.24286070466041565
27 84 0.2040669322013855
27 85 0.2527337372303009
27 86 0.23469115793704987
27 87 0.23843751847743988
27 88 0.24560745060443878
27 89 0.24937517940998077
27 90 0.19762329757213593
27 91 0.10265788435935974
27 92 0.25220611691474915
27 93 0.24254997074604034
27 94 0.09602765738964081
27 95 0.23436091840267181
27 96 0.19775666296482086
27 97 0.20715880393981934
27 98 0.24055622518062592
27 99 0.24768447875976562
27 100 0.2314128577709198
27 101 0.2388085275888443
27 102 0.205763041973114
27 103 0.25501370429992676
27 104 0.23069307208061218
27 105 0.28971439599990845
27 106 0.2249121516942978
27 107 0.23423580825328827
27 108 0.11581370234489441
27 109 0.23765891790390015
27 111 0.22624525427818298
27 112 0.24717114865779877
27 113 0.27244943380355835
27 114 0.19210071861743927
27 116 0.23542265594005585
27 117 0.21354994177818298
27 118 0.2323831468820572
27 119 0.24937517940998077
27 120 0.1915489286184311
27 121 0.2282334566116333
27 125 0.2503851056098938
27 126 0.24106267094612122
27 127 0.24305163323879242
27 128 0.22895610332489014
27 129 0.23690642416477203
27 130 0.2472991645336151
27 131 0.250699520111084
27 132 0.2531316578388214
27 133 0.23753300309181213
27 134 0.21471095085144043
27 135 0.25245317816734314
27 136 0.23753300309181213
27 138 0.2058369368314743
27 139 0.23348945379257202
27 140 0.0781017616391182
27 142 0.2512352168560028
27 143 0.23165428638458252
27 144 0.24068254232406616
27 145 0.07392212748527527
27 146 0.23069307208061218
27 147 0.06898830831050873
27 148 0.2012740671634674
27 149 0.1845354586839676
27 151 0.2362847775220871
27 152 0.1941775530576706
27 153 0.24784448742866516
27 154 0.20694221556186676
27 155 0.22720785439014435
27 157 0.21152357757091522
27 158 0.24342992901802063
27 159 0.22907719016075134
27 160 0.09053574502468109
27 161 0.2388085275888443
27 163 0.24833066761493683
27 164 0.14784425497055054
27 165 0.24547773599624634
27 166 0.22835342586040497
27 167 0.24317751824855804
27 168 0.23177528381347656
27 169 0.24286070466041565
27 170 0.22133342921733856
27 171 0.2350560426712036
27 173 0.24419182538986206
27 174 0.24106267094612122
27 175 0.2243194878101349
27 176 0.052270837128162384
27 178 0.2860289514064789
27 180 0.2886573374271393
27 181 0.24483224749565125
27 182 0.23678170144557953
27 184 0.0781017616391182
27 185 0.2439064085483551
27 186 0.23992766439914703
27 187 0.2276364415884018
27 189 0.25
27 190 0.22728049755096436
27 191 0.052270837128162384
27 192 0.21785371005535126
27 193 0.30445727705955505
27 195 0.24280041456222534
27 197 0.22944168746471405
27 198 0.24254997074604034
27 199 0.09316051006317139
27 200 0.06035716459155083
27 201 0.24768447875976562
27 202 0.23116591572761536
27 203 0.2465212047100067
27 204 0.25353142619132996
27 205 0.24080905318260193
27 207 0.24950666725635529
27 208 0.14238685369491577
27 209 0.23262763023376465
27 210 0.24292592704296112
27 212 0.062180206179618835
27 213 0.21185730397701263
27 214 0.2237263172864914
27 215 0.22799408435821533
27 216 0.23807106912136078
27 217 0.18634538352489471
27 218 0.24872080981731415
27 219 0.22944168746471405
27 220 0.23690642416477203
27 221 0.24859055876731873
27 222 0.24590402841567993
27 223 0.23770490288734436
27 224 0.18107149004936218
27 225 0.22479325532913208
27 226 0.24653393030166626
27 227 0.233118936419487
27 228 0.21125006675720215
27 230 0.23033566772937775
27 231 0.23930399119853973
27 232 0.23469115793704987
27 233 0.22109834849834442
27 234 0.16378532350063324
27 235 0.22039754688739777
27 236 0.09678678214550018
27 237 0.22787469625473022
27 238 0.24431951344013214
27 239 0.21388311684131622
27 240 0.2332422286272049
27 241 0.24267509579658508
27 242 0.16339029371738434
27 244 0.24118977785110474
27 246 0.12079720944166183
27 247 0.21612514555454254
27 248 0.24691566824913025
27 249 0.243556410074234
27 251 0.10265788435935974
27 252 0.2394283264875412
27 253 0.2452327162027359
27 254 0.24742740392684937
27 255 0.24106267094612122
28 29 0.9588547348976135
28 30 0.958805501461029
28 31 0.07934675365686417
28 33 0.9673198461532593
28 34 0.9334609508514404
28 35 0.9560716152191162
28 36 0.9571176171302795
28 37 0.9632123112678528
28 38 0.9528307318687439
28 39 0.9538789391517639
28 40 0.10781100392341614
28 41 0.9542838931083679
28 42 0.9599459767341614
28 43 0.9510816335678101
28 44 0.9517313838005066
28 45 0.9556241035461426
28 46 0.08908123522996902
28 47 0.9517313838005066
28 48 0.932179868221283
28 49 0.944453239440918
28 50 0.07934675365686417
28 51 0.9544275999069214
28 52 0.9484257102012634
28 53 0.9462626576423645
28 54 0.20235857367515564
28 55 0.9554752707481384
28 56 0.9532809853553772
28 57 0.9451608061790466
28 58 0.21989217400550842
28 59 0.9565228819847107
28 60 0.9451608061790466
28 61 0.958805501461029
28 62 0.9566190242767334
28 63 0.9619814157485962
28 64 0.9663724303245544
28 65 0.11709434539079666
28 66 0.9534308314323425
28 67 0.9533299803733826
28 68 0.08016902208328247
28 69 0.9515363574028015
28 70 0.9526363015174866
28 71 0.9556241035461426
28 72 0.06478635221719742
28 73 0.9545280337333679
28 74 0.9565705060958862
28 75 0.14503122866153717
28 76 0.9200589060783386
28 77 0.9538789391517639
28 78 0.16196587681770325
28 79 0.3570121228694916
28 80 0.9433944225311279
28 81 0.07558407634496689
28 82 0.10743601620197296
28 83 0.9407207369804382
28 84 0.9282408356666565
28 85 0.958071768283844
28 86 0.9583587646484375
28 87 0.8480902314186096
28 88 0.9468205571174622
28 89 0.9484773874282837
28 90 0.18332765996456146
28 91 0.12120416760444641
28 92 0.9581636786460876
28 93 0.961035966873169
28 94 0.12957270443439484
28 95 0.945512056350708
28 96 0.9168943762779236
28 97 0.9549272060394287
28 98 0.9569779634475708
28 99 0.9566685557365417
28 100 0.9566190242767334
28 101 0.961483895778656
28 102 0.9599459767341614
28 103 0.9455611705780029
28 104 0.9588547348976135
28 105 0.43978434801101685
28 106 0.9462676048278809
28 107 0.9502986073493958
28 108 0.08790219575166702
28 109 0.9472705721855164
28 110 0.398345023393631
28 111 0.9147356748580933
28 112 0.9661503434181213
28 113 0.3803880512714386
28 114 0.9466677904129028
28 116 0.9603009819984436
28 117 0.9449581503868103
28 118 0.9532809853553772
28 119 0.9484773874282837
28 120 0.903148889541626
28 121 0.951181173324585
28 122 0.08570428937673569
28 123 0.35953211784362793
28 125 0.9626687169075012
28 126 0.9484773874282837
28 127 0.9588547348976135
28 128 0.9531397223472595
28 129 0.9505804181098938
28 130 0.9614369869232178
28 131 0.9450575709342957
28 132 0.951181173324585
28 133 0.9478229284286499
28 134 0.9158623814582825
28 135 0.9357006549835205
28 136 0.9488772749900818
28 138 0.941628098487854
28 139 0.9462156891822815
28 140 0.1827767789363861
28 141 0.05726359039545059
28 142 0.9407207369804382
28 143 0.9555239081382751
28 144 0.950131356716156
28 145 0.056106630712747574
28 146 0.957812488079071
28 147 0.16290362179279327
28 148 0.5280809998512268
28 149 0.9401113390922546
28 150 0.26526105403900146
28 151 0.9596225619316101
28 152 0.9344750046730042
28 153 0.9511932134628296
28 154 0.9528816342353821
28 155 0.9410231709480286
28 156 0.14859777688980103
28 157 0.9517313838005066
28 158 0.963478684425354
28 159 0.947321355342865
28 161 0.9594005346298218
28 162 0.14785394072532654
28 163 0.9570701718330383
28 164 0.056106630712747574
28 165 0.9494783878326416
28 166 0.9495803117752075
28 167 0.9603942036628723
28 168 0.9539288282394409
28 169 0.9481363296508789
28 170 0.9508939981460571
28 171 0.958805501461029
28 173 0.9570701718330383
28 174 0.9505804181098938
28 175 0.9500799775123596
28 176 0.15869350731372833
28 177 0.12313669174909592
28 178 0.3177766501903534
28 179 0.373468279838562
28 180 0.367958664894104
28 181 0.950131356716156
28 182 0.9490290284156799
28 183 0.1563968062400818
28 184 0.19759652018547058
28 185 0.9394515156745911
28 186 0.9586637020111084
28 187 0.9549759030342102
28 188 0.18035757541656494
28 189 0.9653355479240417
28 190 0.9587100148200989
28 191 0.07934675365686417
28 192 0.9560633301734924
28 193 0.6615287661552429
28 194 0.125458225607872
28 195 0.9589048027992249
28 196 0.1652868539094925
28 197 0.9467177987098694
28 198 0.9599958658218384
28 199 0.1178474947810173
28 200 0.2672300636768341
28 201 0.9577129483222961
28 202 0.9474520683288574
28 203 0.9440004825592041
28 204 0.9516319632530212
28 205 0.9527316093444824
28 206 0.10781100392341614
28 207 0.9563420414924622
28 208 0.42778149247169495
28 209 0.9500799775123596
28 210 0.961483895778656
28 211 0.07346081733703613
28 212 0.33036187291145325
28 213 0.9553348422050476
28 214 0.9355429410934448
28 215 0.9533299803733826
28 216 0.9647456407546997
28 217 0.9575705528259277
28 218 0.9585738182067871
28 219 0.9446069598197937
28 220 0.9505804181098938
28 221 0.9612164497375488
28 222 0.9332014322280884
28 223 0.9674093127250671
28 224 0.12216231226921082
28 225 0.9468205571174622
28 226 0.9605409502983093
28 227 0.9489269256591797
28 228 0.12979745864868164
28 229 0.056106630712747574
28 230 0.9594504833221436
28 231 0.9572155475616455
28 232 0.961483895778656
28 233 0.9467177987098694
28 234 0.14503122866153717
28 235 0.9489774703979492
28 236 0.14079990983009338
28 237 0.9549272060394287
28 238 0.9544275999069214
28 239 0.9656941890716553
28 240 0.9504826068878174
28 241 0.9625723958015442
28 242 0.9465238451957703
28 244 0.9500295519828796
28 245 0.07243335247039795
28 246 0.28863683342933655
28 247 0.9547865390777588
28 248 0.9609870910644531
28 249 0.9639793038368225
28 250 0.1922406554222107
28 251 0.11254672706127167
28 252 0.9587572813034058
28 253 0.9402812123298645
28 254 0.956718921661377
28 255 0.9484773874282837
29 30 0.9637311697006226
29 31 0.06567586958408356
29 33 0.9721408486366272
29 34 0.9451719522476196
29 35 0.9620842933654785
29 36 0.9631232619285583
29 37 0.9721731543540955
29 38 0.9609736204147339
29 39 0.9609736204147339
29 40 0.11600670963525772
29 41 0.9593236446380615
29 42 0.9689767360687256
29 43 0.9561551213264465
29 44 0.9588547348976135
29 45 0.9636949896812439
29 46 0.12065427005290985
29 47 0.9619814157485962
29 48 0.9407854676246643
29 49 0.9538516402244568
29 50 0.06567586958408356
29 51 0.9604708552360535
29 52 0.9577054381370544
29 53 0.9419931769371033
29 54 0.2060171514749527
29 55 0.9646332263946533
29 56 0.9593581557273865
29 57 0.9534479379653931
29 58 0.20930726826190948
29 59 0.9615114331245422
29 60 0.9534479379653931
29 61 0.9658036828041077
29 62 0.9615830779075623
29 63 0.9689441323280334
29 64 0.9711766242980957
29 65 0.12461119890213013
29 66 0.9625862836837769
29 67 0.9593937397003174
29 68 0.09100314974784851
29 69 0.9576716423034668
29 70 0.9587509036064148
29 71 0.9647324085235596
29 73 0.9626215100288391
29 74 0.961546778678894
29 75 0.13719241321086884
29 76 0.9225091338157654
29 77 0.9599325060844421
29 78 0.15443746745586395
29 79 0.365597128868103
29 80 0.9506966471672058
29 81 0.09652341902256012
29 82 0.10671065002679825
29 83 0.9554137587547302
29 84 0.9454772472381592
29 85 0.9588913321495056
29 86 0.96637362241745
29 87 0.857637345790863
29 88 0.9613496661186218
29 89 0.9660955667495728
29 90 0.1765720546245575
29 91 0.12038585543632507
29 92 0.9620842933654785
29 93 0.9669442176818848
29 94 0.1045670360326767
29 95 0.9496449828147888
29 96 0.9258283376693726
29 97 0.9609736204147339
29 98 0.957812488079071
29 99 0.9647324085235596
29 100 0.963659942150116
29 101 0.96637362241745
29 102 0.9700108170509338
29 103 0.9528341889381409
29 104 0.9689441323280334
29 105 0.43681514263153076
29 106 0.9576716423034668
29 107 0.9522913098335266
29 108 0.09700968116521835
29 109 0.9555434584617615
29 110 0.3906153738498688
29 111 0.9162131547927856
29 112 0.9658384919166565
29 113 0.403176873922348
29 114 0.9539187550544739
29 116 0.962120532989502
29 117 0.9512048959732056
29 118 0.9593581557273865
29 119 0.9566956758499146
29 120 0.9189305305480957
29 121 0.9614437818527222
29 122 0.08512565493583679
29 123 0.3654743731021881
29 124 0.07194431126117706
29 125 0.9716412425041199
29 126 0.9587845206260681
29 127 0.9679089188575745
29 128 0.9550731778144836
29 129 0.9566956758499146
29 130 0.9663388133049011
29 131 0.9533765912055969
29 132 0.9583154320716858
29 133 0.957131564617157
29 134 0.9323399066925049
29 135 0.9473576545715332
29 136 0.9560843706130981
29 138 0.9458267688751221
29 139 0.9544957280158997
29 140 0.21098212897777557
29 141 0.09100314974784851
29 142 0.9501526951789856
29 143 0.9605072736740112
29 144 0.9583154320716858
29 145 0.05572781711816788
29 146 0.9658384919166565
29 147 0.16180375218391418
29 148 0.5357553362846375
29 149 0.9506267309188843
29 150 0.25965169072151184
29 151 0.9593937397003174
29 152 0.9451380372047424
29 153 0.9511048197746277
29 154 0.9610089659690857
29 155 0.9484149813652039
29 156 0.10063261538743973
29 157 0.9630236625671387
29 158 0.9642313718795776
29 159 0.9597649574279785
29 161 0.9715469479560852
29 162 0.17035260796546936
29 163 0.9610089659690857
29 164 0.05572781711816788
29 165 0.9577054381370544
29 166 0.9598624110221863
29 167 0.964267373085022
29 168 0.9620490670204163
29 169 0.9533092975616455
29 170 0.9549681544303894
29 171 0.9658036828041077
29 173 0.9641291499137878
29 174 0.9577401280403137
29 175 0.9572359323501587
29 176 0.1576220691204071
29 177 0.12949976325035095
29 178 0.3156311511993408
29 179 0.38382688164711
29 180 0.33478567004203796
29 181 0.9583154320716858
29 182 0.9593236446380615
29 183 0.16729019582271576
29 184 0.20607557892799377
29 185 0.9479032158851624
29 186 0.961546778678894
29 187 0.9641291499137878
29 188 0.16180375218391418
29 189 0.9711766242980957
29 190 0.9626215100288391
29 191 0.07881103456020355
29 192 0.9496084451675415
29 193 0.6555622816085815
29 194 0.107996366918087
29 195 0.9669085144996643
29 196 0.15201009809970856
29 197 0.9529055953025818
29 198 0.9690102934837341
29 199 0.11705183237791061
29 200 0.26163408160209656
29 201 0.9657697081565857
29 202 0.9473923444747925
29 203 0.956526517868042
29 204 0.9566956758499146
29 205 0.9567325115203857
29 206 0.10708311945199966
29 207 0.9551101922988892
29 208 0.43831098079681396
29 209 0.9603675007820129
29 210 0.967408299446106
29 211 0.08512565493583679
29 212 0.3312564790248871
29 213 0.9614114165306091
29 214 0.943016529083252
29 215 0.9593937397003174
29 216 0.9685468673706055
29 217 0.9594302773475647
29 218 0.9604353904724121
29 219 0.9539539217948914
29 220 0.9566956758499146
29 221 0.9609736204147339
29 222 0.9375548958778381
29 223 0.9742662906646729
29 224 0.12892113626003265
29 225 0.9561192393302917
29 226 0.9695438146591187
29 227 0.9582114219665527
29 228 0.12133754044771194
29 229 0.05572781711816788
29 230 0.96744304895401
29 231 0.9652681350708008
29 232 0.9694775938987732
29 233 0.9560505151748657
29 234 0.15091165900230408
29 235 0.959290087223053
29 236 0.17025130987167358
29 237 0.9599325060844421
29 238 0.9625520706176758
29 239 0.9664095044136047
29 240 0.9566250443458557
29 241 0.9705438613891602
29 242 0.948555588722229
29 244 0.9561551213264465
29 245 0.05755544826388359
29 246 0.2900609076023102
29 247 0.9577401280403137
29 248 0.9669085144996643
29 249 0.9626576900482178
29 250 0.20099234580993652
29 251 0.12038585543632507
29 252 0.9636949896812439
29 253 0.9403078556060791
29 254 0.9668399095535278
29 255 0.9619178175926208
30 31 0.07889275252819061
30 33 0.9679834842681885
30 34 0.9408483505249023
30 35 0.9620417952537537
30 36 0.9630818367004395
30 37 0.9700852036476135
30 38 0.9598855376243591
30 39 0.9619699716567993
30 40 0.11612698435783386
30 41 0.9571834206581116
30 42 0.9668757319450378
30 43 0.9571464657783508
30 44 0.9629787802696228
30 45 0.9626173377037048
30 46 0.11272741109132767
30 47 0.9577622413635254
30 48 0.9364342093467712
30 49 0.9485240578651428
30 50 0.07889275252819061
30 51 0.958341658115387
30 52 0.9555584788322449
30 53 0.9397876858711243
30 54 0.19617070257663727
30 55 0.9604250192642212
30 56 0.9613967537879944
30 57 0.9596806168556213
30 58 0.2186340093612671
30 59 0.9614666700363159
30 60 0.9554853439331055
30 61 0.9626556038856506
30 62 0.9615405201911926
30 63 0.9658036828041077
30 64 0.9690907001495361
30 65 0.12474039196968079
30 66 0.9646248817443848
30 67 0.958302915096283
30 68 0.09109750390052795
30 69 0.9523782730102539
30 70 0.9545118808746338
30 71 0.9636557698249817
30 72 0.06441566348075867
30 73 0.9615405201911926
30 74 0.9594219326972961
30 75 0.1373346596956253
30 76 0.9212978482246399
30 77 0.9588432908058167
30 78 0.1481560319662094
30 79 0.3494659960269928
30 80 0.9485240578651428
30 81 0.096623495221138
30 82 0.10682129114866257
30 83 0.9479778409004211
30 84 0.9336241483688354
30 85 0.9598855376243591
30 86 0.9653041362762451
30 87 0.862054705619812
30 88 0.9529218673706055
30 89 0.9555965065956116
30 90 0.1767551302909851
30 91 0.11190275847911835
30 92 0.9599616527557373
30 93 0.9710491895675659
30 94 0.12883132696151733
30 95 0.9495768547058105
30 96 0.93003249168396
30 97 0.9598855376243591
30 98 0.956718921661377
30 99 0.9636557698249817
30 100 0.9646590352058411
30 101 0.9642683863639832
30 102 0.9658405184745789
30 103 0.9496155977249146
30 104 0.9637311697006226
30 105 0.44182288646698
30 106 0.9544737339019775
30 107 0.9480177760124207
30 108 0.08739923685789108
30 109 0.9596806168556213
30 110 0.40615665912628174
30 111 0.917163074016571
30 112 0.9637311697006226
30 113 0.38836491107940674
30 114 0.9559582471847534
30 116 0.9620791673660278
30 117 0.9479778409004211
30 118 0.9561774730682373
30 119 0.9576875567436218
30 120 0.9111223816871643
30 121 0.9582651853561401
30 122 0.08521391451358795
30 123 0.34351110458374023
30 124 0.07201889902353287
30 125 0.9674859046936035
30 126 0.9555965065956116
30 127 0.9647673964500427
30 128 0.9550161957740784
30 129 0.9576875567436218
30 130 0.9652671217918396
30 131 0.9512118101119995
30 132 0.9572213292121887
30 133 0.9528825283050537
30 134 0.9235846400260925
30 135 0.9472814202308655
30 136 0.9518342614173889
30 138 0.9436373114585876
30 139 0.9544364809989929
30 140 0.20137757062911987
30 141 0.09109750390052795
30 142 0.9469245076179504
30 143 0.9677466750144958
30 144 0.9572213292121887
30 146 0.9668399095535278
30 147 0.1735409051179886
30 148 0.5288099050521851
30 149 0.9495023488998413
30 150 0.2637432813644409
30 151 0.9603884816169739
30 152 0.9408086538314819
30 153 0.9446939826011658
30 154 0.9620053768157959
30 155 0.9472814202308655
30 156 0.15446335077285767
30 157 0.9598488211631775
30 158 0.9631552696228027
30 159 0.9576168656349182
30 161 0.9673755764961243
30 162 0.15876860916614532
30 163 0.9620053768157959
30 164 0.05578560009598732
30 165 0.9534652829170227
30 166 0.9556355476379395
30 167 0.9642303586006165
30 168 0.9599231481552124
30 169 0.9490311145782471
30 170 0.9549077749252319
30 171 0.9636929035186768
30 173 0.9620053768157959
30 174 0.9545510411262512
30 175 0.9592732787132263
30 176 0.15778550505638123
30 177 0.12963402271270752
30 178 0.3097018301486969
30 179 0.386803537607193
30 180 0.36585330963134766
30 181 0.9603528380393982
30 182 0.9561384320259094
30 183 0.15550194680690765
30 184 0.19155427813529968
30 185 0.9467703700065613
30 186 0.9656654596328735
30 187 0.9630465507507324
30 188 0.1735409051179886
30 189 0.9721835255622864
30 190 0.9646590352058411
30 191 0.07889275252819061
30 192 0.9505929350852966
30 193 0.6682555675506592
30 194 0.12474039196968079
30 195 0.9648053646087646
30 196 0.1704278290271759
30 197 0.9517947435379028
30 198 0.9679467678070068
30 199 0.1249847486615181
30 200 0.23913094401359558
30 201 0.9615789651870728
30 202 0.9462601542472839
30 203 0.9522628784179688
30 204 0.9566420316696167
30 205 0.9566799998283386
30 206 0.11612698435783386
30 207 0.9613307118415833
30 208 0.4208565950393677
30 209 0.9571834206581116
30 210 0.9642683863639832
30 211 0.08521391451358795
30 212 0.3284716308116913
30 213 0.9561384320259094
30 214 0.9418705105781555
30 215 0.9614312052726746
30 216 0.9716160893440247
30 217 0.9593833684921265
30 218 0.9593456387519836
30 219 0.9570416808128357
30 220 0.9555965065956116
30 221 0.9588432908058167
30 222 0.9438594579696655
30 223 0.9690907001495361
30 224 0.12905479967594147
30 225 0.9529218673706055
30 226 0.9664146304130554
30 227 0.9529218673706055
30 228 0.12905479967594147
30 229 0.05578560009598732
30 230 0.9653420448303223
30 231 0.9621174335479736
30 232 0.9642683863639832
30 233 0.9538935422897339
30 234 0.13046792149543762
30 235 0.9561004042625427
30 236 0.1399942934513092
30 237 0.9598855376243591
30 238 0.9604250192642212
30 239 0.9663767218589783
30 240 0.9576168656349182
30 241 0.9653420448303223
30 242 0.9516468048095703
30 244 0.9540082812309265
30 245 0.07201889902353287
30 246 0.2869853377342224
30 247 0.9566420316696167
30 248 0.9658405184745789
30 249 0.9646941423416138
30 250 0.2062307447195053
30 251 0.07747114449739456
30 252 0.9657326340675354
30 253 0.9412827491760254
30 254 0.9636929035186768
30 255 0.9555965065956116
31 33 0.07856741547584534
31 34 0.05377976596355438
31 35 0.07909814268350601
31 36 0.06591512262821198
31 37 0.07848671078681946
31 38 0.05284241959452629
31 39 0.07926362752914429
31 41 0.06622661650180817
31 42 0.07872957736253738
31 43 0.06629643589258194
31 44 0.06612230092287064
31 45 0.06581226736307144
31 47 0.05289783701300621
31 52 0.05306514725089073
31 53 0.08066964894533157
31 55 0.07922215759754181
31 56 0.0661570206284523
31 57 0.07976635545492172
31 59 0.052814774215221405
31 60 0.07976635545492172
31 61 0.07889275252819061
31 62 0.07905694842338562
31 63 0.07881103456020355
31 64 0.07840625196695328
31 66 0.07913941890001297
31 67 0.06608763337135315
31 69 0.07968190312385559
31 71 0.06581226736307144
31 73 0.06588079035282135
31 74 0.07913941890001297
31 76 0.06869324296712875
31 77 0.06605302542448044
31 78 0.08164966106414795
31 80 0.0800640732049942
31 83 0.08010687679052353
31 84 0.08133397251367569
31 85 0.07926362752914429
31 86 0.07877027988433838
31 87 0.07453560084104538
31 88 0.07963977754116058
31 89 0.0795137956738472
31 90 0.07001400738954544
31 91 0.10910893976688385
31 93 0.07864838093519211
31 95 0.0800640732049942
31 96 0.08224581927061081
31 97 0.07926362752914429
31 98 0.07934675365686417
31 100 0.07905694842338562
31 101 0.07877027988433838
31 102 0.07872957736253738
31 103 0.05331911891698837
31 104 0.07881103456020355
31 105 0.057735029608011246
31 106 0.06640159338712692
31 107 0.06668445467948914
31 109 0.07976635545492172
31 111 0.06936421245336533
31 112 0.06567586958408356
31 114 0.07989354431629181
31 116 0.07901579141616821
31 117 0.08010687679052353
31 118 0.07938841730356216
31 119 0.06626150012016296
31 120 0.06940428912639618
31 121 0.0661570206284523
31 123 0.07079923152923584
31 125 0.07852703332901001
31 126 0.05300920084118843
31 127 0.07881103456020355
31 128 0.053093187510967255
31 129 0.0795137956738472
31 130 0.0788518637418747
31 131 0.07993607223033905
31 132 0.07938841730356216
31 133 0.07972410321235657
31 134 0.08215324580669403
31 135 0.06707935780286789
31 136 0.053149402141571045
31 138 0.0803651511669159
31 139 0.07976635545492172
31 142 0.0667557343840599
31 143 0.07913941890001297
31 144 0.0661570206284523
31 146 0.07881103456020355
31 148 0.0950765386223793
31 151 0.07930515706539154
31 152 0.08075728267431259
31 153 0.0803651511669159
31 154 0.0791807547211647
31 155 0.08049523085355759
31 157 0.07934675365686417
31 158 0.0789337083697319
31 159 0.06640159338712692
31 161 0.07877027988433838
31 162 0.07453560084104538
31 163 0.0791807547211647
31 166 0.07943014800548553
31 167 0.0788518637418747
31 168 0.06598396599292755
31 169 0.08010687679052353
31 170 0.053262364119291306
31 171 0.07889275252819061
31 173 0.0791807547211647
31 174 0.06626150012016296
31 175 0.06622661650180817
31 178 0.07930515706539154
31 181 0.05292561650276184
31 182 0.07947193831205368
31 185 0.053634531795978546
31 186 0.07913941890001297
31 187 0.0527871735394001
31 188 0.1466471254825592
31 189 0.07840625196695328
31 190 0.07905694842338562
31 192 0.08014974743127823
31 193 0.0761387050151825
31 195 0.07872957736253738
31 197 0.07980868965387344
31 198 0.07864838093519211
31 201 0.07897471636533737
31 202 0.08040843904018402
31 203 0.06661339849233627
31 204 0.0795137956738472
31 205 0.07943014800548553
31 207 0.07955572009086609
31 208 0.08512565493583679
31 209 0.07947193831205368
31 210 0.07877027988433838
31 213 0.07947193831205368
31 214 0.05383818969130516
31 215 0.07930515706539154
31 216 0.07852703332901001
31 217 0.07922215759754181
31 218 0.07930515706539154
31 219 0.07980868965387344
31 220 0.05300920084118843
31 221 0.06605302542448044
31 222 0.08111070841550827
31 223 0.07840625196695328
31 226 0.06550655514001846
31 227 0.07963977754116058
31 228 0.19245009124279022
31 230 0.06557412445545197
31 231 0.06577809154987335
31 232 0.07877027988433838
31 233 0.0665072426199913
31 235 0.07955572009086609
31 237 0.07926362752914429
31 239 0.07868894934654236
31 240 0.07968190312385559
31 241 0.06557412445545197
31 242 0.08014974743127823
31 244 0.07955572009086609
31 246 0.08559209853410721
31 247 0.0795137956738472
31 248 0.07872957736253738
31 249 0.07897471636533737
31 252 0.06581226736307144
31 253 0.0808892771601677
31 254 0.07889275252819061
31 255 0.0795137956738472
32 87 0.051639776676893234
32 90 0.12126781791448593
32 105 0.05000000447034836
32 156 0.14744195342063904
32 180 0.1226278692483902
32 193 0.06593804806470871
32 200 0.0833333283662796
32 246 0.07412493228912354
33 34 0.9464755654335022
33 35 0.9642890691757202
33 36 0.9663605690002441
33 37 0.9743068218231201
33 38 0.9631926417350769
33 39 0.9642305374145508
33 40 0.11564810574054718
33 41 0.9594801664352417
33 42 0.9701051115989685
33 43 0.9594499468803406
33 44 0.9610857963562012
33 45 0.9658867120742798
33 46 0.12028130143880844
33 47 0.9652417898178101
33 48 0.9399992227554321
33 49 0.954048216342926
33 50 0.07856741547584534
33 51 0.9647635221481323
33 52 0.9599564671516418
33 53 0.9507009387016296
33 54 0.19536174833774567
33 55 0.9658008813858032
33 56 0.9626299738883972
33 57 0.9567676782608032
33 58 0.19505196809768677
33 59 0.9647635221481323
33 60 0.9557231664657593
33 61 0.9690165519714355
33 62 0.9648219347000122
33 63 0.9700769186019897
33 64 0.974334716796875
33 65 0.12422599643468857
33 66 0.9647921919822693
33 67 0.9616204500198364
33 68 0.09072183817625046
33 69 0.9609717130661011
33 70 0.9589141011238098
33 71 0.9679549932479858
33 73 0.9658570885658264
33 74 0.9637559056282043
33 75 0.15044516324996948
33 76 0.9228957295417786
33 77 0.9631926417350769
33 78 0.16037507355213165
33 79 0.3672073483467102
33 80 0.9519514441490173
33 81 0.09622504562139511
33 82 0.09670981019735336
33 83 0.954558253288269
33 84 0.9382943511009216
33 85 0.9663064479827881
33 86 0.9685437083244324
33 87 0.8631846904754639
33 88 0.9594207406044006
33 89 0.9599854946136475
33 90 0.18702787160873413
33 91 0.12001371383666992
33 92 0.96946781873703
33 93 0.9711642265319824
33 94 0.12028130143880844
33 95 0.9529998302459717
33 96 0.9251203536987305
33 97 0.962154746055603
33 98 0.9642027616500854
33 99 0.9669209122657776
33 100 0.9668923020362854
33 101 0.9685437083244324
33 102 0.9690742492675781
33 103 0.9561724662780762
33 104 0.9680128693580627
33 105 0.4536091983318329
33 106 0.9578415155410767
33 107 0.9556347131729126
33 108 0.10638079792261124
33 109 0.9578121900558472
33 110 0.38187098503112793
33 111 0.9199206233024597
33 112 0.9711089134216309
33 113 0.38676339387893677
33 114 0.9541085362434387
33 116 0.9653544425964355
33 117 0.9524603486061096
33 118 0.9657486081123352
33 119 0.9599854946136475
33 120 0.9160898923873901
33 121 0.9626299738883972
33 122 0.08486250787973404
33 123 0.36434462666511536
33 124 0.07172191143035889
33 125 0.9748073220252991
33 126 0.9589443206787109
33 127 0.9680128693580627
33 128 0.9594207406044006
33 129 0.9631091356277466
33 130 0.9705793857574463
33 131 0.9567099213600159
33 132 0.9605507850646973
33 133 0.9573047161102295
33 134 0.9326851963996887
33 135 0.9518074989318848
33 136 0.9583486318588257
33 138 0.9502694606781006
33 139 0.9557231664657593
33 140 0.20054714381694794
33 141 0.09072183817625046
33 142 0.9514114260673523
33 143 0.9647921919822693
33 144 0.9626299738883972
33 145 0.0555555559694767
33 146 0.9680128693580627
33 147 0.14978189766407013
33 148 0.5378341674804688
33 149 0.9508400559425354
33 150 0.2588490843772888
33 151 0.9626588821411133
33 152 0.9443313479423523
33 153 0.9534264802932739
33 154 0.9632225036621094
33 155 0.9507535099983215
33 156 0.14713826775550842
33 157 0.9610857963562012
33 158 0.9674522876739502
33 159 0.9588848948478699
33 161 0.9685437083244324
33 162 0.17568209767341614
33 163 0.9632225036621094
33 164 0.0555555559694767
33 165 0.9599564671516418
33 166 0.9620958566665649
33 167 0.9685142636299133
33 168 0.9632225036621094
33 169 0.9608520865440369
33 170 0.9582932591438293
33 171 0.9679834842681885
33 173 0.96529620885849
33 174 0.9589443206787109
33 175 0.9594801664352417
33 176 0.1505875587463379
33 177 0.12909944355487823
33 178 0.31154006719589233
33 179 0.38264039158821106
33 180 0.36434462666511536
33 181 0.9626299738883972
33 182 0.9626021385192871
33 183 0.14890451729297638
33 184 0.2054385542869568
33 185 0.9491869211196899
33 186 0.9647921919822693
33 187 0.9642593860626221
33 188 0.17282527685165405
33 189 0.9763880968093872
33 190 0.9658570885658264
33 191 0.07856741547584534
33 192 0.9540196657180786
33 193 0.6744729280471802
33 194 0.10766252875328064
33 195 0.9711360335350037
33 196 0.16972501575946808
33 197 0.9551852345466614
33 198 0.9701343774795532
33 199 0.1166900098323822
33 200 0.2683854401111603
33 201 0.9689891338348389
33 202 0.9486754536628723
33 203 0.9546164870262146
33 204 0.9641503095626831
33 205 0.9600156545639038
33 206 0.09785609692335129
33 207 0.9594499468803406
33 208 0.43918541073799133
33 209 0.9594801664352417
33 210 0.9685437083244324
33 211 0.07273928821086884
33 212 0.3177708685398102
33 213 0.9594801664352417
33 214 0.9453888535499573
33 215 0.9626588821411133
33 216 0.971722424030304
33 217 0.9626887440681458
33 218 0.9636973142623901
33 219 0.9551852345466614
33 220 0.9589443206787109
33 221 0.9631926417350769
33 222 0.945277750492096
33 223 0.9763880968093872
33 224 0.13608276844024658
33 225 0.9583778977394104
33 226 0.9747813940048218
33 227 0.9573350548744202
33 228 0.13608276844024658
33 229 0.0555555559694767
33 230 0.9706348180770874
33 231 0.9664187431335449
33 232 0.9695751667022705
33 233 0.9562302827835083
33 234 0.15044516324996948
33 235 0.9594499468803406
33 236 0.16972501575946808
33 237 0.9642305374145508
33 238 0.9626887440681458
33 239 0.9706348180770874
33 240 0.9578415155410767
33 241 0.9696044325828552
33 242 0.9550691843032837
33 244 0.9594499468803406
33 245 0.07172191143035889
33 246 0.30597615242004395
33 247 0.9599854946136475
33 248 0.9701051115989685
33 249 0.9669209122657776
33 250 0.19035248458385468
33 251 0.11144130676984787
33 252 0.9658867120742798
33 253 0.9501116275787354
33 254 0.9669504165649414
33 255 0.961026668548584
34 35 0.9390439987182617
34 36 0.942234456539154
34 37 0.9486690759658813
34 38 0.9484683871269226
34 39 0.9378114938735962
34 40 0.11874250322580338
34 41 0.9360021352767944
34 42 0.949487566947937
34 43 0.9305711984634399
34 44 0.9345277547836304
34 45 0.9481967687606812
34 46 0.1152663603425026
34 47 0.9473295211791992
34 48 0.9270240068435669
34 49 0.9311351776123047
34 50 0.08066964894533157
34 51 0.9415814280509949
34 52 0.9406941533088684
34 53 0.924078106880188
34 54 0.18001580238342285
34 55 0.9426465630531311
34 56 0.932883620262146
34 57 0.9330350756645203
34 58 0.17698365449905396
34 59 0.93732088804245
34 60 0.9319626092910767
34 61 0.9408483505249023
34 62 0.9396176934242249
34 63 0.9451719522476196
34 64 0.9508591294288635
34 65 0.11054325103759766
34 66 0.9395339488983154
34 67 0.9393690824508667
34 68 0.09314928203821182
34 69 0.9374037981033325
34 70 0.9374836087226868
34 71 0.9460731148719788
34 72 0.06586649268865585
34 73 0.9406805634498596
34 74 0.9448541402816772
34 75 0.1404278427362442
34 76 0.8999330997467041
34 77 0.9452713131904602
34 78 0.15149293839931488
34 79 0.37140536308288574
34 80 0.9257528185844421
34 81 0.0768442377448082
34 82 0.0794379785656929
34 83 0.9305558800697327
34 84 0.9174720644950867
34 85 0.9452713131904602
34 86 0.9499784111976624
34 87 0.8321660757064819
34 88 0.9444034099578857
34 89 0.9364951848983765
34 90 0.17508815228939056
34 91 0.09681957960128784
34 92 0.9528691172599792
34 93 0.9453359842300415
34 94 0.09879973530769348
34 95 0.9300586581230164
34 96 0.9023247957229614
34 97 0.9410085082054138
34 98 0.9366613030433655
34 99 0.9439495205879211
34 100 0.9417434930801392
34 101 0.9468013048171997
34 102 0.9452535510063171
34 103 0.9376690983772278
34 104 0.9462316036224365
34 105 0.4238292872905731
34 106 0.9320471882820129
34 107 0.9306381940841675
34 108 0.10922722518444061
34 109 0.9341075420379639
34 110 0.37661153078079224
34 111 0.8952937722206116
34 112 0.9409335851669312
34 113 0.38672998547554016
34 114 0.9313002228736877
34 116 0.943378210067749
34 117 0.9327099919319153
34 118 0.9392879009246826
34 119 0.9343569874763489
34 120 0.8969309329986572
34 121 0.9360857605934143
34 122 0.06223798543214798
34 123 0.35124796628952026
34 124 0.05891278013586998
34 125 0.952323853969574
34 126 0.9386332631111145
34 127 0.9419931769371033
34 128 0.9369081854820251
34 129 0.9364951848983765
34 130 0.9446013569831848
34 131 0.9264222979545593
34 132 0.9350184202194214
34 133 0.933612585067749
34 134 0.9024137258529663
34 135 0.9285736083984375
34 136 0.933612585067749
34 138 0.9292340874671936
34 139 0.9341075420379639
34 140 0.21093547344207764
34 141 0.09314928203821182
34 142 0.9327099919319153
34 143 0.9405980110168457
34 144 0.9382205605506897
34 146 0.9441123604774475
34 147 0.1656195968389511
34 148 0.5157934427261353
34 149 0.9331311583518982
34 150 0.25795817375183105
34 151 0.9372366070747375
34 152 0.9229103922843933
34 153 0.9259926080703735
34 154 0.9357664585113525
34 155 0.9274913668632507
34 156 0.11673996597528458
34 157 0.9366613030433655
34 158 0.9423980712890625
34 159 0.9395464062690735
34 161 0.9436240792274475
34 162 0.13829350471496582
34 163 0.9410893321037292
34 165 0.9374836087226868
34 166 0.9365778565406799
34 167 0.9403607249259949
34 168 0.940024733543396
34 169 0.9316329956054688
34 170 0.9323743581771851
34 171 0.9472126364707947
34 173 0.936830997467041
34 174 0.9332879781723022
34 175 0.9434816241264343
34 176 0.1411718875169754
34 177 0.1251896619796753
34 178 0.33586978912353516
34 179 0.3665110170841217
34 180 0.35981500148773193
34 181 0.9435574412345886
34 182 0.9381391406059265
34 183 0.1590043008327484
34 184 0.21093547344207764
34 185 0.9280726313591003
34 186 0.9384699463844299
34 187 0.943218469619751
34 188 0.14195965230464935
34 189 0.9476965665817261
34 190 0.9385547041893005
34 191 0.05377976596355438
34 192 0.9299763441085815
34 193 0.6833066344261169
34 194 0.09353660047054291
34 195 0.9505460858345032
34 196 0.15559495985507965
34 197 0.9324570894241333
34 198 0.9453359842300415
34 199 0.11981227248907089
34 200 0.26780420541763306
34 201 0.94925856590271
34 202 0.9189237356185913
34 203 0.9285717606544495
34 204 0.9332879781723022
34 205 0.9387137293815613
34 206 0.11874250322580338
34 207 0.9348496794700623
34 208 0.4349135756492615
34 209 0.9392076730728149
34 210 0.9468013048171997
34 211 0.08713317662477493
34 212 0.29108715057373047
34 213 0.9338651299476624
34 214 0.9239961504936218
34 215 0.9351040720939636
34 216 0.9459890723228455
34 217 0.9362557530403137
34 218 0.9383028149604797
34 219 0.9356761574745178
34 220 0.9354261159896851
34 221 0.9378114938735962
34 222 0.9160441756248474
34 223 0.9487507343292236
34 224 0.1241990476846695
34 225 0.9347666501998901
34 226 0.9501334428787231
34 227 0.9390496611595154
34 228 0.1241990476846695
34 230 0.9479395747184753
34 231 0.9413367509841919
34 232 0.9468013048171997
34 233 0.9303110837936401
34 234 0.15447062253952026
34 235 0.9327104687690735
34 236 0.17426635324954987
34 237 0.9420742392539978
34 238 0.9426465630531311
34 239 0.9437077045440674
34 240 0.9331185221672058
34 241 0.9447656869888306
34 242 0.9288986921310425
34 244 0.9391281604766846
34 245 0.07364097982645035
34 246 0.2589256763458252
34 247 0.9311498999595642
34 248 0.9452535510063171
34 249 0.9397022724151611
34 250 0.1851591318845749
34 251 0.1056213527917862
34 252 0.94925856590271
34 253 0.9309442043304443
34 254 0.9408483505249023
34 255 0.947185754776001
35 36 0.9582898616790771
35 37 0.9664025902748108
35 38 0.9561149477958679
35 39 0.9582048654556274
35 40 0.11642932146787643
35 41 0.9523416757583618
35 42 0.9631656408309937
35 43 0.9575408697128296
35 44 0.9560716152191162
35 45 0.9640824198722839
35 46 0.12916673719882965
35 47 0.9550256133079529
35 48 0.9463489651679993
35 49 0.9457160830497742
35 50 0.07909814268350601
35 51 0.9577035307884216
35 52 0.9517502188682556
35 53 0.9379805326461792
35 54 0.18659520149230957
35 55 0.9597923159599304
35 56 0.9544805288314819
35 57 0.960076093673706
35 58 0.22376996278762817
35 59 0.956659197807312
35 60 0.9537667036056519
35 61 0.9620417952537537
35 62 0.9619594216346741
35 63 0.9620842933654785
35 64 0.9674791693687439
35 65 0.09171444922685623
35 66 0.9598332047462463
35 67 0.9566159248352051
35 68 0.07991784065961838
35 69 0.9517063498497009
35 70 0.9517502188682556
35 71 0.9609590172767639
35 72 0.06458336859941483
35 73 0.9588328003883362
35 74 0.9567033052444458
35 75 0.13080759346485138
35 76 0.9269565343856812
35 77 0.9571599364280701
35 78 0.14854174852371216
35 79 0.35037583112716675
35 80 0.9467715620994568
35 81 0.0861111581325531
35 82 0.09736309200525284
35 83 0.9472777247428894
35 84 0.9403437376022339
35 85 0.9561149477958679
35 86 0.9626251459121704
35 87 0.847791314125061
35 88 0.9533030390739441
35 89 0.9517950415611267
35 90 0.1772153079509735
35 91 0.11219409853219986
35 92 0.9572471380233765
35 93 0.9652827382087708
35 94 0.1130208894610405
35 95 0.9488825798034668
35 96 0.9324538111686707
35 97 0.9561149477958679
35 98 0.9581636786460876
35 99 0.9588767886161804
35 100 0.9619594216346741
35 101 0.9626251459121704
35 102 0.9673172235488892
35 103 0.9478704333305359
35 104 0.9620842933654785
35 105 0.42927297949790955
35 106 0.9517063498497009
35 107 0.9462661743164062
35 108 0.09736309200525284
35 109 0.9485089182853699
35 110 0.3970969319343567
35 111 0.9151616096496582
35 112 0.9610453844070435
35 113 0.3893760144710541
35 114 0.9552874565124512
35 116 0.9614588618278503
35 117 0.9483337998390198
35 118 0.9534339308738708
35 119 0.9528432488441467
35 120 0.9123966097831726
35 121 0.9555270671844482
35 122 0.08543576300144196
35 123 0.36120569705963135
35 124 0.07220640033483505
35 125 0.964828610420227
35 126 0.9559879899024963
35 127 0.9631232619285583
35 128 0.9533030390739441
35 129 0.9570361971855164
35 130 0.9605036377906799
35 131 0.9484193325042725
35 132 0.9565736651420593
35 133 0.9522103071212769
35 134 0.9194910526275635
35 135 0.9433806538581848
35 136 0.9501083493232727
35 138 0.9418562054634094
35 139 0.9516635537147522
35 140 0.206826314330101
35 141 0.07991784065961838
35 142 0.9483337998390198
35 143 0.9640063643455505
35 144 0.9534339308738708
35 145 0.055930834263563156
35 146 0.965201199054718
35 147 0.17979247868061066
35 148 0.5339468121528625
35 149 0.9488010406494141
35 150 0.2720945477485657
35 151 0.9545249342918396
35 152 0.9421934485435486
35 153 0.9407967925071716
35 154 0.9592906832695007
35 155 0.9423194527626038
35 156 0.15486548840999603
35 157 0.9571176171302795
35 158 0.959419310092926
35 159 0.9506559371948242
35 161 0.9678173065185547
35 162 0.17097321152687073
35 163 0.956159234046936
35 164 0.055930834263563156
35 165 0.9538488984107971
35 166 0.9528879523277283
35 167 0.9605036377906799
35 168 0.9582468867301941
35 169 0.9441095590591431
35 170 0.947914719581604
35 171 0.9620417952537537
35 173 0.9582468867301941
35 174 0.9549397826194763
35 175 0.9544370770454407
35 176 0.1516047865152359
35 177 0.13719215989112854
35 178 0.31678101420402527
35 179 0.4033230245113373
35 180 0.33040523529052734
35 181 0.9534339308738708
35 182 0.9575800895690918
35 183 0.17389602959156036
35 184 0.19205299019813538
35 185 0.9396898746490479
35 186 0.9567033052444458
35 187 0.9572030305862427
35 188 0.156593456864357
35 189 0.9664455652236938
35 190 0.9619594216346741
35 191 0.06591512262821198
35 192 0.9509545564651489
35 193 0.642894446849823
35 194 0.1250651478767395
35 195 0.9621278047561646
35 196 0.1647689789533615
35 197 0.9479600191116333
35 198 0.9652827382087708
35 199 0.12531013786792755
35 200 0.2511703372001648
35 201 0.9599179029464722
35 202 0.941303551197052
35 203 0.9484193325042725
35 204 0.9538915157318115
35 205 0.9560293555259705
35 206 0.11642932146787643
35 207 0.9543944597244263
35 208 0.4331744313240051
35 209 0.9544370770454407
35 210 0.9636635780334473
35 211 0.07323065400123596
35 212 0.30423521995544434
35 213 0.9586277604103088
35 214 0.9368703365325928
35 215 0.9566159248352051
35 216 0.9679343104362488
35 217 0.9608367085456848
35 218 0.9555704593658447
35 219 0.9511163830757141
35 220 0.9580844044685364
35 221 0.9550700187683105
35 222 0.9313467741012573
35 223 0.9695464372634888
35 224 0.12939079105854034
35 225 0.9564527273178101
35 226 0.9637491703033447
35 227 0.9522531628608704
35 228 0.13700200617313385
35 229 0.055930834263563156
35 230 0.9657806158065796
35 231 0.9615004658699036
35 232 0.9626251459121704
35 233 0.9563770294189453
35 234 0.13769221305847168
35 235 0.9543944597244263
35 236 0.14646130800247192
35 237 0.9571599364280701
35 238 0.956659197807312
35 239 0.963705837726593
35 240 0.9496054649353027
35 241 0.9626684784889221
35 242 0.9498979449272156
35 244 0.9564920663833618
35 245 0.07220640033483505
35 246 0.2911175787448883
35 247 0.9559879899024963
35 248 0.9642035365104675
35 249 0.9599179029464722
35 250 0.20676766335964203
35 251 0.10356377810239792
35 252 0.9630413055419922
35 253 0.937335193157196
35 254 0.9610016942024231
35 255 0.9517950415611267
36 37 0.9664025902748108
36 38 0.9561149477958679
36 39 0.9561149477958679
36 40 0.11642932146787643
36 41 0.9565324187278748
36 42 0.9621278047561646
36 43 0.9512481689453125
36 44 0.9560716152191162
36 45 0.9599179029464722
36 46 0.12109380960464478
36 47 0.9571176171302795
36 48 0.932463526725769
36 49 0.9541599750518799
36 50 0.07909814268350601
36 51 0.9618811011314392
36 52 0.9527995586395264
36 53 0.9390439987182617
36 54 0.2017245590686798
36 55 0.9597923159599304
36 56 0.9555270671844482
36 57 0.9495604634284973
36 58 0.21463648974895477
36 59 0.958747923374176
36 60 0.9495604634284973
36 61 0.9620417952537537
36 62 0.9619594216346741
36 63 0.9610453844070435
36 64 0.9685128331184387
36 65 0.11672747135162354
36 66 0.9577466249465942
36 67 0.9576614499092102
36 68 0.09133467823266983
36 69 0.9517063498497009
36 70 0.9548982381820679
36 71 0.9588767886161804
36 73 0.9598750472068787
36 74 0.9598332047462463
36 75 0.1514614224433899
36 76 0.9171762466430664
36 77 0.9613395929336548
36 78 0.16145841777324677
36 79 0.3752056062221527
36 80 0.9457160830497742
36 81 0.07534725964069366
36 82 0.09736309200525284
36 83 0.9441095590591431
36 84 0.9328382015228271
36 85 0.9592497944831848
36 86 0.9636635780334473
36 87 0.8407166004180908
36 88 0.9501533508300781
36 89 0.9580844044685364
36 90 0.17167732119560242
36 91 0.11219409853219986
36 92 0.9603754281997681
36 93 0.9632090330123901
36 94 0.12109380960464478
36 95 0.9478271007537842
36 96 0.9183586239814758
36 97 0.9561149477958679
36 98 0.9539795517921448
36 99 0.9620001316070557
36 100 0.9577906131744385
36 101 0.9678173065185547
36 102 0.9621278047561646
36 103 0.9499791264533997
36 104 0.9641622304916382
36 105 0.4452565610408783
36 106 0.9506559371948242
36 107 0.9452112913131714
36 108 0.09736309200525284
36 109 0.9506120085716248
36 110 0.3945676386356354
36 111 0.9129669666290283
36 112 0.9662402272224426
36 113 0.3944658637046814
36 114 0.9468615055084229
36 116 0.9583338499069214
36 117 0.946221649646759
36 118 0.9565736651420593
36 119 0.9559879899024963
36 120 0.9112986326217651
36 121 0.9565736651420593
36 122 0.08543576300144196
36 123 0.3444054424762726
36 124 0.07220640033483505
36 125 0.965863823890686
36 126 0.9528432488441467
36 127 0.9620842933654785
36 128 0.960652232170105
36 129 0.9517950415611267
36 130 0.9615431427955627
36 131 0.9463117718696594
36 132 0.9544805288314819
36 133 0.9490573406219482
36 134 0.9216570854187012
36 135 0.9455029368400574
36 136 0.9501083493232727
36 138 0.9439750909805298
36 139 0.9527150988578796
36 140 0.18220411241054535
36 141 0.09133467823266983
36 142 0.946221649646759
36 143 0.9567033052444458
36 144 0.9576202034950256
36 145 0.055930834263563156
36 146 0.9610453844070435
36 147 0.156593456864357
36 148 0.5395870804786682
36 149 0.9456278681755066
36 150 0.25293296575546265
36 151 0.9545249342918396
36 152 0.9400641322135925
36 153 0.942915678024292
36 154 0.9572030305862427
36 155 0.9423194527626038
36 156 0.15486548840999603
36 157 0.9550256133079529
36 158 0.959419310092926
36 159 0.9517063498497009
36 161 0.9667788743972778
36 162 0.17097321152687073
36 163 0.9592906832695007
36 164 0.055930834263563156
36 165 0.9548982381820679
36 166 0.9528879523277283
36 167 0.9636221528053284
36 168 0.9582468867301941
36 169 0.946221649646759
36 170 0.947914719581604
36 171 0.9610016942024231
36 173 0.9634660482406616
36 174 0.9528432488441467
36 175 0.9523416757583618
36 176 0.13183024525642395
36 177 0.13719215989112854
36 178 0.32619035243988037
36 179 0.377469003200531
36 180 0.37240585684776306
36 181 0.9586668610572815
36 182 0.9523416757583618
36 183 0.16789962351322174
36 184 0.206826314330101
36 185 0.9428716897964478
36 186 0.9598332047462463
36 187 0.956159234046936
36 188 0.16819296777248383
36 189 0.9664455652236938
36 190 0.9577906131744385
36 191 0.07909814268350601
36 192 0.9456714987754822
36 193 0.6790290474891663
36 194 0.10838979482650757
36 195 0.9631656408309937
36 196 0.1708715260028839
36 197 0.9490122199058533
36 198 0.9632090330123901
36 199 0.13314202427864075
36 200 0.2663927972316742
36 201 0.9609590172767639
36 202 0.9529637694358826
36 203 0.9463117718696594
36 204 0.9580844044685364
36 205 0.9528879523277283
36 206 0.11642932146787643
36 207 0.9522969126701355
36 208 0.46010759472846985
36 209 0.9533893465995789
36 210 0.9667788743972778
36 211 0.07323065400123596
36 212 0.31678101420402527
36 213 0.9533893465995789
36 214 0.9411288499832153
36 215 0.9566159248352051
36 216 0.964828610420227
36 217 0.9556147456169128
36 218 0.9555704593658447
36 219 0.9490122199058533
36 220 0.9528432488441467
36 221 0.9582048654556274
36 222 0.9345545768737793
36 223 0.9664455652236938
36 224 0.13700200617313385
36 225 0.9543529152870178
36 226 0.9647854566574097
36 227 0.9554027915000916
36 228 0.13700200617313385
36 229 0.055930834263563156
36 230 0.963705837726593
36 231 0.9625411033630371
36 232 0.9647020101547241
36 233 0.9479600191116333
36 234 0.1445768177509308
36 235 0.9512481689453125
36 236 0.1647689789533615
36 237 0.9582048654556274
36 238 0.9608367085456848
36 239 0.963705837726593
36 240 0.9517063498497009
36 241 0.9668179750442505
36 242 0.9467280507087708
36 244 0.9543944597244263
36 245 0.07220640033483505
36 246 0.2809623181819916
36 247 0.9559879899024963
36 248 0.9631656408309937
36 249 0.9620001316070557
36 250 0.2017245590686798
36 251 0.1208244115114212
36 252 0.9630413055419922
36 253 0.937335193157196
36 254 0.9641218781471252
36 255 0.9538915157318115
37 38 0.9642770290374756
37 39 0.9632400870323181
37 40 0.11552930623292923
37 41 0.9647319912910461
37 42 0.9763177633285522
37 43 0.9615864157676697
37 44 0.9632123112678528
37 45 0.9669607281684875
37 46 0.11214722692966461
37 47 0.9632123112678528
37 48 0.9443328976631165
37 49 0.9572575092315674
37 50 0.06540559232234955
37 51 0.9658451080322266
37 52 0.9631352424621582
37 53 0.9476138353347778
37 54 0.20016521215438843
37 55 0.9648088216781616
37 56 0.9647566080093384
37 57 0.9599586129188538
37 58 0.22657161951065063
37 59 0.9658451080322266
37 60 0.9599586129188538
37 61 0.9690532088279724
37 62 0.9700357913970947
37 63 0.9721731543540955
37 64 0.9743594527244568
37 65 0.12409839779138565
37 66 0.9669067859649658
37 67 0.9637447595596313
37 68 0.09062865376472473
37 69 0.9620692133903503
37 70 0.9600115418434143
37 71 0.9700599908828735
37 72 0.06408413499593735
37 73 0.9669333696365356
37 74 0.9648363590240479
37 75 0.12979644536972046
37 76 0.9294958710670471
37 77 0.9663506746292114
37 78 0.16021032631397247
37 79 0.34492984414100647
37 80 0.9572575092315674
37 81 0.08544550836086273
37 82 0.10627152025699615
37 83 0.9556735754013062
37 84 0.9426502585411072
37 85 0.9673875570297241
37 86 0.9737312197685242
37 87 0.8634679913520813
37 88 0.9584352374076843
37 89 0.9610795974731445
37 90 0.18134057521820068
37 91 0.11132682859897614
37 92 0.9664025902748108
37 93 0.974281907081604
37 94 0.09612619131803513
37 95 0.9541155695915222
37 96 0.9360045790672302
37 97 0.9642770290374756
37 98 0.9632123112678528
37 99 0.9669607281684875
37 100 0.9658991694450378
37 101 0.9706400036811829
37 102 0.9763177633285522
37 103 0.9541440606117249
37 104 0.9701113104820251
37 105 0.4508775472640991
37 106 0.9578999280929565
37 107 0.9598869681358337
37 108 0.09661047160625458
37 109 0.9610021114349365
37 110 0.39904680848121643
37 111 0.9146203398704529
37 112 0.9711422324180603
37 113 0.3964671790599823
37 114 0.9593990445137024
37 116 0.9684972763061523
37 117 0.9535777568817139
37 118 0.9616411924362183
37 119 0.9610795974731445
37 120 0.9184172749519348
37 121 0.9626796841621399
37 122 0.08477533608675003
37 123 0.341743141412735
37 124 0.057318586856126785
37 125 0.9738059639930725
37 126 0.960039496421814
37 127 0.96908038854599
37 128 0.9615606069564819
37 129 0.9631599187850952
37 130 0.9706138968467712
37 131 0.9609553813934326
37 132 0.9626796841621399
37 133 0.9573642015457153
37 134 0.9317271113395691
37 135 0.9539886713027954
37 136 0.9594499468803406
37 138 0.9524470567703247
37 139 0.9578717350959778
37 140 0.20522750914096832
37 141 0.07930006831884384
37 142 0.9556735754013062
37 143 0.9710477590560913
37 144 0.9616411924362183
37 145 0.05549848824739456
37 146 0.9711422324180603
37 147 0.14962804317474365
37 148 0.5354160666465759
37 149 0.9540616869926453
37 150 0.2585831880569458
37 151 0.9627074003219604
37 152 0.9528689384460449
37 153 0.9513958096504211
37 154 0.9694834351539612
37 155 0.9550417065620422
37 156 0.14030589163303375
37 157 0.9694399833679199
37 158 0.9705886840820312
37 159 0.9589422345161438
37 161 0.972700834274292
37 162 0.1696515679359436
37 163 0.9643046259880066
37 164 0.05549848824739456
37 165 0.9620939493179321
37 166 0.961107611656189
37 167 0.9706138968467712
37 168 0.9653403759002686
37 169 0.9598650932312012
37 170 0.961489200592041
37 171 0.9680211544036865
37 173 0.9663761258125305
37 174 0.960039496421814
37 175 0.962652862071991
37 176 0.15697342157363892
37 177 0.1361316442489624
37 178 0.308107852935791
37 179 0.3950744867324829
37 180 0.3611919581890106
37 181 0.9626796841621399
37 182 0.962652862071991
37 183 0.17255181074142456
37 184 0.19545477628707886
37 185 0.9524216055870056
37 186 0.9679421186447144
37 187 0.9684476852416992
37 188 0.17264775931835175
37 189 0.9743594527244568
37 190 0.9669333696365356
37 191 0.07848671078681946
37 192 0.9530396461486816
37 193 0.6692981123924255
37 194 0.1075519397854805
37 195 0.9711683392524719
37 196 0.15138453245162964
37 197 0.9573360681533813
37 198 0.9722242951393127
37 199 0.1010274589061737
37 200 0.2567811608314514
37 201 0.9690268635749817
37 202 0.9519082903862
37 203 0.9609553813934326
37 204 0.9621198177337646
37 205 0.9621466398239136
37 206 0.10664243996143341
37 207 0.962627112865448
37 208 0.4365071952342987
37 209 0.9647319912910461
37 210 0.9696096181869507
37 211 0.08477533608675003
37 212 0.3267810642719269
37 213 0.9636924266815186
37 214 0.9475868940353394
37 215 0.9668569564819336
37 216 0.9758604168891907
37 217 0.9668813943862915
37 218 0.9637447595596313
37 219 0.9635999202728271
37 220 0.9610795974731445
37 221 0.9632400870323181
37 222 0.9421848058700562
37 223 0.9784620404243469
37 224 0.1283905804157257
37 225 0.9594770669937134
37 226 0.9737800359725952
37 227 0.9584352374076843
37 228 0.1283905804157257
37 229 0.05549848824739456
37 230 0.9706671237945557
37 231 0.9685235619544983
37 232 0.9706400036811829
37 233 0.9615119695663452
37 234 0.1161336600780487
37 235 0.9636678099632263
37 236 0.15138453245162964
37 237 0.9642770290374756
37 238 0.9658451080322266
37 239 0.9727258086204529
37 240 0.9589422345161438
37 241 0.9758138656616211
37 242 0.9561850428581238
37 244 0.9595050811767578
37 245 0.07164823263883591
37 246 0.2922261357307434
37 247 0.9621198177337646
37 248 0.9711683392524719
37 249 0.9690268635749817
37 250 0.19516107439994812
37 251 0.10276322811841965
37 252 0.9690268635749817
37 253 0.9438450932502747
37 254 0.9680211544036865
37 255 0.9610795974731445
38 39 0.9539267420768738
38 40 0.11667290329933167
38 41 0.9522342681884766
38 42 0.9631005525588989
38 43 0.9500852227210999
38 44 0.9528307318687439
38 45 0.9608827829360962
38 46 0.12134714424610138
38 47 0.959119975566864
38 48 0.9376253485679626
38 49 0.9466368556022644
38 50 0.07926362752914429
38 51 0.9607536792755127
38 52 0.9547929167747498
38 53 0.9399428367614746
38 54 0.20720022916793823
38 55 0.9565674066543579
38 56 0.9522823095321655
38 57 0.9483855962753296
38 58 0.20593294501304626
38 59 0.9544742703437805
38 60 0.9473318457603455
38 61 0.9598855376243591
38 62 0.9566612839698792
38 63 0.9640970826148987
38 64 0.9653600454330444
38 65 0.11697167903184891
38 66 0.9555683732032776
38 67 0.9596649408340454
38 68 0.08008503168821335
38 69 0.9505395293235779
38 70 0.95058673620224
38 71 0.9577528834342957
38 72 0.06471847742795944
38 73 0.9587500095367432
38 74 0.9618412256240845
38 75 0.15177829563617706
38 76 0.916917085647583
38 77 0.9612565636634827
38 78 0.14238066971302032
38 79 0.3787551820278168
38 80 0.9445214867591858
38 81 0.09707771986722946
38 82 0.09756678342819214
38 83 0.9439681768417358
38 84 0.9304918646812439
38 85 0.9560209512710571
38 86 0.9604765772819519
38 87 0.8531097769737244
38 88 0.9552974104881287
38 89 0.9558870792388916
38 90 0.18313559889793396
38 91 0.12107718735933304
38 92 0.965519368648529
38 93 0.9621071219444275
38 94 0.12134714424610138
38 95 0.9445214867591858
38 96 0.917020320892334
38 97 0.9539267420768738
38 98 0.9538789391517639
38 99 0.9608827829360962
38 100 0.9577056169509888
38 101 0.9604765772819519
38 102 0.9620605111122131
38 103 0.9477402567863464
38 104 0.9609736204147339
38 105 0.4393236041069031
38 106 0.9484341740608215
38 107 0.9450744986534119
38 108 0.10732346028089523
38 109 0.9483855962753296
38 110 0.3827202618122101
38 111 0.9071797132492065
38 112 0.9599325060844421
38 113 0.3927408456802368
38 114 0.9456760287284851
38 116 0.9561633467674255
38 117 0.9439681768417358
38 118 0.9512335062026978
38 119 0.95168536901474
38 120 0.9066036939620972
38 121 0.9554286003112793
38 122 0.0733838602900505
38 123 0.35634955763816833
38 124 0.07235746085643768
38 125 0.9658097624778748
38 126 0.9569375514984131
38 127 0.9588913321495056
38 128 0.9510890245437622
38 129 0.9590383768081665
38 130 0.9614713191986084
38 131 0.9461795091629028
38 132 0.9543797969818115
38 133 0.9468300342559814
38 134 0.92249995470047
38 135 0.9453542828559875
38 136 0.9468300342559814
38 138 0.9417032599449158
38 139 0.9515469074249268
38 140 0.20232424139976501
38 141 0.09152575582265854
38 142 0.9450265169143677
38 143 0.9555683732032776
38 144 0.9564773440361023
38 146 0.9609736204147339
38 147 0.17435672879219055
38 148 0.5312958359718323
38 149 0.9465462565422058
38 150 0.24194110929965973
38 151 0.9533788561820984
38 152 0.9409639239311218
38 153 0.9406415820121765
38 154 0.9539754390716553
38 155 0.9379104971885681
38 156 0.1281999945640564
38 157 0.9528307318687439
38 158 0.9593409299850464
38 159 0.954750120639801
38 161 0.9604765772819519
38 162 0.15360701084136963
38 163 0.9539754390716553
38 164 0.056047845631837845
38 165 0.9568959474563599
38 166 0.9548814296722412
38 167 0.959388017654419
38 168 0.9612976312637329
38 169 0.9492594599723816
38 170 0.9488424062728882
38 171 0.9640544056892395
38 173 0.9550215005874634
38 174 0.9506349563598633
38 175 0.9564337730407715
38 176 0.14531666040420532
38 177 0.1302434355020523
38 178 0.3237297534942627
38 179 0.3989851772785187
38 180 0.3395141661167145
38 181 0.9585748910903931
38 182 0.9543339610099792
38 183 0.1502240002155304
38 184 0.21219372749328613
38 185 0.9480326175689697
38 186 0.9587048292160034
38 187 0.9623436331748962
38 188 0.16854484379291534
38 189 0.9663957953453064
38 190 0.9566612839698792
38 191 0.07926362752914429
38 192 0.944473385810852
38 193 0.6563094258308411
38 194 0.10026143491268158
38 195 0.9620605111122131
38 196 0.146767720580101
38 197 0.9457259774208069
38 198 0.9621071219444275
38 199 0.11772403120994568
38 200 0.2593229413032532
38 201 0.9629693627357483
38 202 0.9390237927436829
38 203 0.9440675377845764
38 204 0.95168536901474
38 205 0.9559308290481567
38 206 0.08974839001893997
38 207 0.9500852227210999
38 208 0.43408066034317017
38 209 0.9616831541061401
38 210 0.9615171551704407
38 211 0.0733838602900505
38 212 0.33001574873924255
38 213 0.9511843323707581
38 214 0.9388302564620972
38 215 0.9523311853408813
38 216 0.9647723436355591
38 217 0.9534277319908142
38 218 0.9565218687057495
38 219 0.9488889575004578
38 220 0.9527358412742615
38 221 0.9539267420768738
38 222 0.9375813007354736
38 223 0.9674316048622131
38 224 0.1372886300086975
38 225 0.9479327201843262
38 226 0.9657654762268066
38 227 0.9521411061286926
38 228 0.1372886300086975
38 230 0.9615639448165894
38 231 0.957255482673645
38 232 0.9625577926635742
38 233 0.9509975910186768
38 234 0.15177829563617706
38 235 0.9511362314224243
38 236 0.17122900485992432
38 237 0.9549738168716431
38 238 0.9586605429649353
38 239 0.9646825194358826
38 240 0.9473815560340881
38 241 0.9615639448165894
38 242 0.944473385810852
38 244 0.9542891383171082
38 245 0.07235746085643768
38 246 0.29172661900520325
38 247 0.9495845437049866
38 248 0.9610204100608826
38 249 0.9577528834342957
38 250 0.1869855672121048
38 251 0.11242882162332535
38 252 0.9577528834342957
38 253 0.9435704946517944
38 254 0.9578010439872742
38 255 0.9548366665840149
39 40 0.10769806057214737
39 41 0.9522342681884766
39 42 0.9620605111122131
39 43 0.9511362314224243
39 44 0.9528307318687439
39 45 0.9587961435317993
39 46 0.12943695485591888
39 47 0.9538789391517639
39 48 0.9322735667228699
39 49 0.9466368556022644
39 50 0.05284241959452629
39 51 0.9555208086967468
39 52 0.9547929167747498
39 53 0.9356800317764282
39 54 0.1970929056406021
39 55 0.9607536792755127
39 56 0.9554286003112793
39 57 0.9483855962753296
39 58 0.21508552134037018
39 59 0.9555208086967468
39 60 0.9494393467903137
39 61 0.963012158870697
39 62 0.9566612839698792
39 63 0.9630559086799622
39 64 0.9643242359161377
39 65 0.12532679736614227
39 66 0.96393221616745
39 67 0.9533788561820984
39 68 0.09152575582265854
39 69 0.9484341740608215
39 70 0.9495352506637573
39 71 0.9577528834342957
39 72 0.06471847742795944
39 73 0.95561683177948
39 74 0.9587048292160034
39 75 0.15177829563617706
39 76 0.9212729334831238
39 77 0.9570680260658264
39 78 0.09060587733983994
39 79 0.34834417700767517
39 80 0.9445214867591858
39 81 0.09707771986722946
39 82 0.10732346028089523
39 83 0.9482012391090393
39 84 0.9315662980079651
39 85 0.9539267420768738
39 86 0.9604765772819519
39 87 0.8684703707695007
39 88 0.9489848613739014
39 89 0.9537862539291382
39 90 0.18868517875671387
39 91 0.11242882162332535
39 92 0.9571599364280701
39 93 0.9641851186752319
39 94 0.12134714424610138
39 95 0.9508676528930664
39 96 0.9224528670310974
39 97 0.9549738168716431
39 98 0.9538789391517639
39 99 0.9598394632339478
39 100 0.9587500095367432
39 101 0.9625577926635742
39 102 0.9620605111122131
39 103 0.9456271529197693
39 104 0.9599325060844421
39 105 0.43017104268074036
39 106 0.9494868516921997
39 107 0.9493030309677124
39 108 0.10732346028089523
39 109 0.9504931569099426
39 110 0.4055314064025879
39 111 0.9126777648925781
39 112 0.9599325060844421
39 113 0.37998950481414795
39 114 0.9488424062728882
39 116 0.959294855594635
39 117 0.94608473777771
39 118 0.9533310532569885
39 119 0.9579879641532898
39 120 0.9132051467895508
39 121 0.9564773440361023
39 123 0.3395141661167145
39 124 0.07235746085643768
39 125 0.9637349247932434
39 126 0.9537862539291382
39 127 0.9620147347450256
39 128 0.9489848613739014
39 129 0.9527358412742615
39 130 0.959388017654419
39 131 0.9472354650497437
39 132 0.9522823095321655
39 133 0.9499896168708801
39 134 0.919244110584259
39 135 0.9400373101234436
39 136 0.9468300342559814
39 138 0.9406415820121765
39 139 0.9494393467903137
39 140 0.20232424139976501
39 141 0.09152575582265854
39 142 0.9482012391090393
39 143 0.9566138386726379
39 144 0.9512335062026978
39 146 0.9609736204147339
39 147 0.15692105889320374
39 148 0.5312958359718323
39 149 0.9444262981414795
39 150 0.26882344484329224
39 151 0.9533788561820984
39 152 0.944164514541626
39 153 0.9438266158103943
39 154 0.95711350440979
39 155 0.9411007165908813
39 156 0.1484420895576477
39 157 0.9549272060394287
39 158 0.957255482673645
39 159 0.9515921473503113
39 161 0.9635984301567078
39 162 0.17133089900016785
39 163 0.9539754390716553
39 164 0.056047845631837845
39 165 0.9484837055206299
39 166 0.9538321495056152
39 167 0.959388017654419
39 168 0.9592055678367615
39 169 0.9439681768417358
39 170 0.9456760287284851
39 171 0.9588432908058167
39 173 0.9539754390716553
39 174 0.95168536901474
39 175 0.9564337730407715
39 176 0.14531666040420532
39 177 0.13747917115688324
39 178 0.30172866582870483
39 179 0.39121270179748535
39 180 0.35915547609329224
39 181 0.9533310532569885
39 182 0.9511843323707581
39 183 0.17425984144210815
39 184 0.19738951325416565
39 185 0.938467264175415
39 186 0.9545229077339172
39 187 0.9602515697479248
39 188 0.18016862869262695
39 189 0.9684674143791199
39 190 0.9587500095367432
39 191 0.06605302542448044
39 192 0.944473385810852
39 193 0.6578181982040405
39 194 0.12532679736614227
39 195 0.9631005525588989
39 196 0.1651136875152588
39 197 0.9478346109390259
39 198 0.9673020839691162
39 199 0.13342057168483734
39 200 0.2593229413032532
39 201 0.9567095637321472
39 202 0.9400860071182251
39 203 0.9472354650497437
39 204 0.9527358412742615
39 205 0.9527828097343445
39 206 0.11667290329933167
39 207 0.9532381892204285
39 208 0.4453262984752655
39 209 0.9522342681884766
39 210 0.9635984301567078
39 211 0.08561450242996216
39 212 0.3205867409706116
39 213 0.9564337730407715
39 214 0.9388302564620972
39 215 0.9554742574691772
39 216 0.9647723436355591
39 217 0.9555208086967468
39 218 0.9533788561820984
39 219 0.9478346109390259
39 220 0.9506349563598633
39 221 0.9560209512710571
39 222 0.9343667030334473
39 223 0.9663957953453064
39 224 0.12203433364629745
39 225 0.9479327201843262
39 226 0.9616116285324097
39 227 0.9500369429588318
39 228 0.1296614706516266
39 229 0.056047845631837845
39 230 0.9636430144309998
39 231 0.9603837728500366
39 232 0.9615171551704407
39 233 0.9488889575004578
39 234 0.15177829563617706
39 235 0.9626970291137695
39 236 0.15288303792476654
39 237 0.9539267420768738
39 238 0.9544742703437805
39 239 0.9626034498214722
39 240 0.9505395293235779
39 241 0.9615639448165894
39 242 0.9465910792350769
39 244 0.9500852227210999
39 245 0.07235746085643768
39 246 0.3019031286239624
39 247 0.9495845437049866
39 248 0.9641405940055847
39 249 0.9587961435317993
39 250 0.1869855672121048
39 251 0.11242882162332535
39 252 0.9587961435317993
39 253 0.9382274746894836
39 254 0.9609277248382568
39 255 0.9527358412742615
40 41 0.10798110067844391
40 42 0.11588680744171143
40 43 0.11710286140441895
40 44 0.11679525673389435
40 45 0.11624763160943985
40 47 0.11679525673389435
40 48 0.11008711159229279
40 49 0.10878565907478333
40 51 0.10764171928167343
40 52 0.10815200209617615
40 53 0.10047443211078644
40 55 0.11661186069250107
40 56 0.11685658991336823
40 57 0.11741290241479874
40 59 0.11661186069250107
40 60 0.11741290241479874
40 61 0.11612698435783386
40 62 0.11636866629123688
40 63 0.10708311945199966
40 64 0.11541087925434113
40 66 0.10752929747104645
40 67 0.09877495467662811
40 69 0.11728858947753906
40 70 0.10815200209617615
40 71 0.11624763160943985
40 73 0.10741722583770752
40 74 0.10752929747104645
40 76 0.10266931354999542
40 77 0.10769806057214737
40 80 0.1178511306643486
40 83 0.10884381085634232
40 84 0.0920925885438919
40 85 0.11667290329933167
40 86 0.1159467026591301
40 87 0.0911465436220169
40 88 0.10820915549993515
40 89 0.10803797841072083
40 92 0.11642932146787643
40 93 0.10686209797859192
40 95 0.10878565907478333
40 96 0.1117500513792038
40 97 0.11667290329933167
40 98 0.10781100392341614
40 99 0.10730550438165665
40 100 0.11636866629123688
40 101 0.09810875356197357
40 102 0.11588680744171143
40 103 0.09961382299661636
40 104 0.10708311945199966
40 106 0.09924419969320297
40 107 0.08154569566249847
40 109 0.10838113725185394
40 110 0.06517121195793152
40 111 0.09424740076065063
40 112 0.10708311945199966
40 114 0.09950779378414154
40 116 0.1073613315820694
40 117 0.09977350383996964
40 118 0.0988786593079567
40 119 0.10803797841072083
40 120 0.11316222697496414
40 121 0.0988786593079567
40 122 0.10482849180698395
40 125 0.11558867245912552
40 126 0.10803797841072083
40 127 0.11600670963525772
40 128 0.09919173270463943
40 129 0.08102848380804062
40 130 0.11606680601835251
40 131 0.10861173272132874
40 132 0.11685658991336823
40 133 0.11735069751739502
40 134 0.12092631310224533
40 135 0.11848576366901398
40 136 0.10832372307777405
40 138 0.10919473320245743
40 139 0.11741290241479874
40 142 0.11791413277387619
40 143 0.10752929747104645
40 144 0.0988786593079567
40 146 0.10708311945199966
40 149 0.1181037575006485
40 151 0.09877495467662811
40 152 0.11887150257825851
40 153 0.11829429864883423
40 154 0.10758545994758606
40 155 0.09114290028810501
40 156 0.11566299200057983
40 157 0.11679525673389435
40 158 0.11618726700544357
40 159 0.10826639086008072
40 161 0.10702772438526154
40 162 0.10127393901348114
40 163 0.10758545994758606
40 165 0.11716467142105103
40 166 0.09893062710762024
40 167 0.11606680601835251
40 168 0.11655091494321823
40 169 0.09977350383996964
40 170 0.108553946018219
40 171 0.08932845294475555
40 173 0.09862001240253448
40 174 0.11704114079475403
40 175 0.11697953194379807
40 176 0.05661385506391525
40 181 0.11685658991336823
40 182 0.10798110067844391
40 185 0.06376560032367706
40 186 0.10752929747104645
40 187 0.11655091494321823
40 189 0.10653311759233475
40 190 0.11636866629123688
40 192 0.11797723919153214
40 193 0.1163836345076561
40 195 0.11588680744171143
40 196 0.052414245903491974
40 197 0.11747521162033081
40 198 0.11576727777719498
40 201 0.10730550438165665
40 202 0.10014910250902176
40 203 0.117662712931633
40 204 0.10803797841072083
40 205 0.11691801249980927
40 207 0.11710286140441895
40 208 0.09638582915067673
40 209 0.08098582923412323
40 210 0.10702772438526154
40 212 0.053877249360084534
40 213 0.08098582923412323
40 214 0.10972753912210464
40 215 0.11673403531312943
40 216 0.11558867245912552
40 217 0.11661186069250107
40 218 0.09877495467662811
40 219 0.11747521162033081
40 220 0.10803797841072083
40 221 0.10769806057214737
40 222 0.11020775139331818
40 223 0.10653311759233475
40 225 0.11722658574581146
40 226 0.1157076507806778
40 227 0.11722658574581146
40 228 0.0653720498085022
40 230 0.10691721737384796
40 231 0.08937482535839081
40 232 0.10702772438526154
40 233 0.1084386557340622
40 235 0.09908703714609146
40 236 0.052414245903491974
40 237 0.10769806057214737
40 238 0.11661186069250107
40 239 0.0980074554681778
40 240 0.11728858947753906
40 241 0.11582698673009872
40 242 0.09982690215110779
40 244 0.1080949455499649
40 247 0.09903481602668762
40 248 0.11588680744171143
40 249 0.10730550438165665
40 252 0.11624763160943985
40 253 0.0824301689863205
40 254 0.11612698435783386
40 255 0.10803797841072083
41 42 0.9583321213722229
41 43 0.9473134875297546
41 44 0.9521819353103638
41 45 0.9581778645515442
41 46 0.10544392466545105
41 47 0.9490290284156799
41 48 0.9368699789047241
41 49 0.9438223838806152
41 50 0.06622661650180817
41 51 0.9527854323387146
41 52 0.9467592835426331
41 53 0.9360021352767944
41 54 0.19761088490486145
41 55 0.9527854323387146
41 56 0.9526818990707397
41 57 0.9455955028533936
41 58 0.22482742369174957
41 59 0.9517361521720886
41 60 0.9477085471153259
41 61 0.9550934433937073
41 62 0.9539398550987244
41 63 0.9593236446380615
41 64 0.9627045392990112
41 65 0.10052493959665298
41 66 0.9528385400772095
41 67 0.9516826868057251
41 68 0.08029550313949585
41 69 0.9488159418106079
41 70 0.9499220848083496
41 71 0.956085741519928
41 72 0.06488857418298721
41 73 0.9539398550987244
41 74 0.9517903327941895
41 75 0.1452600359916687
41 76 0.9215105175971985
41 77 0.9522342681884766
41 78 0.16222141683101654
41 79 0.34094396233558655
41 80 0.9438223838806152
41 81 0.07570332288742065
41 82 0.10760551691055298
41 83 0.9443269968032837
41 84 0.9329372644424438
41 85 0.9532841444015503
41 86 0.9588274359703064
41 87 0.8387659788131714
41 88 0.9493691921234131
41 89 0.9510270357131958
41 90 0.16136032342910767
41 91 0.10405319184064865
41 92 0.9533893465995789
41 93 0.9604688286781311
41 94 0.1216660663485527
41 95 0.9395804405212402
41 96 0.9194303154945374
41 97 0.9511843323707581
41 98 0.9500799775123596
41 99 0.956085741519928
41 100 0.9549869298934937
41 101 0.9619575142860413
41 102 0.9593749046325684
41 103 0.9438750147819519
41 104 0.9603675007820129
41 105 0.424419105052948
41 106 0.9467051029205322
41 107 0.9433186650276184
41 108 0.07825855165719986
41 109 0.9519346356391907
41 110 0.40659719705581665
41 111 0.9051538705825806
41 112 0.9614114165306091
41 113 0.39632999897003174
41 114 0.9439285397529602
41 116 0.9576296806335449
41 117 0.9443269968032837
41 118 0.9484758377075195
41 119 0.9510270357131958
41 120 0.9056769013404846
41 121 0.9516304135322571
41 122 0.07357671856880188
41 123 0.3319666087627411
41 124 0.07254762947559357
41 125 0.9621073603630066
41 126 0.9478674530982971
41 127 0.9582797884941101
41 128 0.9504240155220032
41 129 0.9510270357131958
41 130 0.9587761759757996
41 131 0.9423134922981262
41 132 0.9516304135322571
41 133 0.9461504220962524
41 134 0.9238362312316895
41 135 0.935044527053833
41 136 0.9482623934745789
41 138 0.9388558268547058
41 139 0.944538950920105
41 140 0.20780369639396667
41 141 0.09176629036664963
41 142 0.9443269968032837
41 143 0.9549350738525391
41 144 0.9516304135322571
41 145 0.05619514361023903
41 146 0.9572359323501587
41 147 0.16316063702106476
41 148 0.5364701151847839
41 149 0.940531849861145
41 150 0.25412824749946594
41 151 0.9516826868057251
41 152 0.9402279853820801
41 153 0.9420492649078369
41 154 0.9543850421905518
41 155 0.9382430911064148
41 156 0.14883221685886383
41 157 0.9553348422050476
41 158 0.9608166813850403
41 159 0.9456496834754944
41 161 0.9598708152770996
41 162 0.15401069819927216
41 163 0.951238751411438
41 164 0.05619514361023903
41 165 0.9541392922401428
41 166 0.9510785341262817
41 167 0.959820568561554
41 168 0.9533362984657288
41 169 0.9443269968032837
41 170 0.9471032023429871
41 171 0.9603182673454285
41 173 0.9575313925743103
41 174 0.9531333446502686
41 175 0.9484210014343262
41 176 0.15894387662410736
41 177 0.13784049451351166
41 178 0.32773178815841675
41 179 0.3766551613807678
41 180 0.35165953636169434
41 181 0.9505788683891296
41 182 0.9515789747238159
41 183 0.1566435545682907
41 184 0.20285598933696747
41 185 0.9419993162155151
41 186 0.9570314884185791
41 187 0.952287495136261
41 188 0.16316063702106476
41 189 0.9647815227508545
41 190 0.9528926610946655
41 191 0.07947193831205368
41 192 0.9405859708786011
41 193 0.673161506652832
41 194 0.11727909743785858
41 195 0.9572893381118774
41 196 0.14715343713760376
41 197 0.9482114315032959
41 198 0.9594271183013916
41 199 0.13377121090888977
41 200 0.2523573040962219
41 201 0.9571317434310913
41 202 0.9425566792488098
41 203 0.9444310069084167
41 204 0.9478674530982971
41 205 0.9510785341262817
41 206 0.10798110067844391
41 207 0.9483672380447388
41 208 0.45326176285743713
41 209 0.9536842107772827
41 210 0.9640441536903381
41 211 0.08583950251340866
41 212 0.3245805501937866
41 213 0.9526315927505493
41 214 0.9359493255615234
41 215 0.9516826868057251
41 216 0.9641875624656677
41 217 0.9538347721099854
41 218 0.9516826868057251
41 219 0.9450401663780212
41 220 0.9520801901817322
41 221 0.9511843323707581
41 222 0.9282276630401611
41 223 0.9627045392990112
41 224 0.13764944672584534
41 225 0.9472595453262329
41 226 0.9599740505218506
41 227 0.948314368724823
41 228 0.1300022453069687
41 229 0.05619514361023903
41 230 0.9578374028205872
41 231 0.9597712159156799
41 232 0.9630008339881897
41 233 0.9460972547531128
41 234 0.13834288716316223
41 235 0.9483672380447388
41 236 0.14715343713760376
41 237 0.9532841444015503
41 238 0.9527854323387146
41 239 0.9578374028205872
41 240 0.9498713612556458
41 241 0.9599219560623169
41 242 0.9405859708786011
41 244 0.9473134875297546
41 245 0.058038100600242615
41 246 0.27548789978027344
41 247 0.9499738216400146
41 248 0.9593749046325684
41 249 0.956085741519928
41 250 0.20267784595489502
41 251 0.12139539420604706
41 252 0.9571317434310913
41 253 0.9342648983001709
41 254 0.9561384320259094
41 255 0.9489206075668335
42 43 0.9582985639572144
42 44 0.9599459767341614
42 45 0.9647715091705322
42 46 0.11249425262212753
42 47 0.9609870910644531
42 48 0.9451287984848022
42 49 0.9507644772529602
42 50 0.07872957736253738
42 51 0.9605176448822021
42 52 0.9577599763870239
42 53 0.9484290480613708
42 54 0.19576497375965118
42 55 0.9625967144966125
42 56 0.9604499936103821
42 57 0.9556024670600891
42 58 0.22727271914482117
42 59 0.9636362195014954
42 60 0.9556024670600891
42 61 0.9658405184745789
42 62 0.9668132662773132
42 63 0.9689767360687256
42 64 0.9712016582489014
42 65 0.12448239326477051
42 66 0.9678219556808472
42 67 0.9594427347183228
42 68 0.09090908616781235
42 69 0.9566817879676819
42 70 0.9598488211631775
42 71 0.9709891676902771
42 72 0.06428243219852448
42 73 0.9626638889312744
42 74 0.9678219556808472
42 75 0.13019807636737823
42 76 0.9269638657569885
42 77 0.9610204100608826
42 78 0.15427783131599426
42 79 0.34325116872787476
42 80 0.9528656601905823
42 81 0.09642364829778671
42 82 0.09690941870212555
42 83 0.9628352522850037
42 84 0.9423654675483704
42 85 0.9599803686141968
42 86 0.9705427289009094
42 87 0.8555772304534912
42 88 0.958266019821167
42 89 0.9598802328109741
42 90 0.1708773672580719
42 91 0.1116713210940361
42 92 0.9642035365104675
42 93 0.9690408110618591
42 94 0.09642364829778671
42 95 0.9518150687217712
42 96 0.9270297884941101
42 97 0.9631005525588989
42 98 0.9589048027992249
42 99 0.9668440222740173
42 100 0.9657759666442871
42 101 0.9695091247558594
42 102 0.9731404781341553
42 103 0.9528987407684326
42 104 0.9700108170509338
42 105 0.4318181872367859
42 106 0.9608640074729919
42 107 0.9502570629119873
42 108 0.10660036653280258
42 109 0.957695722579956
42 110 0.3876941502094269
42 111 0.9185426831245422
42 112 0.9658743143081665
42 113 0.3875616490840912
42 114 0.9592227935791016
42 116 0.9642365574836731
42 117 0.9523239135742188
42 118 0.9635751247406006
42 119 0.956750214099884
42 120 0.9179807305335999
42 121 0.9635751247406006
42 122 0.08503766357898712
42 123 0.35673561692237854
42 124 0.07186995446681976
42 125 0.9706369042396545
42 126 0.956750214099884
42 127 0.9710450172424316
42 128 0.9551309943199158
42 129 0.9598802328109741
42 130 0.9663746953010559
42 131 0.9544889330863953
42 132 0.9583665728569031
42 133 0.956142246723175
42 134 0.9421560168266296
42 135 0.9453222155570984
42 136 0.9550961256027222
42 138 0.9469581842422485
42 139 0.957695722579956
42 140 0.20096108317375183
42 141 0.07954545319080353
42 142 0.9502216577529907
42 143 0.9647066593170166
42 144 0.9583665728569031
42 146 0.9679425954818726
42 147 0.14431831240653992
42 148 0.5164881944656372
42 149 0.9538553953170776
42 150 0.26701223850250244
42 151 0.9594427347183228
42 152 0.9483997821807861
42 153 0.9543398022651672
42 154 0.9662495851516724
42 155 0.9537720680236816
42 156 0.12733623385429382
42 157 0.9693163633346558
42 158 0.9653061628341675
42 159 0.9587728977203369
42 161 0.9684755206108093
42 162 0.17604470252990723
42 163 0.9620936512947083
42 164 0.05567022040486336
42 165 0.9567155241966248
42 166 0.9588702917098999
42 167 0.9663746953010559
42 168 0.9641715884208679
42 169 0.9554772973060608
42 170 0.9529328346252441
42 171 0.9658405184745789
42 173 0.9641715884208679
42 174 0.9577935338020325
42 175 0.963546097278595
42 176 0.15745915472507477
42 177 0.12217891216278076
42 178 0.3153049349784851
42 179 0.37828344106674194
42 180 0.3511616289615631
42 181 0.9604499936103821
42 182 0.9604177474975586
42 183 0.15518032014369965
42 184 0.2107640653848648
42 185 0.9500904679298401
42 186 0.9667835235595703
42 187 0.9652105569839478
42 188 0.1674092561006546
42 189 0.9712016582489014
42 190 0.9637011885643005
42 191 0.07872957736253738
42 192 0.9549371004104614
42 193 0.671369194984436
42 194 0.09128709137439728
42 195 0.9721074104309082
42 196 0.1640012115240097
42 197 0.9634400606155396
42 198 0.9690408110618591
42 199 0.12472623586654663
42 200 0.2499999701976776
42 201 0.9689165949821472
42 202 0.9506334662437439
42 203 0.9618311524391174
42 204 0.956750214099884
42 205 0.9588702917098999
42 206 0.10697244107723236
42 207 0.9572546482086182
42 208 0.44455984234809875
42 209 0.9625033140182495
42 210 0.9684755206108093
42 211 0.08503766357898712
42 212 0.33091410994529724
42 213 0.961460530757904
42 214 0.9473401308059692
42 215 0.9625645875930786
42 216 0.9706369042396545
42 217 0.9636362195014954
42 218 0.9615238904953003
42 219 0.9592512249946594
42 220 0.956750214099884
42 221 0.9599803686141968
42 222 0.9387143850326538
42 223 0.9722304344177246
42 224 0.12121211737394333
42 225 0.9561759829521179
42 226 0.9706045985221863
42 227 0.9603559970855713
42 228 0.12121211737394333
42 229 0.05567022040486336
42 230 0.9674755930900574
42 231 0.9653061628341675
42 232 0.9726098775863647
42 233 0.9561095833778381
42 234 0.13705061376094818
42 235 0.9635180234909058
42 236 0.15185298025608063
42 237 0.9620605111122131
42 238 0.9636362195014954
42 239 0.9695407152175903
42 240 0.9587728977203369
42 241 0.9705731868743896
42 242 0.9549371004104614
42 244 0.9572546482086182
42 246 0.29313039779663086
42 247 0.9598802328109741
42 248 0.969008207321167
42 249 0.9647715091705322
42 250 0.20580419898033142
42 251 0.10308121144771576
42 252 0.9668440222740173
42 253 0.9478271007537842
42 254 0.9668757319450378
42 255 0.9650970101356506
43 44 0.9479253888130188
43 45 0.9570937156677246
43 46 0.12991395592689514
43 47 0.9500295519828796
43 48 0.9378577470779419
43 49 0.9405710697174072
43 50 0.06629643589258194
43 51 0.9537899494171143
43 52 0.9498682022094727
43 53 0.9337800741195679
43 54 0.2028915286064148
43 55 0.9527395367622375
43 56 0.9526336789131165
43 57 0.9476500749588013
43 58 0.22047129273414612
43 59 0.9569412469863892
43 60 0.9455347657203674
43 61 0.9602846503257751
43 62 0.9528489708900452
43 63 0.959290087223053
43 64 0.964759111404419
43 65 0.1257886439561844
43 66 0.9580404162406921
43 67 0.9547891616821289
43 68 0.06889727711677551
43 69 0.94453364610672
43 70 0.947757363319397
43 71 0.9529051184654236
43 72 0.06495697796344757
43 73 0.9559937119483948
43 74 0.9517444968223572
43 75 0.1384887397289276
43 76 0.9192031025886536
43 77 0.9490342736244202
43 78 0.12341826409101486
43 79 0.34962788224220276
43 80 0.9448174238204956
43 81 0.09743546694517136
43 82 0.10771896690130234
43 83 0.9378873705863953
43 84 0.9306855797767639
43 85 0.9553401470184326
43 86 0.9556605815887451
43 87 0.8467659950256348
43 88 0.9440343379974365
43 89 0.9467582106590271
43 90 0.18938051164150238
43 91 0.12152338027954102
43 92 0.9533457159996033
43 93 0.957310140132904
43 94 0.12991395592689514
43 95 0.9405710697174072
43 96 0.9247617721557617
43 97 0.9500852227210999
43 98 0.9521337151527405
43 99 0.9560465812683105
43 100 0.95389723777771
43 101 0.9556605815887451
43 102 0.9614302515983582
43 103 0.944870114326477
43 104 0.9551101922988892
43 105 0.42945969104766846
43 106 0.9498162865638733
43 107 0.9411300420761108
43 108 0.06854843348264694
43 109 0.9434194564819336
43 110 0.39685019850730896
43 111 0.9072117805480957
43 112 0.9582451581954956
43 113 0.3506739139556885
43 114 0.9502203464508057
43 116 0.9544485807418823
43 117 0.9431982636451721
43 118 0.9494757652282715
43 119 0.9488667249679565
43 120 0.8989015817642212
43 121 0.9515810608863831
43 122 0.07365428656339645
43 123 0.35203027725219727
43 124 0.07262410968542099
43 125 0.9610392451286316
43 126 0.9499210119247437
43 127 0.9572001695632935
43 128 0.9440343379974365
43 129 0.9478124976158142
43 130 0.9545593857765198
43 131 0.9454267621040344
43 132 0.9526336789131165
43 133 0.9492621421813965
43 134 0.9204530715942383
43 135 0.934963047504425
43 136 0.9471479654312134
43 138 0.9345178008079529
43 139 0.9444771409034729
43 140 0.21297569572925568
43 141 0.0803801566362381
43 142 0.9485090374946594
43 143 0.9538431167602539
43 144 0.9473704695701599
43 145 0.05625439062714577
43 146 0.9582451581954956
43 147 0.17499926686286926
43 148 0.5256898999214172
43 149 0.9457789063453674
43 150 0.26210516691207886
43 151 0.9516345858573914
43 152 0.9369361400604248
43 153 0.936648964881897
43 154 0.9543413519859314
43 155 0.9338957667350769
43 156 0.15576136112213135
43 157 0.9500295519828796
43 158 0.9565966725349426
43 159 0.9487597942352295
43 161 0.9567050337791443
43 162 0.17789201438426971
43 163 0.9522415995597839
43 164 0.05625439062714577
43 165 0.9467019438743591
43 166 0.9531344175338745
43 167 0.9545593857765198
43 168 0.9511916637420654
43 169 0.9410738945007324
43 170 0.9417456984519958
43 171 0.9550543427467346
43 173 0.9564411044120789
43 174 0.9509753584861755
43 175 0.9462597370147705
43 176 0.14585216343402863
43 177 0.13072340190410614
43 178 0.31230437755584717
43 179 0.38745367527008057
43 180 0.3323165774345398
43 181 0.9473704695701599
43 182 0.9494209289550781
43 183 0.1749020218849182
43 184 0.18325816094875336
43 185 0.9365920424461365
43 186 0.9517444968223572
43 187 0.9511916637420654
43 188 0.17499926686286926
43 189 0.9606006145477295
43 190 0.9570419788360596
43 191 0.06629643589258194
43 192 0.9394521713256836
43 193 0.651156485080719
43 194 0.1257886439561844
43 195 0.9562107920646667
43 196 0.16572214663028717
43 197 0.9439200758934021
43 198 0.9593957662582397
43 199 0.11815785616636276
43 200 0.2526233494281769
43 201 0.9529051184654236
43 202 0.9403519630432129
43 203 0.9464866518974304
43 204 0.9457038640975952
43 205 0.9489216804504395
43 206 0.11710286140441895
43 207 0.9451476335525513
43 208 0.4559970200061798
43 209 0.9483672380447388
43 210 0.9587938785552979
43 211 0.0859300047159195
43 212 0.30284059047698975
43 213 0.9483672380447388
43 214 0.9358652830123901
43 215 0.952686071395874
43 216 0.9610392451286316
43 217 0.9558907747268677
43 218 0.9516345858573914
43 219 0.9428618550300598
43 220 0.9520296454429626
43 221 0.9500852227210999
43 222 0.9324327111244202
43 223 0.9606006145477295
43 224 0.1301393061876297
43 225 0.9440343379974365
43 226 0.9599438905715942
43 227 0.9461462497711182
43 228 0.13779455423355103
43 229 0.05625439062714577
43 230 0.956760585308075
43 231 0.9555500745773315
43 232 0.9567050337791443
43 233 0.9492111206054688
43 234 0.15233762562274933
43 235 0.9493670463562012
43 236 0.1473085731267929
43 237 0.9490342736244202
43 238 0.9516890645027161
43 239 0.956760585308075
43 240 0.9466466903686523
43 241 0.9588472843170166
43 242 0.9437031149864197
43 244 0.9483122229576111
43 245 0.07262410968542099
43 246 0.30642035603523254
43 247 0.9478124976158142
43 248 0.960386335849762
43 249 0.9560465812683105
43 250 0.2028915286064148
43 251 0.11284314095973969
43 252 0.9560465812683105
43 253 0.9298871755599976
43 254 0.9571464657783508
43 255 0.9457038640975952
44 45 0.9598016738891602
44 46 0.12957270443439484
44 47 0.9527806639671326
44 48 0.932179868221283
44 49 0.9433944225311279
44 50 0.07934675365686417
44 51 0.9533798694610596
44 52 0.9526363015174866
44 53 0.9355945587158203
44 54 0.19729959964752197
44 55 0.9523321986198425
44 56 0.9522311091423035
44 57 0.9462156891822815
44 58 0.2244732677936554
44 59 0.9544275999069214
44 60 0.9472705721855164
44 61 0.958805501461029
44 62 0.9566190242767334
44 63 0.957812488079071
44 64 0.9642987251281738
44 65 0.08363882452249527
44 66 0.9576170444488525
44 67 0.9522812366485596
44 68 0.08016902208328247
44 69 0.9504826068878174
44 70 0.9515836834907532
44 71 0.9587572813034058
44 72 0.06478635221719742
44 73 0.9587100148200989
44 74 0.9534308314323425
44 75 0.14503122866153717
44 76 0.9233292937278748
44 77 0.9528307318687439
44 78 0.1490086168050766
44 79 0.36531469225883484
44 80 0.9433944225311279
44 81 0.08638180047273636
44 82 0.10743601620197296
44 83 0.9407207369804382
44 84 0.9314676523208618
44 85 0.9517825245857239
44 86 0.9604421854019165
44 87 0.8350790739059448
44 88 0.9489269256591797
44 89 0.9495289325714111
44 90 0.17221690714359283
44 91 0.07791697233915329
44 92 0.9550256133079529
44 93 0.9620760679244995
44 94 0.12957270443439484
44 95 0.9486884474754333
44 96 0.9234203100204468
44 97 0.9538789391517639
44 98 0.9527806639671326
44 99 0.9556241035461426
44 100 0.9576645493507385
44 101 0.9583587646484375
44 102 0.9599459767341614
44 103 0.9455611705780029
44 104 0.959896981716156
44 105 0.41458839178085327
44 106 0.947321355342865
44 107 0.9418326616287231
44 108 0.10743601620197296
44 109 0.9472705721855164
44 110 0.39580780267715454
44 111 0.9059295654296875
44 112 0.959896981716156
44 113 0.39315277338027954
44 114 0.9466677904129028
44 116 0.9571661949157715
44 117 0.9481363296508789
44 118 0.951181173324585
44 119 0.9505804181098938
44 120 0.9141628742218018
44 121 0.9522311091423035
44 122 0.08570428937673569
44 123 0.35672327876091003
44 124 0.07243335247039795
44 125 0.9616302251815796
44 126 0.9516319632530212
44 127 0.9609392285346985
44 128 0.951033353805542
44 129 0.9484773874282837
44 130 0.9572658538818359
44 131 0.9450575709342957
44 132 0.9532809853553772
44 133 0.9499315619468689
44 134 0.9245538115501404
44 135 0.9388941526412964
44 136 0.9509859085083008
44 138 0.942690908908844
44 139 0.9462156891822815
44 140 0.20747634768486023
44 141 0.08016902208328247
44 142 0.9417800903320312
44 143 0.9555239081382751
44 144 0.9522311091423035
44 145 0.056106630712747574
44 146 0.9588547348976135
44 147 0.17453959584236145
44 148 0.5412830114364624
44 149 0.9411724209785461
44 150 0.2691054046154022
44 151 0.9543787240982056
44 152 0.9344750046730042
44 153 0.9373769760131836
44 154 0.9570701718330383
44 155 0.9367651343345642
44 156 0.15535221993923187
44 157 0.9527806639671326
44 158 0.9561716914176941
44 159 0.9483751058578491
44 161 0.9594005346298218
44 162 0.17151057720184326
44 163 0.9549759030342102
44 164 0.056106630712747574
44 165 0.9526363015174866
44 166 0.9516811370849609
44 167 0.9572658538818359
44 168 0.9539288282394409
44 169 0.9491956830024719
44 170 0.9477243423461914
44 171 0.958805501461029
44 173 0.9539288282394409
44 174 0.9505804181098938
44 175 0.9511309862136841
44 176 0.1454690545797348
44 177 0.1376233696937561
44 178 0.29575252532958984
44 179 0.38643592596054077
44 180 0.35672327876091003
44 181 0.951181173324585
44 182 0.9532329440116882
44 183 0.16842733323574066
44 184 0.20747634768486023
44 185 0.9405154585838318
44 186 0.9555239081382751
44 187 0.9539288282394409
44 188 0.1512676477432251
44 189 0.9642987251281738
44 190 0.9576645493507385
44 191 0.07934675365686417
44 192 0.9444039463996887
44 193 0.6600183844566345
44 194 0.125458225607872
44 195 0.9589048027992249
44 196 0.1652868539094925
44 197 0.947773277759552
44 198 0.9599958658218384
44 199 0.13356049358844757
44 200 0.2634125053882599
44 201 0.9556241035461426
44 202 0.9368184804916382
44 203 0.9450575709342957
44 204 0.9495289325714111
44 205 0.9537820219993591
44 206 0.11679525673389435
44 207 0.9500295519828796
44 208 0.45479923486709595
44 209 0.9500799775123596
44 210 0.9594005346298218
44 211 0.08570428937673569
44 212 0.31148406863212585
44 213 0.9521819353103638
44 214 0.9387468695640564
44 215 0.9533299803733826
44 216 0.9616302251815796
44 217 0.9565228819847107
44 218 0.9575250744819641
44 219 0.947773277759552
44 220 0.9484773874282837
44 221 0.9528307318687439
44 222 0.9299834370613098
44 223 0.9653355479240417
44 224 0.11452716588973999
44 225 0.9531397223472595
44 226 0.9615805149078369
44 227 0.9468205571174622
44 228 0.10689202696084976
44 230 0.9604911208152771
44 231 0.9582594037055969
44 232 0.9604421854019165
44 233 0.9467177987098694
44 234 0.14503122866153717
44 235 0.9510816335678101
44 236 0.15916511416435242
44 237 0.9528307318687439
44 238 0.9554752707481384
44 239 0.9615316987037659
44 240 0.9483751058578491
44 241 0.9615316987037659
44 242 0.942284107208252
44 244 0.9510816335678101
44 245 0.07243335247039795
44 246 0.30901122093200684
44 247 0.9505804181098938
44 248 0.9599459767341614
44 249 0.9556241035461426
44 250 0.2074175328016281
44 251 0.10388928651809692
44 252 0.9577129483222961
44 253 0.9349325895309448
44 254 0.9577622413635254
44 255 0.9484773874282837
45 46 0.12896516919136047
45 47 0.9587572813034058
45 48 0.9470050930976868
45 49 0.9484556913375854
45 50 0.06581226736307144
45 51 0.9593372941017151
45 52 0.9555035829544067
45 53 0.9407640695571899
45 54 0.19133928418159485
45 55 0.9582945704460144
45 56 0.9550809264183044
45 57 0.9554280638694763
45 58 0.21430154144763947
45 59 0.9582945704460144
45 60 0.9501785039901733
45 61 0.9626173377037048
45 62 0.9604583382606506
45 63 0.9636949896812439
45 64 0.9690655469894409
45 65 0.11654532700777054
45 66 0.9604187607765198
45 67 0.9603423476219177
45 68 0.09119214862585068
45 69 0.9523189067840576
45 70 0.9596943855285645
45 71 0.9625779390335083
45 72 0.06448258459568024
45 73 0.9614989161491394
45 74 0.959377110004425
45 75 0.15122507512569427
45 76 0.9211700558662415
45 77 0.9598394632339478
45 78 0.141861692070961
45 79 0.37186554074287415
45 80 0.950563371181488
45 81 0.09672388434410095
45 82 0.10693227499723434
45 83 0.9457994699478149
45 84 0.9378057718276978
45 85 0.9577528834342957
45 86 0.9683805704116821
45 87 0.8441137671470642
45 88 0.9570567011833191
45 89 0.9565893411636353
45 90 0.16588008403778076
45 91 0.11201902478933334
45 92 0.9599179029464722
45 93 0.9648115634918213
45 94 0.10478420555591583
45 95 0.9484556913375854
45 96 0.9223383069038391
45 97 0.9577528834342957
45 98 0.9556241035461426
45 99 0.9604989290237427
45 100 0.962539553642273
45 101 0.9631965160369873
45 102 0.9668440222740173
45 103 0.9506021738052368
45 104 0.9657697081565857
45 105 0.41948390007019043
45 106 0.9554653167724609
45 107 0.9511092901229858
45 108 0.10693227499723434
45 109 0.9501785039901733
45 110 0.38637596368789673
45 111 0.9137335419654846
45 112 0.9647324085235596
45 113 0.38622742891311646
45 114 0.9516935348510742
45 116 0.96099853515625
45 117 0.947908341884613
45 118 0.9592607021331787
45 119 0.9555427432060242
45 120 0.9142615795135498
45 121 0.9603056311607361
45 122 0.07311637699604034
45 123 0.36902907490730286
45 124 0.07209372520446777
45 125 0.9705583453178406
45 126 0.9607757329940796
45 127 0.9688817262649536
45 128 0.9528636932373047
45 129 0.9565893411636353
45 130 0.9621184468269348
45 131 0.9490436911582947
45 132 0.9561258554458618
45 133 0.95702064037323
45 134 0.9310322999954224
45 135 0.9408490657806396
45 136 0.9528231620788574
45 138 0.9456754922866821
45 139 0.9512283802032471
45 140 0.21142031252384186
45 141 0.07979313284158707
45 142 0.9500170946121216
45 143 0.9583353996276855
45 144 0.9561258554458618
45 145 0.05584355816245079
45 146 0.9699191451072693
45 147 0.17372122406959534
45 148 0.5500080585479736
45 149 0.9473205208778381
45 150 0.267843633890152
45 151 0.9592984914779663
45 152 0.9439120888710022
45 153 0.9425020217895508
45 154 0.9598782062530518
45 155 0.9440275430679321
45 156 0.14117825031280518
45 157 0.9598016738891602
45 158 0.9620780944824219
45 159 0.9533677101135254
45 161 0.967343807220459
45 162 0.17659282684326172
45 163 0.9588359594345093
45 164 0.05584355816245079
45 165 0.9544559121131897
45 166 0.9587194323539734
45 167 0.9621184468269348
45 168 0.9577937722206116
45 169 0.9457994699478149
45 170 0.9485387802124023
45 171 0.9657326340675354
45 173 0.9598782062530518
45 174 0.9586825966835022
45 175 0.9550396800041199
45 176 0.13820576667785645
45 177 0.14418745040893555
45 178 0.3194182217121124
45 179 0.3742985725402832
45 180 0.33268529176712036
45 181 0.957170844078064
45 182 0.9539936780929565
45 183 0.16763761639595032
45 184 0.21142031252384186
45 185 0.9424592852592468
45 186 0.9583353996276855
45 187 0.9619625806808472
45 188 0.16213980317115784
45 189 0.970097541809082
45 190 0.9635801315307617
45 191 0.07897471636533737
45 192 0.9494706392288208
45 193 0.656923770904541
45 194 0.12486998736858368
45 195 0.9699528813362122
45 196 0.16451185941696167
45 197 0.9580360651016235
45 198 0.9679172039031982
45 199 0.13293425738811493
45 200 0.2583777606487274
45 201 0.965696394443512
45 202 0.9451265335083008
45 203 0.9500958323478699
45 204 0.9534496068954468
45 205 0.9587194323539734
45 206 0.10730550438165665
45 207 0.9529051184654236
45 208 0.46163052320480347
45 209 0.956085741519928
45 210 0.967343807220459
45 211 0.0853024423122406
45 212 0.31628668308258057
45 213 0.9550396800041199
45 214 0.9449750185012817
45 215 0.9561669826507568
45 216 0.9664239287376404
45 217 0.9603801369667053
45 218 0.9613862633705139
45 219 0.9496322274208069
45 220 0.9607757329940796
45 221 0.9587961435317993
45 222 0.9341639280319214
45 223 0.968033492565155
45 224 0.1367882341146469
45 225 0.9549602270126343
45 226 0.9653492569923401
45 227 0.9549602270126343
45 228 0.1367882341146469
45 229 0.05584355816245079
45 230 0.9653093218803406
45 231 0.9620780944824219
45 232 0.967343807220459
45 233 0.9548846483230591
45 234 0.15122507512569427
45 235 0.9539523124694824
45 236 0.1706048846244812
45 237 0.9577528834342957
45 238 0.9603801369667053
45 239 0.9663450121879578
45 240 0.9565141201019287
45 241 0.9653093218803406
45 242 0.9494706392288208
45 244 0.9591881036758423
45 245 0.07209372520446777
45 246 0.30080273747444153
45 247 0.9534496068954468
45 248 0.9668440222740173
45 249 0.9615384936332703
45 250 0.20140977203845978
45 251 0.11201902478933334
45 252 0.9604989290237427
45 253 0.938001811504364
45 254 0.9646941423416138
45 255 0.9576359391212463
46 47 0.12957270443439484
46 48 0.12403897196054459
46 49 0.11440107971429825
46 50 0.10206206887960434
46 51 0.12128367274999619
46 52 0.1218586266040802
46 53 0.10703305155038834
46 55 0.12936924397945404
46 56 0.09723055362701416
46 57 0.11397568136453629
46 59 0.12936924397945404
46 60 0.1221168041229248
46 61 0.12883132696151733
46 62 0.12909944355487823
46 63 0.1045670360326767
46 64 0.12803688645362854
46 65 0.06454972177743912
46 66 0.12923412024974823
46 67 0.12950478494167328
46 69 0.09759000688791275
46 70 0.12998253107070923
46 71 0.11284452676773071
46 73 0.12909944355487823
46 74 0.12923412024974823
46 75 0.053300175815820694
46 76 0.12619754672050476
46 77 0.12134714424610138
46 79 0.08543577045202255
46 80 0.11440107971429825
46 81 0.1666666567325592
46 83 0.10628636181354523
46 84 0.12451670318841934
46 85 0.11325733363628387
46 86 0.1286313384771347
46 87 0.08215837925672531
46 88 0.13005122542381287
46 89 0.12173014879226685
46 92 0.10494796931743622
46 93 0.11237822473049164
46 94 0.125
46 95 0.12257258594036102
46 96 0.10073013603687286
46 97 0.12943695485591888
46 98 0.12957270443439484
46 99 0.12090485543012619
46 100 0.09682457894086838
46 101 0.12059187144041061
46 102 0.12052956223487854
46 103 0.1224418431520462
46 104 0.11261065304279327
46 106 0.12198750674724579
46 107 0.10617286711931229
46 108 0.07537783682346344
46 109 0.09769344329833984
46 111 0.09344881027936935
46 112 0.12869788706302643
46 114 0.12231151759624481
46 116 0.12903225421905518
46 117 0.13081398606300354
46 118 0.12964074313640594
46 119 0.1298454999923706
46 120 0.11050330847501755
46 121 0.12964074313640594
46 123 0.108388751745224
46 124 0.33541014790534973
46 125 0.11220484972000122
46 126 0.1298454999923706
46 127 0.12869788706302643
46 128 0.1056666150689125
46 129 0.1298454999923706
46 130 0.10462120175361633
46 131 0.12237662076950073
46 132 0.12964074313640594
46 133 0.12205210328102112
46 134 0.13415569067001343
46 135 0.1150171309709549
46 136 0.12205210328102112
46 138 0.10662904381752014
46 139 0.1221168041229248
46 141 0.3535533845424652
46 142 0.12263811379671097
46 143 0.12923412024974823
46 144 0.1215381994843483
46 146 0.12869788706302643
46 147 0.08980264514684677
46 148 0.07277781516313553
46 149 0.12283533066511154
46 150 0.05933908373117447
46 151 0.12141072750091553
46 152 0.12363383919000626
46 153 0.10662904381752014
46 154 0.12122028321027756
46 155 0.06572407484054565
46 156 0.10425721108913422
46 157 0.11337611824274063
46 158 0.1047297790646553
46 159 0.12198750674724579
46 161 0.12059187144041061
46 162 0.31950482726097107
46 163 0.12930163741111755
46 165 0.10561081022024155
46 166 0.1297088861465454
46 167 0.10462120175361633
46 168 0.12930163741111755
46 169 0.08175874501466751
46 170 0.08154100924730301
46 171 0.1207793727517128
46 173 0.10505757480859756
46 174 0.12173014879226685
46 175 0.12977714836597443
46 177 0.05590169504284859
46 178 0.09712858498096466
46 179 0.0800640806555748
46 181 0.1053331047296524
46 182 0.1216660663485527
46 183 0.13927149772644043
46 185 0.09853292256593704
46 186 0.07269419729709625
46 187 0.11313892900943756
46 189 0.12803688645362854
46 190 0.12909944355487823
46 192 0.12270374596118927
46 193 0.0582815520465374
46 194 0.06454972177743912
46 195 0.12856486439704895
46 196 0.09449111670255661
46 197 0.130327045917511
46 198 0.1284322589635849
46 200 0.0883883461356163
46 201 0.12090485543012619
46 202 0.1148931235074997
46 203 0.11421817541122437
46 204 0.1298454999923706
46 205 0.12160208821296692
46 206 0.06933752447366714
46 207 0.07307660579681396
46 208 0.19113820791244507
46 209 0.12977714836597443
46 210 0.12059187144041061
46 213 0.12977714836597443
46 214 0.12363383919000626
46 215 0.12950478494167328
46 216 0.12021948397159576
46 217 0.12936924397945404
46 218 0.09712858498096466
46 219 0.11403615772724152
46 220 0.1298454999923706
46 221 0.12134714424610138
46 222 0.11589657515287399
46 223 0.11203227192163467
46 225 0.12192301452159882
46 226 0.11232034116983414
46 227 0.13005122542381287
46 230 0.12849850952625275
46 231 0.12889818847179413
46 232 0.12059187144041061
46 233 0.12218160182237625
46 234 0.053300175815820694
46 235 0.11367471516132355
46 236 0.09449111670255661
46 237 0.10516752302646637
46 238 0.12936924397945404
46 239 0.12849850952625275
46 240 0.13012000918388367
46 241 0.12849850952625275
46 242 0.10634324699640274
46 244 0.12991395592689514
46 246 0.10482847690582275
46 247 0.12173014879226685
46 248 0.12856486439704895
46 249 0.10478420555591583
46 251 0.06681530922651291
46 252 0.11284452676773071
46 253 0.06604582071304321
46 254 0.1207793727517128
46 255 0.12173014879226685
47 48 0.9343228340148926
47 49 0.9423356652259827
47 50 0.06612230092287064
47 51 0.9554752707481384
47 52 0.95368891954422
47 53 0.9398617744445801
47 54 0.1922406554222107
47 55 0.9596659541130066
47 56 0.9532809853553772
47 57 0.9451608061790466
47 58 0.19698674976825714
47 59 0.9575705528259277
47 60 0.9462156891822815
47 61 0.956718921661377
47 62 0.9576645493507385
47 63 0.959896981716156
47 64 0.9705199599266052
47 65 0.125458225607872
47 66 0.9555239081382751
47 67 0.9564762711524963
47 68 0.09162174165248871
47 69 0.9483751058578491
47 70 0.9589521288871765
47 71 0.9598016738891602
47 72 0.06478635221719742
47 73 0.9618464112281799
47 74 0.9555239081382751
47 75 0.15193746984004974
47 76 0.9135182499885559
47 77 0.9570236206054688
47 78 0.15548723936080933
47 79 0.37915241718292236
47 80 0.946570873260498
47 81 0.09717953205108643
47 82 0.07813528180122375
47 83 0.9449581503868103
47 84 0.9303920865058899
47 85 0.9654093384742737
47 86 0.963567316532135
47 87 0.8457245826721191
47 88 0.9531397223472595
47 89 0.9568895697593689
47 90 0.18332765996456146
47 91 0.11254672706127167
47 92 0.9633938670158386
47 93 0.9599958658218384
47 94 0.12147441506385803
47 95 0.9433944225311279
47 96 0.9179820418357849
47 97 0.9538789391517639
47 98 0.9506819844245911
47 99 0.9566685557365417
47 100 0.9545280337333679
47 101 0.9625255465507507
47 102 0.9589048027992249
47 103 0.9466188549995422
47 104 0.9588547348976135
47 105 0.43520328402519226
47 106 0.9515363574028015
47 107 0.9492403268814087
47 108 0.09766910970211029
47 109 0.9451608061790466
47 110 0.3602865934371948
47 111 0.9026272892951965
47 112 0.959896981716156
47 113 0.39315277338027954
47 114 0.9466677904129028
47 116 0.9582111239433289
47 117 0.9460175633430481
47 118 0.9532809853553772
47 119 0.9505804181098938
47 120 0.9119600653648376
47 121 0.9532809853553772
47 122 0.08570428937673569
47 123 0.34548789262771606
47 124 0.07243335247039795
47 125 0.9657841920852661
47 126 0.9537350535392761
47 127 0.957812488079071
47 128 0.951033353805542
47 129 0.9495289325714111
47 130 0.9603942036628723
47 131 0.9482288360595703
47 132 0.950131356716156
47 133 0.9509859085083008
47 134 0.9191216230392456
47 135 0.9484747052192688
47 136 0.953094482421875
47 138 0.9448164701461792
47 139 0.9472705721855164
47 140 0.19265660643577576
47 141 0.09162174165248871
47 142 0.9470769166946411
47 143 0.9544773697853088
47 144 0.9595801830291748
47 146 0.9609392285346985
47 147 0.16872160136699677
47 148 0.5280809998512268
47 149 0.9432945847511292
47 150 0.25757232308387756
47 151 0.9522812366485596
47 152 0.9355429410934448
47 153 0.941628098487854
47 154 0.9539288282394409
47 155 0.9399586319923401
47 156 0.15535221993923187
47 157 0.9517313838005066
47 158 0.960347056388855
47 159 0.9515363574028015
47 161 0.9594005346298218
47 162 0.16559642553329468
47 163 0.9539288282394409
47 164 0.056106630712747574
47 165 0.9505310654640198
47 166 0.9600845575332642
47 167 0.9583086371421814
47 168 0.9560230374336243
47 169 0.9417800903320312
47 170 0.9477243423461914
47 171 0.958805501461029
47 173 0.9528816342353821
47 174 0.9537350535392761
47 175 0.9532329440116882
47 176 0.1454690545797348
47 177 0.1376233696937561
47 178 0.32092297077178955
47 179 0.373468279838562
47 180 0.3623409867286682
47 181 0.9522311091423035
47 182 0.9500799775123596
47 183 0.16842733323574066
47 184 0.20747634768486023
47 185 0.9479629397392273
47 186 0.9544773697853088
47 187 0.9539288282394409
47 188 0.16290362179279327
47 189 0.9642987251281738
47 190 0.9555734992027283
47 191 0.07934675365686417
47 192 0.9401642084121704
47 193 0.6690804362297058
47 194 0.11709434539079666
47 195 0.9651517271995544
47 196 0.17140857875347137
47 197 0.9498840570449829
47 198 0.9620760679244995
47 199 0.13356049358844757
47 200 0.2710476219654083
47 201 0.9650236964225769
47 202 0.9410719275474548
47 203 0.950343132019043
47 204 0.9526834487915039
47 205 0.9527316093444824
47 206 0.10781100392341614
47 207 0.9489774703979492
47 208 0.45254775881767273
47 209 0.9532329440116882
47 210 0.9604421854019165
47 211 0.07346081733703613
47 212 0.3240692615509033
47 213 0.9500799775123596
47 214 0.9451547265052795
47 215 0.9512324333190918
47 216 0.9626687169075012
47 217 0.9544275999069214
47 218 0.9554275274276733
47 219 0.9509394764900208
47 220 0.9505804181098938
47 221 0.958071768283844
47 222 0.9278382062911987
47 223 0.9642987251281738
47 224 0.13743260502815247
47 225 0.9541928768157959
47 226 0.9657386541366577
47 227 0.9520865082740784
47 228 0.12216231226921082
47 229 0.056106630712747574
47 230 0.9615316987037659
47 231 0.9572155475616455
47 232 0.963567316532135
47 233 0.9467177987098694
47 234 0.15193746984004974
47 235 0.9510816335678101
47 236 0.17140857875347137
47 237 0.9517825245857239
47 238 0.9575705528259277
47 239 0.963612973690033
47 240 0.9494287967681885
47 241 0.9625723958015442
47 242 0.941224217414856
47 244 0.9552899599075317
47 245 0.05794667825102806
47 246 0.28524112701416016
47 247 0.9516319632530212
47 248 0.9609870910644531
47 249 0.9556241035461426
47 250 0.16694581508636475
47 251 0.11254672706127167
47 252 0.9566685557365417
47 253 0.9360023140907288
47 254 0.9577622413635254
47 255 0.9589926600456238
48 49 0.9233085513114929
48 50 0.08102191239595413
48 51 0.9349952340126038
48 52 0.9297540187835693
48 53 0.9139520525932312
48 54 0.18596768379211426
48 55 0.937134861946106
48 56 0.9326693415641785
48 57 0.9317237734794617
48 58 0.22921234369277954
48 59 0.9328556656837463
48 60 0.9328008890151978
48 61 0.9396302103996277
48 62 0.9405181407928467
48 63 0.9386569857597351
48 64 0.9444236159324646
48 65 0.1195664331316948
48 66 0.9340186715126038
48 67 0.9338329434394836
48 68 0.05847253277897835
48 69 0.929661214351654
48 70 0.936203122138977
48 71 0.9448722004890442
48 72 0.0661541149020195
48 73 0.9362478852272034
48 74 0.9382933378219604
48 75 0.13398899137973785
48 76 0.9083154797554016
48 77 0.9333439469337463
48 78 0.15215449035167694
48 79 0.3165079653263092
48 80 0.9287143349647522
48 81 0.09923118352890015
48 82 0.09973108768463135
48 83 0.9270473122596741
48 84 0.9170852899551392
48 85 0.9333439469337463
48 86 0.9413625597953796
48 87 0.8188906908035278
48 88 0.9302452802658081
48 89 0.9287737607955933
48 90 0.15883474051952362
48 91 0.09724238514900208
48 92 0.935667872428894
48 93 0.9420298337936401
48 94 0.11576970666646957
48 95 0.9265520572662354
48 96 0.9118182063102722
48 97 0.9333439469337463
48 98 0.9375372529029846
48 99 0.9384735226631165
48 100 0.9458559155464172
48 101 0.9424262642860413
48 102 0.951507568359375
48 103 0.9244837164878845
48 104 0.9407854676246643
48 105 0.4046299457550049
48 106 0.9328892230987549
48 107 0.9249769449234009
48 108 0.08975797891616821
48 109 0.9274152517318726
48 110 0.386028528213501
48 111 0.8879633545875549
48 112 0.9375927448272705
48 113 0.359743595123291
48 114 0.9321305155754089
48 116 0.9368277192115784
48 117 0.9302924871444702
48 118 0.9358853697776794
48 119 0.9287737607955933
48 120 0.8884764909744263
48 121 0.9358853697776794
48 122 0.08751367032527924
48 123 0.3585180938243866
48 124 0.07396255433559418
48 125 0.941636860370636
48 126 0.9384372234344482
48 127 0.9397212266921997
48 128 0.9280943870544434
48 129 0.9384372234344482
48 130 0.9380784630775452
48 131 0.9239912629127502
48 132 0.9337413311004639
48 133 0.9312301278114319
48 134 0.914120078086853
48 135 0.9141498804092407
48 136 0.9355363249778748
48 138 0.9256953597068787
48 139 0.9306465983390808
48 140 0.2017681747674942
48 141 0.09355605393648148
48 142 0.9270473122596741
48 143 0.9382933378219604
48 144 0.9315972328186035
48 146 0.9450424313545227
48 147 0.148520365357399
48 148 0.5238233208656311
48 149 0.9317885637283325
48 150 0.2708612382411957
48 151 0.9306201934814453
48 152 0.9280311465263367
48 153 0.9213544726371765
48 154 0.9419912099838257
48 155 0.9271936416625977
48 156 0.13794086873531342
48 157 0.9407516121864319
48 158 0.9390520453453064
48 159 0.9318132400512695
48 161 0.9402989149093628
48 162 0.16909247636795044
48 163 0.9345065951347351
48 165 0.9329785108566284
48 166 0.9342321753501892
48 167 0.9402080178260803
48 168 0.9387835264205933
48 169 0.9259656071662903
48 170 0.9310516715049744
48 171 0.9385648965835571
48 173 0.9355759024620056
48 174 0.9362897872924805
48 175 0.941162645816803
48 176 0.14178836345672607
48 177 0.14792510867118835
48 178 0.29878368973731995
48 179 0.389297753572464
48 180 0.2810782194137573
48 181 0.9358853697776794
48 182 0.9390163421630859
48 183 0.16584090888500214
48 184 0.21185658872127533
48 185 0.9245205521583557
48 186 0.9372246861457825
48 187 0.9398528337478638
48 188 0.16040199995040894
48 189 0.9433648586273193
48 190 0.9373154640197754
48 191 0.05401461198925972
48 192 0.9275435209274292
48 193 0.6323125958442688
48 194 0.12810689210891724
48 195 0.9387499094009399
48 196 0.14377246797084808
48 197 0.9365289807319641
48 198 0.9409677982330322
48 199 0.11231311410665512
48 200 0.26117733120918274
48 201 0.9374070763587952
48 202 0.9240223169326782
48 203 0.9250707030296326
48 204 0.9276999831199646
48 205 0.9320869445800781
48 206 0.11008711159229279
48 207 0.9281890988349915
48 208 0.42991572618484497
48 209 0.9422357678413391
48 210 0.9434899091720581
48 211 0.0750117152929306
48 212 0.3212727904319763
48 213 0.9422357678413391
48 214 0.9149449467658997
48 215 0.937045693397522
48 216 0.942697286605835
48 217 0.9392743706703186
48 218 0.9349038004875183
48 219 0.9300627708435059
48 220 0.9341423511505127
48 221 0.9312032461166382
48 222 0.9112820029258728
48 223 0.9444236159324646
48 224 0.10914873331785202
48 225 0.9313206672668457
48 226 0.9436675906181335
48 227 0.9356223940849304
48 228 0.11694507300853729
48 229 0.057291146367788315
48 230 0.9435784220695496
48 231 0.9401178956031799
48 232 0.9434899091720581
48 233 0.9354512691497803
48 234 0.12693694233894348
48 235 0.9367834329605103
48 236 0.1500234305858612
48 237 0.9365549683570862
48 238 0.9360650777816772
48 239 0.9488913416862488
48 240 0.9328892230987549
48 241 0.9435784220695496
48 242 0.9242965579032898
48 244 0.9324862360954285
48 246 0.2739260196685791
48 247 0.9287737607955933
48 248 0.9408762454986572
48 249 0.9395399689674377
48 250 0.21179652214050293
48 251 0.11492280662059784
48 252 0.9395399689674377
48 253 0.9131633639335632
48 254 0.9374995231628418
48 255 0.9395110011100769
49 50 0.05337604880332947
49 51 0.9514274001121521
49 52 0.9421297311782837
49 53 0.9311351776123047
49 54 0.20929266512393951
49 55 0.9440274238586426
49 56 0.9449491500854492
49 57 0.9377393126487732
49 58 0.22188007831573486
49 59 0.9482559561729431
49 60 0.9377393126487732
49 61 0.9485240578651428
49 62 0.9473333358764648
49 63 0.9496449828147888
49 64 0.9541837573051453
49 65 0.12659242749214172
49 66 0.9440974593162537
49 67 0.9481911063194275
49 68 0.08089377731084824
49 69 0.9420628547668457
49 70 0.9495648145675659
49 71 0.9484556913375854
49 73 0.9547178149223328
49 74 0.9504336714744568
49 75 0.12543630599975586
49 76 0.9063771367073059
49 77 0.9550984501838684
49 78 0.15689291059970856
49 79 0.3769949674606323
49 80 0.93482905626297
49 81 0.0980580672621727
49 82 0.08869685977697372
49 83 0.9331909418106079
49 84 0.9192673563957214
49 85 0.9466368556022644
49 86 0.9502049088478088
49 87 0.8366608619689941
49 88 0.9394394159317017
49 89 0.94325852394104
49 90 0.179379403591156
49 91 0.11356418579816818
49 92 0.9488825798034668
49 93 0.9529323577880859
49 94 0.12257258594036102
49 95 0.9391025900840759
49 96 0.9131110310554504
49 97 0.9498099684715271
49 98 0.9412768483161926
49 99 0.9526710510253906
49 100 0.9483882188796997
49 101 0.9502049088478088
49 102 0.949713945388794
49 103 0.9391680955886841
49 104 0.952799916267395
49 105 0.418336421251297
49 106 0.9420628547668457
49 107 0.9386013746261597
49 108 0.10840727388858795
49 109 0.9377393126487732
49 110 0.37890470027923584
49 111 0.8985694050788879
49 112 0.954903244972229
49 113 0.3864028751850128
49 114 0.9349700808525085
49 116 0.9510578513145447
49 117 0.9331909418106079
49 118 0.948127269744873
49 119 0.9421975016593933
49 120 0.8990886211395264
49 121 0.9417710900306702
49 122 0.07412493228912354
49 123 0.3486112058162689
49 124 0.058470532298088074
49 125 0.9556536078453064
49 126 0.9475026726722717
49 127 0.952799916267395
49 128 0.9447529911994934
49 129 0.9411364197731018
49 130 0.9501368999481201
49 131 0.9376012086868286
49 132 0.9449491500854492
49 133 0.9414979219436646
49 134 0.9098908305168152
49 135 0.9420114159584045
49 136 0.9383063316345215
49 138 0.9340547919273376
49 139 0.9388037323951721
49 140 0.19439829885959625
49 141 0.08089377731084824
49 142 0.934259831905365
49 143 0.9462094902992249
49 144 0.948127269744873
49 145 0.056613851338624954
49 146 0.9496449828147888
49 147 0.16437631845474243
49 148 0.5404672622680664
49 149 0.9411157369613647
49 150 0.21335144340991974
49 151 0.9428998827934265
49 152 0.9267585873603821
49 153 0.9351271986961365
49 154 0.9435340762138367
49 155 0.9312701225280762
49 156 0.12949463725090027
49 157 0.9433944225311279
49 158 0.9479631185531616
49 159 0.9473792314529419
49 161 0.9491537809371948
49 162 0.16112583875656128
49 163 0.9456472396850586
49 164 0.056613851338624954
49 165 0.9474404454231262
49 166 0.9486256241798401
49 167 0.9532934427261353
49 168 0.9445906281471252
49 169 0.9374667406082153
49 170 0.9403005838394165
49 171 0.9506295919418335
49 173 0.9509301781654358
49 174 0.9390143752098083
49 175 0.9480642676353455
49 176 0.1200961172580719
49 177 0.13155870139598846
49 178 0.3111252188682556
49 179 0.3716106116771698
49 180 0.35427966713905334
49 181 0.9534240365028381
49 182 0.9417014718055725
49 183 0.1699499785900116
49 184 0.20436744391918182
49 185 0.931841254234314
49 186 0.9504336714744568
49 187 0.9445906281471252
49 188 0.1526351422071457
49 189 0.9541837573051453
49 190 0.9462783336639404
49 191 0.0800640732049942
49 192 0.9336903691291809
49 193 0.6522693037986755
49 194 0.10127393156290054
49 195 0.949713945388794
49 196 0.16678109765052795
49 197 0.9403668642044067
49 198 0.9508333802223206
49 199 0.13476791977882385
49 200 0.273497998714447
49 201 0.9484556913375854
49 202 0.9356309175491333
49 203 0.9344011545181274
49 204 0.9411364197731018
49 205 0.9412062168121338
49 206 0.10878565907478333
49 207 0.9416326284408569
49 208 0.4271050989627838
49 209 0.940640926361084
49 210 0.9533582329750061
49 211 0.08647909015417099
49 212 0.2952514886856079
49 213 0.940640926361084
49 214 0.9299914836883545
49 215 0.9450164437294006
49 216 0.9525099992752075
49 217 0.9429702162742615
49 218 0.9450164437294006
49 219 0.9361070394515991
49 220 0.9411364197731018
49 221 0.9476945400238037
49 222 0.9286497235298157
49 223 0.9615074992179871
49 224 0.10785836726427078
49 225 0.9426275491714478
49 226 0.9534904360771179
49 227 0.9447529911994934
49 228 0.09245002269744873
49 229 0.056613851338624954
49 230 0.9544739127159119
49 231 0.9511229991912842
49 232 0.9533582329750061
49 233 0.9414318799972534
49 234 0.11846762150526047
49 235 0.9490638375282288
49 236 0.17295818030834198
49 237 0.9445214867591858
49 238 0.9524844884872437
49 239 0.9513238072395325
49 240 0.9452527165412903
49 241 0.9513238072395325
49 242 0.9358294010162354
49 244 0.9416326284408569
49 246 0.2878198027610779
49 247 0.9485636949539185
49 248 0.9528656601905823
49 249 0.950563371181488
49 250 0.19397857785224915
49 251 0.11356418579816818
49 252 0.9537248611450195
49 253 0.9271939396858215
49 254 0.9495768547058105
49 255 0.9443195462226868
50 51 0.052814774215221405
50 52 0.07959771901369095
50 53 0.08066964894533157
50 55 0.07922215759754181
50 56 0.0661570206284523
50 57 0.06647196412086487
50 58 0.057735029608011246
50 59 0.0660184696316719
50 60 0.07976635545492172
50 61 0.052595172077417374
50 62 0.07905694842338562
50 63 0.06567586958408356
50 64 0.07840625196695328
50 66 0.06594952195882797
50 67 0.07930515706539154
50 69 0.05312127247452736
50 70 0.06633143872022629
50 71 0.06581226736307144
50 73 0.06588079035282135
50 74 0.06594952195882797
50 76 0.06869324296712875
50 77 0.06605302542448044
50 80 0.0800640732049942
50 83 0.0667557343840599
50 84 0.08133397251367569
50 85 0.07926362752914429
50 86 0.06564190238714218
50 87 0.05962848290801048
50 88 0.07963977754116058
50 89 0.05300920084118843
50 92 0.07909814268350601
50 93 0.07864838093519211
50 94 0.20412413775920868
50 95 0.06672006100416183
50 96 0.05483054742217064
50 97 0.07926362752914429
50 98 0.07934675365686417
50 99 0.07897471636533737
50 100 0.07905694842338562
50 101 0.07877027988433838
50 102 0.07872957736253738
50 103 0.07997867465019226
50 104 0.06567586958408356
50 105 0.11547005921602249
50 108 0.12309149652719498
50 109 0.06647196412086487
50 111 0.06936421245336533
50 112 0.06567586958408356
50 113 0.09652341157197952
50 114 0.0665779560804367
50 116 0.07901579141616821
50 117 0.0667557343840599
50 119 0.06626150012016296
50 120 0.05552343279123306
50 121 0.07938841730356216
50 124 0.18257418274879456
50 125 0.07852703332901001
50 126 0.0795137956738472
50 127 0.07881103456020355
50 128 0.06636648625135422
50 129 0.0795137956738472
50 130 0.0788518637418747
50 131 0.07993607223033905
50 132 0.0661570206284523
50 133 0.053149402141571045
50 134 0.06846104562282562
50 135 0.08049523085355759
50 136 0.07972410321235657
50 138 0.053576767444610596
50 139 0.06647196412086487
50 141 0.14433757960796356
50 143 0.07913941890001297
50 144 0.07938841730356216
50 146 0.06567586958408356
50 147 0.2199706733226776
50 149 0.053490474820137024
50 150 0.0969003215432167
50 151 0.07930515706539154
50 152 0.05383818969130516
50 153 0.0803651511669159
50 154 0.0527871735394001
50 155 0.05366348847746849
50 156 0.08512565493583679
50 158 0.0789337083697319
50 159 0.06640159338712692
50 161 0.06564190238714218
50 162 0.14907120168209076
50 163 0.0791807547211647
50 165 0.07959771901369095
50 167 0.0788518637418747
50 168 0.0791807547211647
50 169 0.0667557343840599
50 170 0.0665779560804367
50 171 0.07889275252819061
50 173 0.06598396599292755
50 174 0.05300920084118843
50 175 0.06622661650180817
50 176 0.0833333358168602
50 178 0.11895773559808731
50 180 0.10619884729385376
50 181 0.0661570206284523
50 182 0.07947193831205368
50 185 0.06704316288232803
50 187 0.0791807547211647
50 189 0.07840625196695328
50 190 0.07905694842338562
50 192 0.08014974743127823
50 195 0.06560798734426498
50 197 0.07980868965387344
50 198 0.05243225395679474
50 201 0.07897471636533737
50 202 0.05360563099384308
50 203 0.06661339849233627
50 204 0.0795137956738472
50 205 0.06619179248809814
50 207 0.06629643589258194
50 209 0.07947193831205368
50 210 0.06564190238714218
50 213 0.06622661650180817
50 214 0.06729774177074432
50 215 0.07930515706539154
50 216 0.07852703332901001
50 217 0.07922215759754181
50 218 0.07930515706539154
50 219 0.0665072426199913
50 220 0.0795137956738472
50 221 0.07926362752914429
50 222 0.06759226322174072
50 223 0.06533854454755783
50 225 0.06636648625135422
50 226 0.06550655514001846
50 227 0.07963977754116058
50 230 0.07868894934654236
50 231 0.0789337083697319
50 232 0.06564190238714218
50 237 0.07926362752914429
50 238 0.0660184696316719
50 239 0.07868894934654236
50 240 0.07968190312385559
50 241 0.07868894934654236
50 242 0.06679145991802216
50 244 0.07955572009086609
50 247 0.0795137956738472
50 248 0.06560798734426498
50 249 0.07897471636533737
50 251 0.10910893976688385
50 252 0.05264981463551521
50 253 0.06740773469209671
50 254 0.052595172077417374
50 255 0.05300920084118843
51 52 0.9553443789482117
51 53 0.9351905584335327
51 54 0.20709183812141418
51 55 0.9539749026298523
51 56 0.9538805484771729
51 57 0.9510491490364075
51 58 0.2012513279914856
51 59 0.9581590294837952
51 60 0.9468362927436829
51 61 0.9614666700363159
51 62 0.9572045803070068
51 63 0.9594302773475647
51 64 0.9648550152778625
51 65 0.10855972766876221
51 66 0.956113338470459
51 67 0.9591628909111023
51 68 0.0914778783917427
51 69 0.9521463513374329
51 70 0.9511404633522034
51 71 0.9593372941017151
51 72 0.06468462198972702
51 73 0.9592922329902649
51 74 0.9550684094429016
51 75 0.15169890224933624
51 76 0.9164373874664307
51 77 0.9597071409225464
51 78 0.13583771884441376
51 79 0.37579384446144104
51 80 0.9450845718383789
51 81 0.09702693670988083
51 82 0.08776416629552841
51 83 0.9445320963859558
51 84 0.9278572201728821
51 85 0.9555208086967468
51 86 0.9610141515731812
51 87 0.8408536314964294
51 88 0.9516429901123047
51 89 0.9501376152038574
51 90 0.1719464659690857
51 91 0.12101384997367859
51 92 0.9660586714744568
51 93 0.9616038203239441
51 94 0.12128367274999619
51 95 0.9503702521324158
51 96 0.9197984337806702
51 97 0.9586605429649353
51 98 0.9575705528259277
51 99 0.9666366577148438
51 100 0.9561607241630554
51 101 0.9599741101264954
51 102 0.9605176448822021
51 103 0.9525246024131775
51 104 0.9604708552360535
51 105 0.4345199167728424
51 106 0.9542505741119385
51 107 0.9488064646720886
51 108 0.07801258563995361
51 109 0.9489427208900452
51 110 0.4002527594566345
51 111 0.9056061506271362
51 112 0.9625520706176758
51 113 0.40273112058639526
51 114 0.9462361931800842
51 116 0.958793044090271
51 117 0.9445320963859558
51 118 0.9559770226478577
51 119 0.9564369320869446
51 120 0.9116277098655701
51 121 0.9538805484771729
51 122 0.061121225357055664
51 123 0.3589676022529602
51 124 0.05785568431019783
51 125 0.9632307291030884
51 126 0.958536684513092
51 127 0.9615114331245422
51 128 0.9600552916526794
51 129 0.9522374272346497
51 130 0.9599272608757019
51 131 0.9456844925880432
51 132 0.9517841339111328
51 133 0.9484399557113647
51 134 0.9209326505661011
51 135 0.9437968730926514
51 136 0.9494926333427429
51 138 0.9454551339149475
51 139 0.947889506816864
51 140 0.21208271384239197
51 141 0.06860840320587158
51 142 0.9487628936767578
51 143 0.9550684094429016
51 144 0.9601699113845825
51 145 0.05601852759718895
51 146 0.9604708552360535
51 147 0.1626478135585785
51 148 0.538550078868866
51 149 0.9460510611534119
51 150 0.2686828374862671
51 151 0.9528800845146179
51 152 0.9362065196037292
51 153 0.9433329105377197
51 154 0.9566128253936768
51 155 0.9416711926460266
51 156 0.14836443960666656
51 157 0.9544275999069214
51 158 0.9598813652992249
51 159 0.9510942697525024
51 161 0.9620542526245117
51 162 0.11809742450714111
51 163 0.954521894454956
51 164 0.05601852759718895
51 165 0.9627013206481934
51 166 0.9543818831443787
51 167 0.9630506634712219
51 168 0.9555673599243164
51 169 0.9466475248336792
51 170 0.952565610408783
51 171 0.9635500907897949
51 173 0.9618402123451233
51 174 0.9522374272346497
51 175 0.9527854323387146
51 176 0.15844431519508362
51 177 0.14463920891284943
51 178 0.3015708327293396
51 179 0.3961869776248932
51 180 0.3589676022529602
51 181 0.9570252299308777
51 182 0.9527854323387146
51 183 0.16816285252571106
51 184 0.20715057849884033
51 185 0.9464744329452515
51 186 0.9582032561302185
51 187 0.9597492814064026
51 188 0.16845667362213135
51 189 0.9648550152778625
51 190 0.9582484364509583
51 191 0.0660184696316719
51 192 0.9429210424423218
51 193 0.6680298447608948
51 194 0.12526123225688934
51 195 0.9605176448822021
51 196 0.1711394190788269
51 197 0.9473387598991394
51 198 0.9616038203239441
51 199 0.11766243726015091
51 200 0.26681044697761536
51 201 0.9582945704460144
51 202 0.9417176246643066
51 203 0.9446290731430054
51 204 0.9553869962692261
51 205 0.9512355923652649
51 206 0.11661186069250107
51 207 0.9527395367622375
51 208 0.4338535666465759
51 209 0.9527854323387146
51 210 0.9610141515731812
51 211 0.08556970953941345
51 212 0.3109949231147766
51 213 0.9527854323387146
51 214 0.9426043033599854
51 215 0.9602099657058716
51 216 0.9642676711082458
51 217 0.9560669660568237
51 218 0.9539272785186768
51 219 0.9473387598991394
51 220 0.9543371796607971
51 221 0.9544742703437805
51 222 0.9317360520362854
51 223 0.9710664749145508
51 224 0.1295936554670334
51 225 0.9516429901123047
51 226 0.9694117903709412
51 227 0.9495399594306946
51 228 0.13721680641174316
51 230 0.9641777873039246
51 231 0.9577968716621399
51 232 0.9599741101264954
51 233 0.9515538811683655
51 234 0.1310126781463623
51 235 0.9506386518478394
51 236 0.1711394190788269
51 237 0.9586605429649353
51 238 0.9623430967330933
51 239 0.9620998501777649
51 240 0.9510942697525024
51 241 0.9620998501777649
51 242 0.9450376629829407
51 244 0.9516890645027161
51 246 0.2983548045158386
51 247 0.9522374272346497
51 248 0.9605176448822021
51 249 0.961422860622406
51 250 0.20204082131385803
51 251 0.11236999928951263
51 252 0.9582945704460144
51 253 0.9377366304397583
51 254 0.9625083804130554
51 255 0.9553869962692261
52 53 0.9342730045318604
52 54 0.20299862325191498
52 55 0.9490385055541992
52 56 0.9520833492279053
52 57 0.943917453289032
52 58 0.20680095255374908
52 59 0.9574463963508606
52 60 0.9481502771377563
52 61 0.9534652829170227
52 62 0.9512544870376587
52 63 0.9566598534584045
52 64 0.9600675702095032
52 65 0.12585505843162537
52 66 0.9553964734077454
52 67 0.9521368741989136
52 68 0.09191153198480606
52 69 0.9460893273353577
52 70 0.9461457133293152
52 71 0.9544559121131897
52 73 0.9523032307624817
52 74 0.9532967209815979
52 75 0.15241803228855133
52 76 0.9196882843971252
52 77 0.9568959474563599
52 78 0.11048515886068344
52 79 0.36647018790245056
52 80 0.9421297311782837
52 81 0.09748690575361252
52 82 0.09797801822423935
52 83 0.9447588920593262
52 84 0.9300978183746338
52 85 0.9537413716316223
52 86 0.9593000411987305
52 87 0.8531458377838135
52 88 0.9508717656135559
52 89 0.9462029933929443
52 90 0.1671886444091797
52 91 0.1129027009010315
52 92 0.9569969177246094
52 93 0.9588587880134583
52 94 0.10561081022024155
52 95 0.9463783502578735
52 96 0.9121567606925964
52 97 0.9526897668838501
52 98 0.9515836834907532
52 99 0.9575989842414856
52 100 0.9523032307624817
52 101 0.9561650156974792
52 102 0.9556710124015808
52 103 0.9453688859939575
52 104 0.9545688033103943
52 105 0.4480687379837036
52 106 0.9450322389602661
52 107 0.9469348192214966
52 108 0.10777582228183746
52 109 0.944975733757019
52 110 0.38687869906425476
52 111 0.9010652303695679
52 112 0.9587509036064148
52 113 0.3918352723121643
52 114 0.9443626403808594
52 116 0.9549524188041687
52 117 0.9415706992149353
52 118 0.9489237666130066
52 119 0.952532172203064
52 120 0.9060054421424866
52 121 0.9499769806861877
52 122 0.0736931711435318
52 123 0.32967427372932434
52 124 0.07266244292259216
52 125 0.9636300802230835
52 126 0.9504224061965942
52 127 0.9556143283843994
52 128 0.9508717656135559
52 129 0.9462029933929443
52 130 0.9571554064750671
52 131 0.943804919719696
52 132 0.9510301947593689
52 133 0.9476478695869446
52 134 0.9198490977287292
52 135 0.9429316520690918
52 136 0.9497632384300232
52 138 0.9392756223678589
52 139 0.943917453289032
52 140 0.19822150468826294
52 141 0.08042258769273758
52 142 0.9426333904266357
52 143 0.9511969089508057
52 144 0.9510301947593689
52 145 0.056284088641405106
52 146 0.9545688033103943
52 147 0.16925525665283203
52 148 0.5146155953407288
52 149 0.9377627372741699
52 150 0.2583869695663452
52 151 0.953188955783844
52 152 0.9352880120277405
52 153 0.9371433854103088
52 154 0.9527442455291748
52 155 0.9354565739631653
52 156 0.12196454405784607
52 157 0.9515836834907532
52 158 0.9539601802825928
52 159 0.9460893273353577
52 161 0.9582550525665283
52 162 0.14832159876823425
52 163 0.9506433606147766
52 164 0.056284088641405106
52 165 0.9482576847076416
52 166 0.9525837898254395
52 167 0.9550632834434509
52 168 0.9558955430984497
52 169 0.943696141242981
52 170 0.9486021995544434
52 171 0.9545118808746338
52 173 0.9527442455291748
52 174 0.947257936000824
52 175 0.9488677978515625
52 176 0.13266287744045258
52 177 0.1380586475133896
52 178 0.32193800806999207
52 179 0.3902599513530731
52 180 0.355033814907074
52 181 0.9510301947593689
52 182 0.9478135108947754
52 183 0.15085719525814056
52 184 0.21308811008930206
52 185 0.9466921091079712
52 186 0.9522468447685242
52 187 0.9537946581840515
52 188 0.15758247673511505
52 189 0.9600675702095032
52 190 0.9544007778167725
52 191 0.06633143872022629
52 192 0.941011369228363
52 193 0.6727118492126465
52 194 0.07551303505897522
52 195 0.9598488211631775
52 196 0.16580963134765625
52 197 0.9423008561134338
52 198 0.9599021077156067
52 199 0.12610158324241638
52 200 0.2604160010814667
52 201 0.9617897868156433
52 202 0.9344480037689209
52 203 0.945925772190094
52 204 0.9451481699943542
52 205 0.9494225382804871
52 206 0.09913934767246246
52 207 0.9456465244293213
52 208 0.4381689131259918
52 209 0.9499220848083496
52 210 0.9582550525665283
52 211 0.08597537130117416
52 212 0.3124692440032959
52 213 0.9478135108947754
52 214 0.9352880120277405
52 215 0.9489806294441223
52 216 0.9605047702789307
52 217 0.9500894546508789
52 218 0.9510847926139832
52 219 0.9465359449386597
52 220 0.9462029933929443
52 221 0.95058673620224
52 222 0.9264686703681946
52 223 0.9652683138847351
52 224 0.13020800054073334
52 225 0.9466456770896912
52 226 0.964621901512146
52 227 0.947702169418335
52 228 0.13020800054073334
52 230 0.9603973031044006
52 231 0.9539601802825928
52 232 0.9572100639343262
52 233 0.9433596134185791
52 234 0.14548993110656738
52 235 0.9540898203849792
52 236 0.17195074260234833
52 237 0.9516382813453674
52 238 0.9532424211502075
52 239 0.9572656154632568
52 240 0.9439752101898193
52 241 0.9614412784576416
52 242 0.9378214478492737
52 244 0.9498682022094727
52 245 0.07266244292259216
52 246 0.29295626282691956
52 247 0.947257936000824
52 248 0.9567155241966248
52 249 0.9534081220626831
52 250 0.19284869730472565
52 251 0.12158752232789993
52 252 0.9534081220626831
52 253 0.9368165731430054
52 254 0.9555584788322449
52 255 0.952532172203064
53 54 0.19030243158340454
53 55 0.93732088804245
53 56 0.937153160572052
53 57 0.927672803401947
53 58 0.2049284428358078
53 59 0.9383860230445862
53 60 0.9298177361488342
53 61 0.942969799041748
53 62 0.9438693523406982
53 63 0.9430527687072754
53 64 0.9476965665817261
53 65 0.1275499016046524
53 66 0.9384699463844299
53 67 0.9361702799797058
53 68 0.06986196339130402
53 69 0.9427604079246521
53 70 0.9321326613426208
53 71 0.9418258666992188
53 72 0.06586649268865585
53 73 0.9385547041893005
53 74 0.9384699463844299
53 75 0.13340644538402557
53 76 0.8954999446868896
53 77 0.9367457628250122
53 78 0.16466623544692993
53 79 0.3854737877845764
53 80 0.9365174770355225
53 81 0.08782198280096054
53 82 0.06950823217630386
53 83 0.9337870478630066
53 84 0.9109109044075012
53 85 0.9388771653175354
53 86 0.9446831345558167
53 87 0.8333685994148254
53 88 0.9326251745223999
53 89 0.9364951848983765
53 90 0.19203217327594757
53 91 0.11442313343286514
53 92 0.9411709904670715
53 93 0.9442785382270813
53 94 0.1152663603425026
53 95 0.9268293380737305
53 96 0.8990073800086975
53 97 0.9431399703025818
53 98 0.9366613030433655
53 99 0.9428877234458923
53 100 0.9406805634498596
53 101 0.9457422494888306
53 102 0.94313645362854
53 103 0.9344431757926941
53 104 0.9441123604774475
53 105 0.45177406072616577
53 106 0.9363324046134949
53 107 0.9349416494369507
53 108 0.08936772495508194
53 109 0.9319626092910767
53 110 0.3533957600593567
53 111 0.8908173441886902
53 112 0.9494103789329529
53 113 0.3581794798374176
53 114 0.9280776977539062
53 116 0.9423157572746277
53 117 0.9240937232971191
53 118 0.9414226412773132
53 119 0.9322189092636108
53 120 0.8913320899009705
53 121 0.937153160572052
53 122 0.08713317662477493
53 123 0.35124796628952026
53 124 0.07364097982645035
53 125 0.9502122402191162
53 126 0.9311498999595642
53 127 0.9419931769371033
53 128 0.9326251745223999
53 129 0.9322189092636108
53 130 0.9467217326164246
53 131 0.9371696710586548
53 132 0.9360857605934143
53 133 0.9357563257217407
53 134 0.9068319201469421
53 135 0.926409125328064
53 136 0.9325406551361084
53 138 0.927073061466217
53 139 0.9319626092910767
53 140 0.19586864113807678
53 141 0.06986196339130402
53 142 0.9251707196235657
53 143 0.9374059438705444
53 144 0.9403553009033203
53 146 0.9419931769371033
53 147 0.13012969493865967
53 148 0.5177108645439148
53 149 0.9223434925079346
53 150 0.25795817375183105
53 151 0.9383028149604797
53 152 0.9196531176567078
53 153 0.9422001242637634
53 154 0.9378955960273743
53 155 0.926409125328064
53 156 0.11673996597528458
53 157 0.9366613030433655
53 158 0.9423980712890625
53 159 0.9320471882820129
53 161 0.9436240792274475
53 162 0.18038281798362732
53 163 0.9421539306640625
53 164 0.05704205483198166
53 165 0.9332028031349182
53 166 0.9355099201202393
53 167 0.9424811005592346
53 168 0.9378955960273743
53 169 0.9316329956054688
53 170 0.9291519522666931
53 171 0.94190913438797
53 173 0.943218469619751
53 174 0.9364951848983765
53 175 0.9381391406059265
53 176 0.12100447714328766
53 177 0.11046146601438522
53 178 0.31987595558166504
53 179 0.33486977219581604
53 180 0.36552634835243225
53 181 0.9382205605506897
53 182 0.9413446187973022
53 183 0.14065766334533691
53 184 0.21093547344207764
53 185 0.9269909858703613
53 186 0.9459181427955627
53 187 0.936830997467041
53 188 0.18336455523967743
53 189 0.9508591294288635
53 190 0.9406805634498596
53 191 0.06722471117973328
53 192 0.9278210997581482
53 193 0.6525961756706238
53 194 0.08503327518701553
53 195 0.9526631236076355
53 196 0.1493711620569229
53 197 0.9367491602897644
53 198 0.9442785382270813
53 199 0.1357872486114502
53 200 0.25616052746772766
53 201 0.9460731148719788
53 202 0.9286535382270813
53 203 0.9264222979545593
53 204 0.9322189092636108
53 205 0.9344419836997986
53 206 0.0822063535451889
53 207 0.9316408038139343
53 208 0.4394915997982025
53 209 0.931728184223175
53 210 0.9446831345558167
53 211 0.08713317662477493
53 212 0.33586978912353516
53 213 0.9381391406059265
53 214 0.9207388758659363
53 215 0.9372366070747375
53 216 0.944933295249939
53 217 0.93732088804245
53 218 0.9436340928077698
53 219 0.9324570894241333
53 220 0.9311498999595642
53 221 0.9431399703025818
53 222 0.9182252287864685
53 223 0.9508591294288635
53 224 0.13972392678260803
53 225 0.933695912361145
53 226 0.9480196833610535
53 227 0.9347666501998901
53 228 0.11643660813570023
53 229 0.05704205483198166
53 230 0.9468816518783569
53 231 0.9413367509841919
53 232 0.9457422494888306
53 233 0.9292380809783936
53 234 0.14744922518730164
53 235 0.9380585551261902
53 236 0.16804255545139313
53 237 0.9410085082054138
53 238 0.9383860230445862
53 239 0.9426497220993042
53 240 0.9341897964477539
53 241 0.9458236694335938
53 242 0.9256658554077148
53 244 0.9359193444252014
53 245 0.07364097982645035
53 246 0.28999677300453186
53 247 0.9354261159896851
53 248 0.9484290480613708
53 249 0.9407640695571899
53 250 0.1851591318845749
53 251 0.12322491407394409
53 252 0.9397022724151611
53 253 0.9265939593315125
53 254 0.9440305233001709
53 255 0.9364951848983765
54 55 0.19193877279758453
54 56 0.19234159588813782
54 57 0.19325725734233856
54 58 0.11043153703212738
54 59 0.1868877410888672
54 60 0.1830858290195465
54 61 0.19617070257663727
54 62 0.1864980012178421
54 63 0.2060171514749527
54 64 0.20495902001857758
54 66 0.20182982087135315
54 67 0.2073087990283966
54 68 0.05521576479077339
54 69 0.1778116375207901
54 70 0.19792364537715912
54 71 0.19637452065944672
54 73 0.2016194611787796
54 74 0.20182982087135315
54 76 0.17869263887405396
54 77 0.1970929056406021
54 79 0.17345672845840454
54 80 0.17355976998806
54 82 0.14126446843147278
54 83 0.15322284400463104
54 84 0.20742659270763397
54 85 0.20214657485485077
54 86 0.17577733099460602
54 87 0.17107978463172913
54 88 0.18787294626235962
54 89 0.19771498441696167
54 91 0.12521758675575256
54 92 0.20676766335964203
54 93 0.2005774974822998
54 95 0.1786644607782364
54 96 0.15207023918628693
54 97 0.19203925132751465
54 98 0.18718168139457703
54 99 0.20644500851631165
54 100 0.1965789645910263
54 101 0.20088838040828705
54 102 0.19576497375965118
54 103 0.20397017896175385
54 104 0.2060171514749527
54 105 0.07730206847190857
54 106 0.1778116375207901
54 107 0.188773050904274
54 109 0.198342964053154
54 110 0.18348710238933563
54 111 0.20697301626205444
54 112 0.20099234580993652
54 113 0.09846573323011398
54 114 0.16809625923633575
54 116 0.20151452720165253
54 117 0.199189692735672
54 118 0.18727996945381165
54 119 0.20785421133041382
54 120 0.19116242229938507
54 121 0.19234159588813782
54 123 0.14896181225776672
54 125 0.20527474582195282
54 126 0.20278461277484894
54 127 0.20099234580993652
54 128 0.2031058967113495
54 129 0.1926453709602356
54 130 0.20109646022319794
54 131 0.2038615196943283
54 132 0.18727996945381165
54 133 0.2033209353685379
54 134 0.17285068333148956
54 135 0.20528754591941833
54 136 0.1880718469619751
54 138 0.2049558013677597
54 139 0.19325725734233856
54 142 0.16854511201381683
54 143 0.1766010820865631
54 144 0.20752644538879395
54 145 0.09016696363687515
54 146 0.20099234580993652
54 147 0.14024817943572998
54 148 0.10002066940069199
54 149 0.19951002299785614
54 150 0.07413766533136368
54 151 0.20225249230861664
54 152 0.18536026775836945
54 153 0.18958410620689392
54 154 0.1867900937795639
54 155 0.16423003375530243
54 157 0.19729959964752197
54 158 0.19123990833759308
54 159 0.2082936316728592
54 161 0.18079954385757446
54 163 0.19183848798274994
54 165 0.20807358622550964
54 166 0.20257125794887543
54 167 0.20612385869026184
54 168 0.20698362588882446
54 169 0.20429712533950806
54 170 0.19865922629833221
54 171 0.2062307447195053
54 173 0.20698362588882446
54 174 0.20785421133041382
54 175 0.17227616906166077
54 178 0.09101361036300659
54 180 0.06770991533994675
54 181 0.20752644538879395
54 182 0.17734310030937195
54 184 0.09526509791612625
54 185 0.1949179470539093
54 186 0.20182982087135315
54 187 0.1867900937795639
54 188 0.05609927326440811
54 189 0.19496101140975952
54 190 0.1764170229434967
54 192 0.2044064700603485
54 195 0.2007845938205719
54 197 0.16282932460308075
54 198 0.19556304812431335
54 201 0.19133928418159485
54 202 0.18455958366394043
54 203 0.19876497983932495
54 204 0.20278461277484894
54 205 0.1873784065246582
54 207 0.2028915286064148
54 208 0.09769343584775925
54 209 0.17227616906166077
54 210 0.2059105783700943
54 212 0.15168936550617218
54 213 0.1672092080116272
54 214 0.19565807282924652
54 215 0.1921398639678955
54 216 0.20527474582195282
54 217 0.19193877279758453
54 218 0.19719617068767548
54 219 0.1882713884115219
54 220 0.1723669171333313
54 221 0.20720022916793823
54 222 0.20685720443725586
54 223 0.20495902001857758
54 225 0.19802823662757874
54 226 0.19546231627464294
54 227 0.1777176409959793
54 228 0.11043151468038559
54 230 0.18562988936901093
54 231 0.20130516588687897
54 232 0.2059105783700943
54 233 0.19844822585582733
54 235 0.19781923294067383
54 236 0.05902813747525215
54 237 0.1869855672121048
54 238 0.20204082131385803
54 239 0.1956639289855957
54 240 0.1981329619884491
54 241 0.20569798350334167
54 242 0.19418615102767944
54 244 0.19274695217609406
54 247 0.18757575750350952
54 248 0.19576497375965118
54 249 0.19637452065944672
54 252 0.20644500851631165
54 253 0.20113515853881836
54 254 0.2012007236480713
54 255 0.18757575750350952
55 56 0.9538805484771729
55 57 0.9489427208900452
55 58 0.21497300267219543
55 59 0.9560669660568237
55 60 0.9499959349632263
55 61 0.9635500907897949
55 62 0.9582484364509583
55 63 0.9615114331245422
55 64 0.967960774898529
55 65 0.11691047996282578
55 66 0.9602930545806885
55 67 0.9560214877128601
55 68 0.0914778783917427
55 69 0.9510942697525024
55 70 0.9553443789482117
55 71 0.9582945704460144
55 73 0.9561607241630554
55 74 0.956113338470459
55 75 0.15169890224933624
55 76 0.922967791557312
55 77 0.9555208086967468
55 78 0.14230617880821228
55 79 0.35092511773109436
55 80 0.9461416602134705
55 81 0.09702693670988083
55 82 0.09751573950052261
55 83 0.9445320963859558
55 84 0.9364485144615173
55 85 0.9576139450073242
55 86 0.9641343355178833
55 87 0.853844404220581
55 88 0.9495399594306946
55 89 0.9532873034477234
55 90 0.1774931401014328
55 91 0.11236999928951263
55 92 0.9577035307884216
55 93 0.962642252445221
55 94 0.12936924397945404
55 95 0.9440274238586426
55 96 0.9230562448501587
55 97 0.9555208086967468
55 98 0.9586182236671448
55 99 0.9582945704460144
55 100 0.9592922329902649
55 101 0.9630942940711975
55 102 0.9667548537254333
55 103 0.9483005404472351
55 104 0.9604708552360535
55 105 0.4459546208381653
55 106 0.9489901065826416
55 107 0.9435235857963562
55 108 0.06826101243495941
55 109 0.9521023631095886
55 110 0.4053192734718323
55 111 0.908903181552887
55 112 0.9604708552360535
55 113 0.384888619184494
55 114 0.9494009017944336
55 116 0.9577497839927673
55 117 0.9477052092552185
55 118 0.9528323411941528
55 119 0.9532873034477234
55 120 0.9105280637741089
55 121 0.9570252299308777
55 122 0.08556970953941345
55 123 0.3505542576313019
55 124 0.07231960445642471
55 125 0.9653044939041138
55 126 0.9553869962692261
55 127 0.9604708552360535
55 128 0.9484884142875671
55 129 0.9574868083000183
55 130 0.9620094895362854
55 131 0.946739912033081
55 132 0.9528323411941528
55 133 0.9473873376846313
55 134 0.9209326505661011
55 135 0.9395455718040466
55 136 0.9494926333427429
55 138 0.9454551339149475
55 139 0.9521023631095886
55 140 0.18742194771766663
55 141 0.0914778783917427
55 142 0.9466475248336792
55 143 0.9582032561302185
55 144 0.9517841339111328
55 146 0.9625520706176758
55 147 0.16845667362213135
55 148 0.5253687500953674
55 149 0.9449915885925293
55 150 0.26484453678131104
55 151 0.9528800845146179
55 152 0.945803165435791
55 153 0.9454551339149475
55 154 0.9576583504676819
55 155 0.9437968730926514
55 156 0.14836443960666656
55 157 0.9544275999069214
55 158 0.9650924205780029
55 159 0.9521463513374329
55 161 0.9682945609092712
55 162 0.17714613676071167
55 163 0.954521894454956
55 164 0.05601852759718895
55 165 0.9500894546508789
55 166 0.9512355923652649
55 167 0.9599272608757019
55 168 0.9566128253936768
55 169 0.9455897808074951
55 170 0.9504557847976685
55 171 0.958341658115387
55 173 0.9566128253936768
55 174 0.9501376152038574
55 175 0.9548840522766113
55 176 0.15844431519508362
55 177 0.13740724325180054
55 178 0.3047122061252594
55 179 0.39877644181251526
55 180 0.3505542576313019
55 181 0.9528323411941528
55 182 0.9517361521720886
55 183 0.16816285252571106
55 184 0.17262546718120575
55 185 0.9422253966331482
55 186 0.956113338470459
55 187 0.9566128253936768
55 188 0.18007436394691467
55 189 0.9658902287483215
55 190 0.9592922329902649
55 191 0.0660184696316719
55 192 0.9429210424423218
55 193 0.6650139093399048
55 194 0.12526123225688934
55 195 0.9625967144966125
55 196 0.1711394190788269
55 197 0.9483925104141235
55 198 0.9647191166877747
55 199 0.10197411477565765
55 200 0.24012939631938934
55 201 0.9582945704460144
55 202 0.9417176246643066
55 203 0.946739912033081
55 204 0.9532873034477234
55 205 0.9543818831443787
55 206 0.11661186069250107
55 207 0.9527395367622375
55 208 0.4428453743457794
55 209 0.9548840522766113
55 210 0.9599741101264954
55 211 0.061121225357055664
55 212 0.3172776401042938
55 213 0.9569827318191528
55 214 0.9415379762649536
55 215 0.9539272785186768
55 216 0.9684149622917175
55 217 0.9560669660568237
55 218 0.9528800845146179
55 219 0.9547151327133179
55 220 0.9574868083000183
55 221 0.9544742703437805
55 222 0.9338779449462891
55 223 0.9648550152778625
55 224 0.13721680641174316
55 225 0.9505914449691772
55 226 0.9631842970848083
55 227 0.9516429901123047
55 228 0.12197049707174301
55 229 0.05601852759718895
55 230 0.9620998501777649
55 231 0.961965799331665
55 232 0.9620542526245117
55 233 0.9505001306533813
55 234 0.15169890224933624
55 235 0.9506386518478394
55 236 0.13446669280529022
55 237 0.9544742703437805
55 238 0.9539749026298523
55 239 0.9652168154716492
55 240 0.950042188167572
55 241 0.9641777873039246
55 242 0.9492706656455994
55 244 0.9495882391929626
55 245 0.07231960445642471
55 246 0.27462199330329895
55 247 0.9511874914169312
55 248 0.9625967144966125
55 249 0.9593372941017151
55 250 0.19698978960514069
55 251 0.10372615605592728
55 252 0.9582945704460144
55 253 0.9388047456741333
55 254 0.9614666700363159
55 255 0.9532873034477234
56 57 0.9509342312812805
56 58 0.22000762820243835
56 59 0.9559770226478577
56 60 0.9519897103309631
56 61 0.9582651853561401
56 62 0.9571213722229004
56 63 0.9593581557273865
56 64 0.9627301692962646
56 65 0.1255241185426712
56 66 0.9581198692321777
56 67 0.9538305401802063
56 68 0.09166985005140305
56 69 0.9488730430603027
56 70 0.9489237666130066
56 71 0.9592607021331787
56 72 0.06482037156820297
56 73 0.955029308795929
56 74 0.9570727944374084
56 75 0.1520172506570816
56 76 0.918360710144043
56 77 0.9533310532569885
56 78 0.1555688977241516
56 79 0.3710445463657379
56 80 0.948127269744873
56 81 0.09723056107759476
56 82 0.09772038459777832
56 83 0.9443944096565247
56 84 0.9298044443130493
56 85 0.9512335062026978
56 86 0.9588619470596313
56 87 0.8532693386077881
56 88 0.9473177194595337
56 89 0.9489754438400269
56 90 0.18342392146587372
56 91 0.09528185427188873
56 92 0.9555270671844482
56 93 0.9625812768936157
56 94 0.11343564838171005
56 95 0.9502459764480591
56 96 0.9195522665977478
56 97 0.9564773440361023
56 98 0.950131356716156
56 99 0.9582157731056213
56 100 0.9539833068847656
56 101 0.9599042534828186
56 102 0.9594083428382874
56 103 0.9418247938156128
56 104 0.9572726488113403
56 105 0.45147401094436646
56 106 0.9488730430603027
56 107 0.9455036520957947
56 108 0.06840426474809647
56 109 0.9509342312812805
56 110 0.39601564407348633
56 111 0.9075066447257996
56 112 0.9583154320716858
56 113 0.3959134519100189
56 114 0.9482219815254211
56 116 0.9587142467498779
56 117 0.9422745704650879
56 118 0.9516806602478027
56 119 0.9521316289901733
56 120 0.9091330170631409
56 121 0.9548319578170776
56 122 0.08574929088354111
56 123 0.3400487005710602
56 124 0.0579771026968956
56 125 0.9610961675643921
56 126 0.9489754438400269
56 127 0.9593581557273865
56 128 0.9462639689445496
56 129 0.9489754438400269
56 130 0.9650717973709106
56 131 0.9487267732620239
56 132 0.950630247592926
56 133 0.9462109208106995
56 134 0.9163433313369751
56 135 0.9393871426582336
56 136 0.9483206868171692
56 138 0.938932478427887
56 139 0.9488233923912048
56 140 0.18287275731563568
56 141 0.06875238567590714
56 142 0.9433345198631287
56 143 0.9549785256385803
56 144 0.950630247592926
56 146 0.9614437818527222
56 147 0.14552603662014008
56 148 0.5094884037971497
56 149 0.9384817481040955
56 150 0.26155394315719604
56 151 0.9527812004089355
56 152 0.9338971376419067
56 153 0.938932478427887
56 154 0.9628110527992249
56 155 0.9415172934532166
56 156 0.155433788895607
56 157 0.9564306139945984
56 158 0.956673800945282
56 159 0.9467644691467285
56 161 0.9630309343338013
56 162 0.15384884178638458
56 163 0.9544297456741333
56 164 0.05613608658313751
56 165 0.9489237666130066
56 166 0.9500789642333984
56 167 0.9598551392555237
56 168 0.9554774165153503
56 169 0.9412146806716919
56 170 0.9535075426101685
56 171 0.9572213292121887
56 173 0.9575726985931396
56 174 0.9510795474052429
56 175 0.9526818990707397
56 176 0.15877683460712433
56 177 0.13044849038124084
56 178 0.3116476237773895
56 179 0.39182865619659424
56 180 0.359720915555954
56 181 0.9548319578170776
56 182 0.9484758377075195
56 183 0.16851577162742615
56 184 0.2026427835226059
56 185 0.9473962783813477
56 186 0.9570727944374084
56 187 0.9554774165153503
56 188 0.1746312379837036
56 189 0.9637675881385803
56 190 0.9602594971656799
56 191 0.07938841730356216
56 192 0.9417184591293335
56 193 0.6558315753936768
56 194 0.11715584248304367
56 195 0.9583665728569031
56 196 0.17149858176708221
56 197 0.9472148418426514
56 198 0.964662492275238
56 199 0.12577000260353088
56 200 0.21771588921546936
56 201 0.957170844078064
56 202 0.9426300525665283
56 203 0.9497844576835632
56 204 0.9500274658203125
56 205 0.9542828798294067
56 206 0.10786762088537216
56 207 0.9505284428596497
56 208 0.43926939368247986
56 209 0.949527382850647
56 210 0.9630309343338013
56 211 0.08574929088354111
56 212 0.32738736271858215
56 213 0.9505788683891296
56 214 0.9349657297134399
56 215 0.9548798203468323
56 216 0.9662913084030151
56 217 0.9528323411941528
56 218 0.9517319202423096
56 219 0.9493268728256226
56 220 0.9489754438400269
56 221 0.9522823095321655
56 222 0.9293985962867737
56 223 0.9627301692962646
56 224 0.1298656165599823
56 225 0.9504789710044861
56 226 0.9620854258537292
56 227 0.9494251608848572
56 228 0.11458730697631836
56 229 0.05613608658313751
56 230 0.9599543213844299
56 231 0.9556293487548828
56 232 0.9599042534828186
56 233 0.9461588859558105
56 234 0.13128761947155
56 235 0.9526336789131165
56 236 0.15312373638153076
56 237 0.9533310532569885
56 238 0.9528323411941528
56 239 0.9599543213844299
56 240 0.9478187561035156
56 241 0.9662013053894043
56 242 0.9448999166488647
56 244 0.9473704695701599
56 245 0.07247138023376465
56 246 0.2751983404159546
56 247 0.9500274658203125
56 248 0.9604499936103821
56 249 0.9582157731056213
56 250 0.20752644538879395
56 251 0.103943832218647
56 252 0.957170844078064
56 253 0.9354235529899597
56 254 0.9634844660758972
56 255 0.9479233026504517
57 58 0.2210550159215927
57 59 0.9468362927436829
57 60 0.9437963962554932
57 61 0.9533876776695251
57 62 0.9543207883834839
57 63 0.9544957280158997
57 64 0.95793217420578
57 65 0.1177135780453682
57 66 0.9563685655593872
57 67 0.9478282332420349
57 68 0.09210626035928726
57 69 0.9480937123298645
57 70 0.943917453289032
57 71 0.9564780592918396
57 72 0.06512895971536636
57 73 0.9522187113761902
57 74 0.94795161485672
57 75 0.13885541260242462
57 76 0.9172532558441162
57 77 0.9483855962753296
57 78 0.14979663491249084
57 79 0.33942490816116333
57 80 0.9388037323951721
57 81 0.09769343584775925
57 82 0.09818560630083084
57 83 0.9403705596923828
57 84 0.9244993329048157
57 85 0.9483855962753296
57 86 0.9540020823478699
57 87 0.8549533486366272
57 88 0.9444162249565125
57 89 0.9439794421195984
57 90 0.16195811331272125
57 91 0.12184513360261917
57 92 0.9495604634284973
57 93 0.9567079544067383
57 94 0.10583455860614777
57 95 0.94093257188797
57 96 0.9228365421295166
57 97 0.9483855962753296
57 98 0.9493802785873413
57 99 0.9522783756256104
57 100 0.9532697796821594
57 101 0.9540020823478699
57 102 0.9556024670600891
57 103 0.9378023743629456
57 104 0.9544957280158997
57 105 0.4398074150085449
57 106 0.945975124835968
57 107 0.9393664598464966
57 108 0.07854848355054855
57 109 0.9427359700202942
57 110 0.40555286407470703
57 111 0.904080867767334
57 112 0.9524002075195312
57 113 0.39266541600227356
57 114 0.9484876990318298
57 116 0.9506727457046509
57 117 0.938240647315979
57 118 0.9456571340560913
57 119 0.9439794421195984
57 120 0.9090321660041809
57 121 0.9488233923912048
57 122 0.08615751564502716
57 123 0.3614334166049957
57 124 0.05825311318039894
57 125 0.9562759399414062
57 126 0.9439794421195984
57 127 0.9576389193534851
57 128 0.9444162249565125
57 129 0.9513790011405945
57 130 0.9549901485443115
57 131 0.9415537118911743
57 132 0.9446017146110535
57 133 0.9411765933036804
57 134 0.9163370132446289
57 135 0.9320878386497498
57 136 0.9432963728904724
57 138 0.9391288757324219
57 139 0.9469777941703796
57 140 0.21353958547115326
57 141 0.08059297502040863
57 142 0.9414355754852295
57 143 0.9563685655593872
57 144 0.9456571340560913
57 145 0.05640333145856857
57 146 0.9586866497993469
57 147 0.17546260356903076
57 148 0.5194978713989258
57 149 0.9354827404022217
57 150 0.27052849531173706
57 151 0.9457195997238159
57 152 0.9383431077003479
57 153 0.9337868094444275
57 154 0.9558154344558716
57 155 0.9406489133834839
57 156 0.14259344339370728
57 157 0.953599750995636
57 158 0.9528331756591797
57 159 0.945975124835968
57 161 0.9571436047554016
57 162 0.15458126366138458
57 163 0.9484468102455139
57 164 0.05640333145856857
57 165 0.9428592920303345
57 166 0.9461541771888733
57 167 0.9518452286720276
57 168 0.9473941326141357
57 169 0.9393056035041809
57 170 0.9442391395568848
57 171 0.9554853439331055
57 173 0.9558154344558716
57 174 0.9471506476402283
57 175 0.944538950920105
57 176 0.1528855264186859
57 177 0.12378786504268646
57 178 0.31313127279281616
57 179 0.4067302346229553
57 180 0.35860970616340637
57 181 0.9467125535011292
57 182 0.9477085471153259
57 183 0.1632709503173828
57 184 0.18870940804481506
57 185 0.9347935914993286
57 186 0.955316424369812
57 187 0.9505521655082703
57 188 0.1637651026248932
57 189 0.9600169062614441
57 190 0.9532697796821594
57 191 0.07976635545492172
57 192 0.9398083090782166
57 193 0.6422522068023682
57 194 0.1177135780453682
57 195 0.9535091519355774
57 196 0.14769859611988068
57 197 0.9411141872406006
57 198 0.957753598690033
57 199 0.11057265102863312
57 200 0.21491460502147675
57 201 0.9533282518386841
57 202 0.9342897534370422
57 203 0.94261634349823
57 204 0.9439794421195984
57 205 0.9472101330757141
57 206 0.10838113725185394
57 207 0.9455347657203674
57 208 0.40967318415641785
57 209 0.9487650990486145
57 210 0.9540020823478699
57 211 0.07384929805994034
57 212 0.31313127279281616
57 213 0.944538950920105
57 214 0.9329749941825867
57 215 0.9499368667602539
57 216 0.9604517817497253
57 217 0.9499959349632263
57 218 0.9457195997238159
57 219 0.9453582763671875
57 220 0.9460935592651367
57 221 0.9462780952453613
57 222 0.925196647644043
57 223 0.9589744806289673
57 224 0.1381593942642212
57 225 0.9465337991714478
57 226 0.9572601914405823
57 227 0.9412399530410767
57 228 0.1381593942642212
57 229 0.05640333145856857
57 230 0.9582476615905762
57 231 0.9517838358879089
57 232 0.9550492167472839
57 233 0.9464192390441895
57 234 0.13191263377666473
57 235 0.946592390537262
57 236 0.1538527011871338
57 237 0.9483855962753296
57 238 0.947889506816864
57 239 0.9561553597450256
57 240 0.943856418132782
57 241 0.9572014808654785
57 242 0.9504637718200684
57 244 0.9455347657203674
57 245 0.0728163942694664
57 246 0.2730948328971863
57 247 0.9460935592651367
57 248 0.9545558094978333
57 249 0.9543781876564026
57 250 0.20851440727710724
57 251 0.07832901924848557
57 252 0.9543781876564026
57 253 0.929123044013977
57 254 0.9533876776695251
57 255 0.9471506476402283
58 59 0.2012513279914856
58 60 0.22566033899784088
58 61 0.2186340093612671
58 62 0.2282177209854126
58 63 0.22295773029327393
58 64 0.21275900304317474
58 66 0.22845584154129028
58 67 0.2243555784225464
58 69 0.17941704392433167
58 70 0.22518326342105865
58 71 0.2279803603887558
58 72 0.0707106813788414
58 73 0.20996032655239105
58 74 0.21931760013103485
58 76 0.23796036839485168
58 77 0.19678036868572235
58 80 0.22188007831573486
58 83 0.20349882543087006
58 84 0.23009513318538666
58 85 0.2013566642999649
58 86 0.20010338723659515
58 87 0.17041124403476715
58 88 0.20231223106384277
58 89 0.22953657805919647
58 91 0.07559289038181305
58 92 0.21463648974895477
58 93 0.1997937262058258
58 95 0.21725758910179138
58 96 0.2326747626066208
58 97 0.21508552134037018
58 98 0.2061489224433899
58 99 0.21430154144763947
58 100 0.2282177209854126
58 101 0.22284241020679474
58 102 0.22727271914482117
58 103 0.22164341807365417
58 104 0.22750788927078247
58 105 0.05999999865889549
58 106 0.22082097828388214
58 107 0.22638167440891266
58 109 0.2072390913963318
58 110 0.14400067925453186
58 111 0.23067328333854675
58 112 0.21840757131576538
58 113 0.1003100797533989
58 114 0.22602015733718872
58 116 0.22809897363185883
58 117 0.21274876594543457
58 118 0.206257164478302
58 119 0.22494585812091827
58 120 0.20676422119140625
58 121 0.21542415022850037
58 122 0.053452249616384506
58 123 0.13489066064357758
58 124 0.06324554979801178
58 125 0.2040192186832428
58 126 0.22494585812091827
58 127 0.22750788927078247
58 128 0.22990024089813232
58 129 0.2111736685037613
58 130 0.2139682024717331
58 131 0.22614046931266785
58 132 0.201673686504364
58 133 0.2117321640253067
58 134 0.22292663156986237
58 135 0.18589577078819275
58 136 0.22093789279460907
58 138 0.23199421167373657
58 139 0.2210550159215927
58 142 0.21737372875213623
58 143 0.22845584154129028
58 144 0.201673686504364
58 146 0.22295773029327393
58 148 0.057637088000774384
58 149 0.2223557084798813
58 150 0.10070175677537918
58 151 0.21977689862251282
58 152 0.22846367955207825
58 153 0.20879480242729187
58 154 0.22857515513896942
58 155 0.21842752397060394
58 157 0.22905434668064117
58 158 0.20963303744792938
58 159 0.22082097828388214
58 161 0.2137468010187149
58 163 0.2240036576986313
58 165 0.21139654517173767
58 166 0.20636558532714844
58 167 0.22307322919368744
58 168 0.21943214535713196
58 169 0.19424887001514435
58 170 0.23063281178474426
58 171 0.2095242738723755
58 173 0.22857515513896942
58 174 0.22953657805919647
58 175 0.22482742369174957
58 176 0.057735029608011246
58 177 0.09486832469701767
58 179 0.2717464864253998
58 181 0.21084067225456238
58 182 0.22023910284042358
58 183 0.23635157942771912
58 185 0.20901991426944733
58 186 0.21931760013103485
58 187 0.2240036576986313
58 188 0.07620007544755936
58 189 0.19917865097522736
58 190 0.21908901631832123
58 192 0.22674497961997986
58 195 0.20000000298023224
58 197 0.21656456589698792
58 198 0.22249755263328552
58 200 0.06666667014360428
58 201 0.20518232882022858
58 202 0.22283440828323364
58 203 0.23075556755065918
58 204 0.2019921988248825
58 205 0.21553738415241241
58 206 0.11766968667507172
58 207 0.21587814390659332
58 209 0.22482742369174957
58 210 0.21829459071159363
58 212 0.1373605728149414
58 213 0.22941572964191437
58 214 0.20048853754997253
58 215 0.2243555784225464
58 216 0.22668801248073578
58 217 0.22412079572677612
58 218 0.21977689862251282
58 219 0.22117231786251068
58 220 0.2157643884420395
58 221 0.2242380976676941
58 222 0.18263421952724457
58 223 0.21728578209877014
58 225 0.21150824427604675
58 226 0.1996908038854599
58 227 0.22990024089813232
58 230 0.20443987846374512
58 231 0.22786197066307068
58 232 0.22739019989967346
58 233 0.22117231786251068
58 235 0.21587814390659332
58 237 0.2242380976676941
58 238 0.1921035349369049
58 239 0.2271554172039032
58 240 0.23002184927463531
58 241 0.2271554172039032
58 242 0.2313724160194397
58 244 0.21128499507904053
58 247 0.2065829187631607
58 248 0.20000000298023224
58 249 0.21430154144763947
58 252 0.20974195003509521
58 253 0.21015651524066925
58 254 0.22318889200687408
58 255 0.2157643884420395
59 60 0.9489427208900452
59 61 0.9625083804130554
59 62 0.9613799452781677
59 63 0.9604708552360535
59 64 0.9689960479736328
59 65 0.12526123225688934
59 66 0.9592481255531311
59 67 0.9539272785186768
59 68 0.0914778783917427
59 69 0.950042188167572
59 70 0.9532424211502075
59 71 0.961422860622406
59 73 0.9603360891342163
59 74 0.9571583271026611
59 75 0.15169890224933624
59 76 0.9218794107437134
59 77 0.9597071409225464
59 78 0.14230617880821228
59 79 0.359214723110199
59 80 0.9471988081932068
59 81 0.09702693670988083
59 82 0.10726731270551682
59 83 0.9498206377029419
59 84 0.9332267642021179
59 85 0.9607536792755127
59 86 0.9682945609092712
59 87 0.8455775380134583
59 88 0.9495399594306946
59 89 0.9532873034477234
59 90 0.1774931401014328
59 91 0.11236999928951263
59 92 0.9618811011314392
59 93 0.9636806845664978
59 94 0.12936924397945404
59 95 0.9461416602134705
59 96 0.920884370803833
59 97 0.9576139450073242
59 98 0.9554752707481384
59 99 0.9645511507987976
59 100 0.9561607241630554
59 101 0.9599741101264954
59 102 0.9625967144966125
59 103 0.9525246024131775
59 104 0.9594302773475647
59 105 0.42308515310287476
59 106 0.9531984329223633
59 107 0.9466932415962219
59 108 0.10726731270551682
59 109 0.947889506816864
59 110 0.4002527594566345
59 111 0.904507040977478
59 112 0.9677550792694092
59 113 0.3823396861553192
59 114 0.9462361931800842
59 116 0.9598363637924194
59 117 0.9487628936767578
59 118 0.9538805484771729
59 119 0.9532873034477234
59 120 0.9094283580780029
59 121 0.9591216444969177
59 122 0.061121225357055664
59 123 0.32531437277793884
59 124 0.07231960445642471
59 125 0.9653044939041138
59 126 0.9501376152038574
59 127 0.9635926485061646
59 128 0.9484884142875671
59 129 0.9511874914169312
59 130 0.9620094895362854
59 131 0.9446290731430054
59 132 0.9549288153648376
59 133 0.9526505470275879
59 134 0.9220173358917236
59 135 0.9448597431182861
59 136 0.9515979290008545
59 138 0.9401495456695557
59 139 0.9489427208900452
59 140 0.18742194771766663
59 141 0.0914778783917427
59 142 0.9455897808074951
59 143 0.9592481255531311
59 144 0.9517841339111328
59 145 0.05601852759718895
59 146 0.9594302773475647
59 147 0.16845667362213135
59 148 0.5253687500953674
59 149 0.9449915885925293
59 150 0.2533295154571533
59 151 0.9570686221122742
59 152 0.937272846698761
59 153 0.9412106275558472
59 154 0.9576583504676819
59 155 0.9395455718040466
59 156 0.1551082730293274
59 157 0.9596659541130066
59 158 0.9609235525131226
59 159 0.9489901065826416
59 161 0.9610141515731812
59 162 0.17714613676071167
59 163 0.9555673599243164
59 164 0.05601852759718895
59 165 0.9553443789482117
59 166 0.9575282335281372
59 167 0.9609683752059937
59 168 0.9597492814064026
59 169 0.9445320963859558
59 170 0.9494009017944336
59 171 0.958341658115387
59 173 0.954521894454956
59 174 0.9522374272346497
59 175 0.9527854323387146
59 176 0.1452406346797943
59 177 0.14463920891284943
59 178 0.3172776401042938
59 179 0.36252400279045105
59 180 0.3617720305919647
59 181 0.9538805484771729
59 182 0.9548840522766113
59 183 0.1441395878791809
59 184 0.20715057849884033
59 185 0.9454122185707092
59 186 0.9592481255531311
59 187 0.9576583504676819
59 188 0.16845667362213135
59 189 0.9648550152778625
59 190 0.9592922329902649
59 191 0.0660184696316719
59 192 0.9429210424423218
59 193 0.6740617156028748
59 194 0.11691047996282578
59 195 0.9625967144966125
59 196 0.1711394190788269
59 197 0.9526076316833496
59 198 0.9616038203239441
59 199 0.13335075974464417
59 200 0.26681044697761536
59 201 0.9624655842781067
59 202 0.9470260739326477
59 203 0.9488508701324463
59 204 0.9532873034477234
59 205 0.9512355923652649
59 206 0.11661186069250107
59 207 0.9506386518478394
59 208 0.4563330411911011
59 209 0.9527854323387146
59 210 0.9630942940711975
59 211 0.08556970953941345
59 212 0.3172776401042938
59 213 0.9538347721099854
59 214 0.9426043033599854
59 215 0.954974353313446
59 216 0.9642676711082458
59 217 0.9612970948219299
59 218 0.9570686221122742
59 219 0.9483925104141235
59 220 0.9532873034477234
59 221 0.9555208086967468
59 222 0.9338779449462891
59 223 0.9648550152778625
59 224 0.12197049707174301
59 225 0.9537460803985596
59 226 0.9631842970848083
59 227 0.9516429901123047
59 228 0.11434733867645264
59 229 0.05601852759718895
59 230 0.9620998501777649
59 231 0.9577968716621399
59 232 0.9610141515731812
59 233 0.9515538811683655
59 234 0.1448034942150116
59 235 0.9569412469863892
59 236 0.16502730548381805
59 237 0.9576139450073242
59 238 0.965481162071228
59 239 0.9652168154716492
59 240 0.950042188167572
59 241 0.9641777873039246
59 242 0.9450376629829407
59 244 0.9516890645027161
59 245 0.07231960445642471
59 246 0.3017451763153076
59 247 0.9543371796607971
59 248 0.9625967144966125
59 249 0.9572518467903137
59 250 0.19698978960514069
59 251 0.11236999928951263
59 252 0.9582945704460144
59 253 0.9388047456741333
59 254 0.9625083804130554
59 255 0.9532873034477234
60 61 0.9512900114059448
60 62 0.9553717970848083
60 63 0.9524002075195312
60 64 0.9589744806289673
60 65 0.1177135780453682
60 66 0.9532122015953064
60 67 0.9478282332420349
60 68 0.08059297502040863
60 69 0.9427971243858337
60 70 0.9470921158790588
60 71 0.9575279951095581
60 72 0.06512895971536636
60 73 0.9522187113761902
60 74 0.9511079788208008
60 75 0.13191263377666473
60 76 0.9227327108383179
60 77 0.9483855962753296
60 78 0.14979663491249084
60 79 0.30047449469566345
60 80 0.9388037323951721
60 81 0.08683861047029495
60 82 0.09818560630083084
60 83 0.938240647315979
60 84 0.9255806803703308
60 85 0.9494393467903137
60 86 0.9560964107513428
60 87 0.8394952416419983
60 88 0.9444162249565125
60 89 0.9429222941398621
60 90 0.16754287481307983
60 91 0.09573546797037125
60 92 0.9506120085716248
60 93 0.957753598690033
60 94 0.10583455860614777
60 95 0.94093257188797
60 96 0.9261168241500854
60 97 0.9494393467903137
60 98 0.9493802785873413
60 99 0.9522783756256104
60 100 0.9522187113761902
60 101 0.9560964107513428
60 102 0.9566490650177002
60 103 0.9378023743629456
60 104 0.9544957280158997
60 105 0.4098728597164154
60 106 0.9427971243858337
60 107 0.9383026361465454
60 108 0.06872992217540741
60 109 0.9437963962554932
60 110 0.40045157074928284
60 111 0.9029743075370789
60 112 0.9524002075195312
60 113 0.39266541600227356
60 114 0.9474255442619324
60 116 0.9580260515213013
60 117 0.9403705596923828
60 118 0.9446017146110535
60 119 0.9482077360153198
60 120 0.9090321660041809
60 121 0.947767972946167
60 122 0.08615751564502716
60 123 0.34449124336242676
60 124 0.0728163942694664
60 125 0.9562759399414062
60 126 0.9460935592651367
60 127 0.9544957280158997
60 128 0.9497100114822388
60 129 0.9482077360153198
60 130 0.9560384154319763
60 131 0.9415537118911743
60 132 0.9456571340560913
60 133 0.9422364830970764
60 134 0.9130604863166809
60 135 0.9310176968574524
60 136 0.9475359320640564
60 138 0.9337868094444275
60 139 0.9469777941703796
60 140 0.19864147901535034
60 141 0.09210626035928726
60 142 0.9425005316734314
60 143 0.9563685655593872
60 144 0.9488233923912048
60 146 0.9576389193534851
60 147 0.1637651026248932
60 148 0.5119138956069946
60 149 0.9450829029083252
60 150 0.2666638195514679
60 151 0.9467739462852478
60 152 0.9329749941825867
60 153 0.9359236359596252
60 154 0.9568681120872498
60 155 0.9385086297988892
60 156 0.14259344339370728
60 157 0.953599750995636
60 158 0.9507343769073486
60 159 0.9417378306388855
60 161 0.9571436047554016
60 162 0.16052670776844025
60 163 0.9505521655082703
60 165 0.944975733757019
60 166 0.9514340758323669
60 167 0.9581349492073059
60 168 0.9505521655082703
60 169 0.9350457191467285
60 170 0.9474255442619324
60 171 0.9544364809989929
60 173 0.9484468102455139
60 174 0.9471506476402283
60 175 0.9466519951820374
60 176 0.1528855264186859
60 177 0.1456327885389328
60 178 0.30996832251548767
60 179 0.4041229784488678
60 180 0.355785995721817
60 181 0.9456571340560913
60 182 0.9466519951820374
60 183 0.16931802034378052
60 184 0.17877733707427979
60 185 0.9369327425956726
60 186 0.9490038156509399
60 187 0.9526574611663818
60 188 0.18131135404109955
60 189 0.95793217420578
60 190 0.9532697796821594
60 191 0.07976635545492172
60 192 0.9408738613128662
60 193 0.6559171676635742
60 194 0.12612168490886688
60 195 0.9535091519355774
60 196 0.1600068211555481
60 197 0.9421752691268921
60 198 0.9619358777999878
60 199 0.12636874616146088
60 200 0.257129967212677
60 201 0.9512283802032471
60 202 0.9342897534370422
60 203 0.94261634349823
60 204 0.9450364708900452
60 205 0.9482661485671997
60 206 0.10838113725185394
60 207 0.9487076997756958
60 208 0.43457043170928955
60 209 0.9466519951820374
60 210 0.9540020823478699
60 211 0.07384929805994034
60 212 0.32262009382247925
60 213 0.9477085471153259
60 214 0.930827796459198
60 215 0.9499368667602539
60 216 0.9583638310432434
60 217 0.9531555771827698
60 218 0.9457195997238159
60 219 0.9517242908477783
60 220 0.9450364708900452
60 221 0.9473318457603455
60 222 0.9230400323867798
60 223 0.95793217420578
60 224 0.13048386573791504
60 225 0.9433574676513672
60 226 0.9551700949668884
60 227 0.947592556476593
60 228 0.12280834466218948
60 229 0.05640333145856857
60 230 0.9540631175041199
60 231 0.957030713558197
60 232 0.9550492167472839
60 233 0.9421752691268921
60 234 0.11108432710170746
60 235 0.9444771409034729
60 236 0.14769859611988068
60 237 0.9473318457603455
60 238 0.9468362927436829
60 239 0.9551092386245728
60 240 0.943856418132782
60 241 0.9540631175041199
60 242 0.937677264213562
60 244 0.9444771409034729
60 245 0.0728163942694664
60 246 0.2628537714481354
60 247 0.9471506476402283
60 248 0.9545558094978333
60 249 0.9512283802032471
60 250 0.198342964053154
60 251 0.11314190924167633
60 252 0.9554280638694763
60 253 0.9269723296165466
60 254 0.9523388147354126
60 255 0.9492648243904114
61 62 0.9636195302009583
61 63 0.9658036828041077
61 64 0.9690907001495361
61 65 0.12474039196968079
61 66 0.9615030884742737
61 67 0.9593456387519836
61 68 0.07971031218767166
61 69 0.9544737339019775
61 70 0.9555584788322449
61 71 0.9626173377037048
61 72 0.06441566348075867
61 73 0.9625800251960754
61 74 0.9594219326972961
61 75 0.144201397895813
61 76 0.9288850426673889
61 77 0.9578010439872742
61 78 0.15459758043289185
61 79 0.3659761846065521
61 80 0.9485240578651428
61 81 0.096623495221138
61 82 0.10682129114866257
61 83 0.9511377811431885
61 84 0.9357630610466003
61 85 0.9588432908058167
61 86 0.9642683863639832
61 87 0.8491180539131165
61 88 0.9560633897781372
61 89 0.9566420316696167
61 90 0.18780232965946198
61 91 0.12051066756248474
61 92 0.9599616527557373
61 93 0.9669126868247986
61 94 0.1207793727517128
61 95 0.9474713206291199
61 96 0.9246253371238708
61 97 0.9598855376243591
61 98 0.958805501461029
61 99 0.9636557698249817
61 100 0.9636195302009583
61 101 0.9642683863639832
61 102 0.9668757319450378
61 103 0.9538220763206482
61 104 0.9668399095535278
61 105 0.4327131509780884
61 106 0.9565691351890564
61 107 0.9501221776008606
61 108 0.09711026400327682
61 109 0.9523388147354126
61 110 0.4011112153530121
61 111 0.9095017313957214
61 112 0.9668399095535278
61 113 0.3782115578651428
61 114 0.9528067708015442
61 116 0.961040198802948
61 117 0.9479778409004211
61 118 0.9613967537879944
61 119 0.9545510411262512
61 120 0.9089322090148926
61 121 0.9634844660758972
61 122 0.08521391451358795
61 123 0.3686460554599762
61 124 0.07201889902353287
61 125 0.9674859046936035
61 126 0.9545510411262512
61 127 0.9678761959075928
61 128 0.9529218673706055
61 129 0.958733081817627
61 130 0.9663039445877075
61 131 0.9501607418060303
61 132 0.9603528380393982
61 133 0.9560273289680481
61 134 0.9268252849578857
61 135 0.9430477619171143
61 136 0.9528825283050537
61 138 0.9520909190177917
61 139 0.9512900114059448
61 140 0.20628923177719116
61 141 0.07971031218767166
61 142 0.9511377811431885
61 143 0.9625437259674072
61 144 0.9572213292121887
61 145 0.05578560009598732
61 146 0.9658036828041077
61 147 0.16775621473789215
61 148 0.5363107919692993
61 149 0.9484473466873169
61 150 0.2637432813644409
61 151 0.9603884816169739
61 152 0.9471797943115234
61 153 0.9489208459854126
61 154 0.9609642624855042
61 155 0.9441061615943909
61 156 0.13431595265865326
61 157 0.958805501461029
61 158 0.9652311205863953
61 159 0.9544737339019775
61 161 0.9673755764961243
61 162 0.1764095574617386
61 163 0.9588820338249207
61 164 0.05578560009598732
61 165 0.9576517343521118
61 166 0.9566799998283386
61 167 0.9652671217918396
61 168 0.9599231481552124
61 169 0.9479778409004211
61 170 0.9496552348136902
61 171 0.9626556038856506
61 173 0.9651287794113159
61 174 0.9566420316696167
61 175 0.9561384320259094
61 176 0.14463672041893005
61 177 0.14403779804706573
61 178 0.3097018301486969
61 179 0.3996969759464264
61 180 0.3323400020599365
61 181 0.9582651853561401
61 182 0.958228349685669
61 183 0.16746364533901215
61 184 0.20628923177719116
61 185 0.9457125663757324
61 186 0.9615030884742737
61 187 0.9588820338249207
61 188 0.17932561039924622
61 189 0.9701216220855713
61 190 0.9636195302009583
61 191 0.07889275252819061
61 192 0.9484851956367493
61 193 0.651736855506897
61 194 0.12474039196968079
61 195 0.9648053646087646
61 196 0.1704278290271759
61 197 0.9528441429138184
61 198 0.9669126868247986
61 199 0.10155010968446732
61 200 0.2429266721010208
61 201 0.9615789651870728
61 202 0.9483746886253357
61 203 0.9522628784179688
61 204 0.9555965065956116
61 205 0.9566799998283386
61 206 0.09826130419969559
61 207 0.9561004042625427
61 208 0.45219698548316956
61 209 0.958228349685669
61 210 0.9653041362762451
61 211 0.07304049283266068
61 212 0.3159584105014801
61 213 0.9644981026649475
61 214 0.9397467970848083
61 215 0.958302915096283
61 216 0.9685184359550476
61 217 0.9635500907897949
61 218 0.9593456387519836
61 219 0.9507453441619873
61 220 0.958733081817627
61 221 0.9578010439872742
61 222 0.9395934343338013
61 223 0.9690907001495361
61 224 0.13664625585079193
61 225 0.9539690613746643
61 226 0.9664146304130554
61 227 0.9550161957740784
61 228 0.12905479967594147
61 229 0.05578560009598732
61 230 0.9684460759162903
61 231 0.9621174335479736
61 232 0.9684113264083862
61 233 0.9591404795646667
61 234 0.1373346596956253
61 235 0.9561004042625427
61 236 0.15825441479682922
61 237 0.9598855376243591
61 238 0.9593833684921265
61 239 0.9694806933403015
61 240 0.953425943851471
61 241 0.9663767218589783
61 242 0.952700674533844
61 244 0.9540082812309265
61 245 0.07201889902353287
61 246 0.2971142530441284
61 247 0.9545510411262512
61 248 0.9658405184745789
61 249 0.9636557698249817
61 250 0.2062307447195053
61 251 0.12051066756248474
61 252 0.9626173377037048
61 253 0.9380919337272644
61 254 0.9647303223609924
61 255 0.9566420316696167
62 63 0.9615830779075623
62 64 0.966975212097168
62 65 0.125
62 66 0.9614186882972717
62 67 0.9561175107955933
62 68 0.09128709137439728
62 69 0.9533103704452515
62 70 0.9533520340919495
62 71 0.9656612873077393
62 72 0.06454972177743912
62 73 0.9593750238418579
62 74 0.9635041356086731
62 75 0.1445014923810959
62 76 0.9199568629264832
62 77 0.9566612839698792
62 78 0.1484643667936325
62 79 0.3584655821323395
62 80 0.9557727575302124
62 81 0.08606629818677902
62 82 0.08758113533258438
62 83 0.9488952159881592
62 84 0.9355672001838684
62 85 0.95561683177948
62 86 0.966275155544281
62 87 0.8485280871391296
62 88 0.9507076740264893
62 89 0.9544423222541809
62 90 0.18265806138515472
62 91 0.09488401561975479
62 92 0.9598750472068787
62 93 0.965816080570221
62 94 0.10489329695701599
62 95 0.9494431614875793
62 96 0.9243823289871216
62 97 0.9629275798797607
62 98 0.9566190242767334
62 99 0.962539553642273
62 100 0.9614583253860474
62 101 0.9641993641853333
62 102 0.9678506255149841
62 103 0.9494842290878296
62 104 0.9626215100288391
62 105 0.4290493428707123
62 106 0.9543602466583252
62 107 0.945773184299469
62 108 0.07784989476203918
62 109 0.950116753578186
62 110 0.3968900740146637
62 111 0.908104419708252
62 112 0.963659942150116
62 113 0.3891731798648834
62 114 0.9516316652297974
62 116 0.959916889667511
62 117 0.9488952159881592
62 118 0.955029308795929
62 119 0.952346920967102
62 120 0.9163107872009277
62 121 0.9602594971656799
62 122 0.08539125323295593
62 123 0.36381614208221436
62 124 0.07216878235340118
62 125 0.965360701084137
62 126 0.9533945918083191
62 127 0.9678136706352234
62 128 0.9528064131736755
62 129 0.9544423222541809
62 130 0.96312016248703
62 131 0.9468720555305481
62 132 0.9539833068847656
62 133 0.9517142176628113
62 134 0.9211769104003906
62 135 0.939707338809967
62 136 0.9527647495269775
62 138 0.9434833526611328
62 139 0.957473874092102
62 140 0.1722654551267624
62 141 0.09128709137439728
62 142 0.9446731805801392
62 143 0.9593331217765808
62 144 0.9560753703117371
62 146 0.9615830779075623
62 147 0.14491839706897736
62 148 0.5092402100563049
62 149 0.9525355696678162
62 150 0.2719528079032898
62 151 0.9571624994277954
62 152 0.940638542175293
62 153 0.946660041809082
62 154 0.9619209170341492
62 155 0.9450104236602783
62 156 0.14132525026798248
62 157 0.9576645493507385
62 158 0.960999608039856
62 159 0.9543602466583252
62 161 0.9652373194694519
62 162 0.1649915874004364
62 163 0.9619209170341492
62 165 0.9523032307624817
62 166 0.9555312395095825
62 167 0.962081253528595
62 168 0.9587909579277039
62 169 0.9457287192344666
62 170 0.9516316652297974
62 171 0.9615405201911926
62 173 0.9587909579277039
62 174 0.9533945918083191
62 175 0.9570811986923218
62 176 0.15811389684677124
62 177 0.14433756470680237
62 178 0.29467228055000305
62 179 0.3901926279067993
62 180 0.3498231768608093
62 181 0.9539833068847656
62 182 0.9549869298934937
62 183 0.17380544543266296
62 184 0.19687482714653015
62 185 0.9445005655288696
62 186 0.9582903981208801
62 187 0.9608775973320007
62 188 0.17390207946300507
62 189 0.966975212097168
62 190 0.9635416865348816
62 191 0.06588079035282135
62 192 0.953627347946167
62 193 0.6545981168746948
62 194 0.11666666716337204
62 195 0.9647386074066162
62 196 0.16468313336372375
62 197 0.9537757039070129
62 198 0.964779794216156
62 199 0.1252448707818985
62 200 0.2624503970146179
62 201 0.9604583382606506
62 202 0.9524673819541931
62 203 0.9468720555305481
62 204 0.955489993095398
62 205 0.9534381031990051
62 206 0.10741722583770752
62 207 0.95389723777771
62 208 0.44416508078575134
62 209 0.9549869298934937
62 210 0.9631614685058594
62 211 0.06099375709891319
62 212 0.33229002356529236
62 213 0.9570811986923218
62 214 0.9417026042938232
62 215 0.9602972865104675
62 216 0.965360701084137
62 217 0.9655553698539734
62 218 0.9571624994277954
62 219 0.9548272490501404
62 220 0.9533945918083191
62 221 0.9597944021224976
62 222 0.9351365566253662
62 223 0.9690413475036621
62 224 0.10650160163640976
62 225 0.9538557529449463
62 226 0.9663543701171875
62 227 0.9580531716346741
62 228 0.1141088604927063
62 229 0.055901702493429184
62 230 0.9642406702041626
62 231 0.9641197323799133
62 232 0.9652373194694519
62 233 0.9516724944114685
62 234 0.12385842204093933
62 235 0.9549455046653748
62 236 0.15858376026153564
62 237 0.9597944021224976
62 238 0.9582484364509583
62 239 0.9704615473747253
62 240 0.9522604942321777
62 241 0.9652774333953857
62 242 0.9546834230422974
62 244 0.9528489708900452
62 245 0.07216878235340118
62 246 0.2706659734249115
62 247 0.9544423222541809
62 248 0.9626638889312744
62 249 0.9594177603721619
62 250 0.2016194611787796
62 251 0.11213564872741699
62 252 0.9614989161491394
62 253 0.9357810020446777
62 254 0.9625800251960754
62 255 0.9544423222541809
63 64 0.9711766242980957
63 65 0.12461119890213013
63 66 0.9646652936935425
63 67 0.9614771008491516
63 68 0.07962775230407715
63 69 0.9576716423034668
63 70 0.9545688033103943
63 71 0.9626576900482178
63 72 0.06434894353151321
63 73 0.9615830779075623
63 74 0.9625862836837769
63 75 0.15091165900230408
63 76 0.9235919117927551
63 77 0.9599325060844421
63 78 0.14156769216060638
63 79 0.365597128868103
63 80 0.9485933184623718
63 81 0.09652341902256012
63 82 0.10671065002679825
63 83 0.9501526951789856
63 84 0.9379988312721252
63 85 0.9609736204147339
63 86 0.965338945388794
63 87 0.8599870800971985
63 88 0.9550731778144836
63 89 0.9587845206260681
63 90 0.1765720546245575
63 91 0.12038585543632507
63 92 0.9620842933654785
63 93 0.9669442176818848
63 94 0.12065427005290985
63 95 0.9485933184623718
63 96 0.9312298893928528
63 97 0.9588913321495056
63 98 0.959896981716156
63 99 0.9636949896812439
63 100 0.9626215100288391
63 101 0.965338945388794
63 102 0.9710450172424316
63 103 0.9496825337409973
63 104 0.9668737053871155
63 105 0.4481905400753021
63 106 0.9534851908683777
63 107 0.9512402415275574
63 108 0.10671065002679825
63 109 0.9544957280158997
63 110 0.3956555724143982
63 111 0.9162131547927856
63 112 0.9658384919166565
63 113 0.40064117312431335
63 114 0.9560176134109497
63 116 0.962120532989502
63 117 0.9491004347801208
63 118 0.9593581557273865
63 119 0.9556512236595154
63 120 0.9101787805557251
63 121 0.9593581557273865
63 122 0.08512565493583679
63 123 0.3543148338794708
63 124 0.05755544826388359
63 125 0.9716412425041199
63 126 0.9598289132118225
63 127 0.9648033380508423
63 128 0.9550731778144836
63 129 0.9598289132118225
63 130 0.9653031229972839
63 131 0.9544265866279602
63 132 0.9593581557273865
63 133 0.9539900422096252
63 134 0.9280235171318054
63 135 0.9452430605888367
63 136 0.9529427886009216
63 138 0.9468823671340942
63 139 0.9544957280158997
63 140 0.21098212897777557
63 141 0.06825236231088638
63 142 0.9491004347801208
63 143 0.9698628187179565
63 144 0.9572726488113403
63 146 0.9689441323280334
63 147 0.1675824671983719
63 148 0.528262197971344
63 149 0.9506267309188843
63 150 0.2634701132774353
63 151 0.9604353904724121
63 152 0.9440773129463196
63 153 0.9458267688751221
63 154 0.9620490670204163
63 155 0.9473576545715332
63 156 0.1341768205165863
63 157 0.959896981716156
63 158 0.9642313718795776
63 159 0.9566250443458557
63 161 0.965338945388794
63 162 0.17622683942317963
63 163 0.9610089659690857
63 164 0.05572781711816788
63 165 0.9556143283843994
63 166 0.9567325115203857
63 167 0.964267373085022
63 168 0.9620490670204163
63 169 0.9522570967674255
63 170 0.9549681544303894
63 171 0.9658036828041077
63 173 0.9610089659690857
63 174 0.9566956758499146
63 175 0.9582797884941101
63 176 0.1576220691204071
63 177 0.10072202980518341
63 178 0.3250063359737396
63 179 0.39155495166778564
63 180 0.3543148338794708
63 181 0.9593581557273865
63 182 0.9572359323501587
63 183 0.16131554543972015
63 184 0.20607557892799377
63 185 0.94896000623703
63 186 0.9657047986984253
63 187 0.9620490670204163
63 188 0.1791398823261261
63 189 0.9711766242980957
63 190 0.9626215100288391
63 191 0.07881103456020355
63 192 0.9506611824035645
63 193 0.6615628600120544
63 194 0.11630378663539886
63 195 0.9669085144996643
63 196 0.16417090594768524
63 197 0.951857328414917
63 198 0.9690102934837341
63 199 0.12485528737306595
63 200 0.25405046343803406
63 201 0.9657697081565857
63 202 0.9473923444747925
63 203 0.956526517868042
63 204 0.9556512236595154
63 205 0.9609057903289795
63 206 0.09815952926874161
63 207 0.9582451581954956
63 208 0.4226570129394531
63 209 0.9582797884941101
63 210 0.9694775938987732
63 211 0.08512565493583679
63 212 0.31875622272491455
63 213 0.9603675007820129
63 214 0.9408950209617615
63 215 0.9583519697189331
63 216 0.9716412425041199
63 217 0.9594302773475647
63 218 0.9593937397003174
63 219 0.9550022482872009
63 220 0.9556512236595154
63 221 0.9599325060844421
63 222 0.9386203289031982
63 223 0.9711766242980957
63 224 0.13650473952293396
63 225 0.9540271162986755
63 226 0.9685112237930298
63 227 0.9550731778144836
63 228 0.13650473952293396
63 229 0.05572781711816788
63 230 0.9664095044136047
63 231 0.9652681350708008
63 232 0.968442976474762
63 233 0.9570988416671753
63 234 0.15091165900230408
63 235 0.9603350758552551
63 236 0.17025130987167358
63 237 0.9599325060844421
63 238 0.9604708552360535
63 239 0.9664095044136047
63 240 0.9534851908683777
63 241 0.9695102572441101
63 242 0.9506611824035645
63 244 0.9561551213264465
63 245 0.07194431126117706
63 246 0.2900609076023102
63 247 0.9556512236595154
63 248 0.9679425954818726
63 249 0.9636949896812439
63 250 0.19094273447990417
63 251 0.10318787395954132
63 252 0.9647324085235596
63 253 0.9445578455924988
63 254 0.9637311697006226
63 255 0.9587845206260681
64 65 0.1157064288854599
64 66 0.9690181612968445
64 67 0.9658657908439636
64 68 0.09053574502468109
64 69 0.961082935333252
64 70 0.9652683138847351
64 71 0.970097541809082
64 72 0.06401844322681427
64 73 0.9721406698226929
64 74 0.9669498801231384
64 75 0.13648778200149536
64 76 0.9274657964706421
64 77 0.9663957953453064
64 78 0.16004610061645508
64 79 0.3746583163738251
64 80 0.9552299976348877
64 81 0.0960276648402214
64 82 0.10616257041692734
64 83 0.9546938538551331
64 84 0.9438096284866333
64 85 0.9736464023590088
64 86 0.9727330803871155
64 87 0.8520634770393372
64 88 0.9595341682434082
64 89 0.9611335396766663
64 90 0.18664422631263733
64 91 0.11976753175258636
64 92 0.9685128331184387
64 93 0.9722553491592407
64 94 0.12803688645362854
64 95 0.9604612588882446
64 96 0.9285964369773865
64 97 0.9674316048622131
64 98 0.9663724303245544
64 99 0.968033492565155
64 100 0.968008279800415
64 101 0.9727330803871155
64 102 0.9712016582489014
64 103 0.9583916068077087
64 104 0.9711766242980957
64 105 0.4323081970214844
64 106 0.9590004682540894
64 107 0.9568114876747131
64 108 0.09651143103837967
64 109 0.95793217420578
64 110 0.393623411655426
64 111 0.9191213250160217
64 112 0.9742662906646729
64 113 0.40615150332450867
64 114 0.956327497959137
64 116 0.9695696234703064
64 117 0.9578342437744141
64 118 0.9627301692962646
64 119 0.9621725678443909
64 120 0.9261825084686279
64 121 0.9658424854278564
64 122 0.08468843251466751
64 123 0.35804611444473267
64 124 0.07157479226589203
64 125 0.9748600125312805
64 126 0.9632115960121155
64 127 0.9701467752456665
64 128 0.9616155624389648
64 129 0.9621725678443909
64 130 0.970649242401123
64 131 0.9557919502258301
64 132 0.9627301692962646
64 133 0.9595082998275757
64 134 0.9307720065116882
64 135 0.9519588351249695
64 136 0.96055006980896
64 138 0.9525209665298462
64 139 0.9610592722892761
64 140 0.20013576745986938
64 141 0.09053574502468109
64 142 0.9578342437744141
64 143 0.9659156203269958
64 144 0.9627301692962646
64 145 0.05544159188866615
64 146 0.9701467752456665
64 147 0.17821979522705078
64 148 0.5460491180419922
64 149 0.9551807045936584
64 150 0.26971447467803955
64 151 0.9648295044898987
64 152 0.9466155171394348
64 153 0.9535711407661438
64 154 0.9664201736450195
64 155 0.9488032460212708
64 156 0.15351083874702454
64 157 0.9632617831230164
64 158 0.9695937633514404
64 159 0.961082935333252
64 161 0.9717037081718445
64 162 0.17532171308994293
64 163 0.9664201736450195
64 164 0.05544159188866615
64 165 0.9600675702095032
64 166 0.9663501381874084
64 167 0.970649242401123
64 168 0.9664201736450195
64 169 0.9536470770835876
64 170 0.956327497959137
64 171 0.9711526036262512
64 173 0.9653854370117188
64 174 0.9652897119522095
64 175 0.9627045392990112
64 176 0.15027865767478943
64 177 0.14314958453178406
64 178 0.32955509424209595
64 179 0.37929272651672363
64 180 0.369148313999176
64 181 0.9627301692962646
64 182 0.9658200740814209
64 183 0.1723749190568924
64 184 0.20013576745986938
64 185 0.9503939151763916
64 186 0.9659156203269958
64 187 0.9653854370117188
64 188 0.17821979522705078
64 189 0.9754098057746887
64 190 0.966975212097168
64 191 0.06533854454755783
64 192 0.9531100392341614
64 193 0.6686120629310608
64 194 0.12397117912769318
64 195 0.9722304344177246
64 196 0.1633276790380478
64 197 0.9594833850860596
64 198 0.9722553491592407
64 199 0.1319773942232132
64 200 0.27160724997520447
64 201 0.970097541809082
64 202 0.9530340433120728
64 203 0.9557919502258301
64 204 0.9642506837844849
64 205 0.9621982574462891
64 206 0.11541087925434113
64 207 0.9616402983665466
64 208 0.45608288049697876
64 209 0.9616660475730896
64 210 0.9706743359565735
64 211 0.08468843251466751
64 212 0.3171190321445465
64 213 0.9616660475730896
64 214 0.9497814774513245
64 215 0.963793158531189
64 216 0.9738338589668274
64 217 0.9669255018234253
64 218 0.9658657908439636
64 219 0.9573975801467896
64 220 0.9642506837844849
64 221 0.9684674143791199
64 222 0.9422788023948669
64 223 0.9754098057746887
64 224 0.12825897336006165
64 225 0.9647377133369446
64 226 0.972781777381897
64 227 0.9616155624389648
64 228 0.12825897336006165
64 229 0.05544159188866615
64 230 0.9737851619720459
64 231 0.9726881384849548
64 232 0.9717037081718445
64 233 0.9573975801467896
64 234 0.1501365602016449
64 235 0.9616402983665466
64 236 0.16937686502933502
64 237 0.9663957953453064
64 238 0.9669255018234253
64 239 0.9737851619720459
64 240 0.9590004682540894
64 241 0.9717286229133606
64 242 0.9531100392341614
64 244 0.964759111404419
64 245 0.07157479226589203
64 246 0.3053484857082367
64 247 0.9652897119522095
64 248 0.9742880463600159
64 249 0.968033492565155
64 250 0.19996002316474915
64 251 0.11976753175258636
64 252 0.970097541809082
64 253 0.9492197632789612
64 254 0.9701216220855713
64 255 0.9621725678443909
65 66 0.11678838729858398
65 67 0.1170329600572586
65 69 0.10918973386287689
65 70 0.11746471375226974
65 71 0.11654532700777054
65 73 0.11666666716337204
65 74 0.12513041496276855
65 75 0.11009637266397476
65 76 0.09557992964982986
65 77 0.12532679736614227
65 80 0.12659242749214172
65 81 0.17213259637355804
65 82 0.07784989476203918
65 83 0.12666009366512299
65 84 0.12002694606781006
65 85 0.11697167903184891
65 86 0.12454674392938614
65 87 0.12256516516208649
65 88 0.11752677708864212
65 89 0.12572236359119415
65 91 0.1380131095647812
65 92 0.11672747135162354
65 93 0.11606372892856598
65 95 0.1181529238820076
65 96 0.09536417573690414
65 97 0.12532679736614227
65 98 0.10873046517372131
65 99 0.11654532700777054
65 100 0.11666666716337204
65 101 0.12454674392938614
65 102 0.12448239326477051
65 103 0.10959640145301819
65 104 0.107996366918087
65 105 0.10954450815916061
65 106 0.11758894473314285
65 107 0.12652485072612762
65 109 0.12612168490886688
65 111 0.11406142264604568
65 112 0.11630378663539886
65 114 0.12632279098033905
65 116 0.12493494898080826
65 117 0.10132807493209839
65 118 0.1255241185426712
65 119 0.1089593768119812
65 120 0.09656928479671478
65 121 0.1255241185426712
65 122 0.09759000688791275
65 124 0.1154700443148613
65 125 0.12416214495897293
65 126 0.1089593768119812
65 127 0.12461119890213013
65 128 0.09234247356653214
65 129 0.11734087020158768
65 130 0.12467575073242188
65 131 0.12639003992080688
65 132 0.1255241185426712
65 133 0.12605486810207367
65 134 0.12989568710327148
65 135 0.12727412581443787
65 136 0.10924755036830902
65 138 0.11012599617242813
65 139 0.1177135780453682
65 142 0.11821608990430832
65 143 0.11678838729858398
65 144 0.11715584248304367
65 146 0.12461119890213013
65 148 0.07516460865736008
65 149 0.10994861274957657
65 151 0.1170329600572586
65 152 0.1276884824037552
65 153 0.12706845998764038
65 154 0.12519577145576477
65 155 0.1187891885638237
65 157 0.125458225607872
65 158 0.12480514496564865
65 159 0.10079052299261093
65 161 0.1162436306476593
65 162 0.094280906021595
65 163 0.12519577145576477
65 165 0.05873235687613487
65 166 0.11721741408109665
65 167 0.1080523133277893
65 168 0.12519577145576477
65 169 0.11821608990430832
65 170 0.10947974771261215
65 171 0.10810833424329758
65 173 0.1168493926525116
65 174 0.1089593768119812
65 175 0.12565617263317108
65 176 0.05270463228225708
65 181 0.1255241185426712
65 182 0.10890201479196548
65 184 0.19687482714653015
65 185 0.12720546126365662
65 186 0.11678838729858398
65 187 0.1168493926525116
65 188 0.0927477777004242
65 189 0.12397117912769318
65 190 0.125
65 191 0.10540926456451416
65 192 0.126727893948555
65 195 0.12448239326477051
65 197 0.12618862092494965
65 198 0.12435399740934372
65 201 0.12486998736858368
65 202 0.12713691592216492
65 203 0.11796402931213379
65 204 0.10057789087295532
65 205 0.12559008598327637
65 207 0.09224501252174377
65 208 0.08973031491041183
65 209 0.11727909743785858
65 210 0.12454674392938614
65 212 0.10031396895647049
65 213 0.10890201479196548
65 214 0.11917591840028763
65 215 0.12539246678352356
65 216 0.12416214495897293
65 217 0.10855972766876221
65 218 0.1170329600572586
65 219 0.10936346650123596
65 220 0.11734087020158768
65 221 0.11697167903184891
65 222 0.11969747394323349
65 223 0.1157064288854599
65 224 0.06085805967450142
65 225 0.10073723644018173
65 226 0.12428995221853256
65 227 0.12592154741287231
65 228 0.06085805967450142
65 230 0.11612360179424286
65 231 0.11648479849100113
65 232 0.1162436306476593
65 233 0.12618862092494965
65 235 0.1257886439561844
65 237 0.09190632402896881
65 238 0.12526123225688934
65 239 0.12441814690828323
65 240 0.1259881556034088
65 241 0.12441814690828323
65 242 0.126727893948555
65 244 0.11740273237228394
65 246 0.08119978755712509
65 247 0.1089593768119812
65 248 0.12448239326477051
65 249 0.11654532700777054
65 251 0.0690065547823906
65 252 0.11654532700777054
65 253 0.07673830538988113
65 254 0.12474039196968079
65 255 0.12572236359119415
66 67 0.9560690522193909
66 68 0.09138233214616776
66 69 0.951151967048645
66 70 0.9532967209815979
66 71 0.9666687846183777
66 72 0.06461706012487411
66 73 0.9614186882972717
66 74 0.9582463502883911
66 75 0.1308758407831192
66 76 0.924178421497345
66 77 0.9555683732032776
66 78 0.10984902083873749
66 79 0.34779834747314453
66 80 0.9493776559829712
66 81 0.09692560136318207
66 82 0.09741389006376266
66 83 0.9467153549194336
66 84 0.9333248734474182
66 85 0.9587048292160034
66 86 0.962088406085968
66 87 0.854132354259491
66 88 0.9495987296104431
66 89 0.9533404111862183
66 90 0.16622602939605713
66 91 0.11225264519453049
66 92 0.9577466249465942
66 93 0.9637115597724915
66 94 0.11307986080646515
66 95 0.9462094902992249
66 96 0.9253466129302979
66 97 0.9576593637466431
66 98 0.9534308314323425
66 99 0.9604187607765198
66 100 0.960375964641571
66 101 0.9641663432121277
66 102 0.9626297950744629
66 103 0.9452002048492432
66 104 0.9636257886886597
66 105 0.4089359641075134
66 106 0.9522029757499695
66 107 0.9467599391937256
66 108 0.07793111354112625
66 109 0.9511079788208008
66 110 0.4023653566837311
66 111 0.9079538583755493
66 112 0.9625862836837769
66 113 0.3870328962802887
66 114 0.9536782503128052
66 116 0.9588338732719421
66 117 0.9467153549194336
66 118 0.9549785256385803
66 119 0.9575355052947998
66 120 0.9172667860984802
66 121 0.9560256600379944
66 122 0.06105739250779152
66 123 0.35298967361450195
66 124 0.0722440779209137
66 125 0.9642963409423828
66 126 0.9522916078567505
66 127 0.9657047986984253
66 128 0.9495987296104431
66 129 0.9533404111862183
66 130 0.9630849361419678
66 131 0.9489142298698425
66 132 0.9528842568397522
66 133 0.9516556262969971
66 134 0.922137975692749
66 135 0.9385643005371094
66 136 0.9506040811538696
66 138 0.9465876817703247
66 139 0.952160120010376
66 140 0.20693422853946686
66 141 0.09138233214616776
66 142 0.9488286375999451
66 143 0.9582463502883911
66 144 0.9528842568397522
66 146 0.9636257886886597
66 147 0.16247795522212982
66 148 0.5210579037666321
66 149 0.9482378363609314
66 150 0.26840221881866455
66 151 0.9571150541305542
66 152 0.941619873046875
66 153 0.9434076547622681
66 154 0.9671019911766052
66 155 0.9438729286193848
66 156 0.14820949733257294
66 157 0.9597102403640747
66 158 0.9599199295043945
66 159 0.9532540440559387
66 161 0.9631273746490479
66 162 0.17696112394332886
66 163 0.9556136727333069
66 165 0.9522468447685242
66 166 0.9565281867980957
66 167 0.9599647521972656
66 168 0.9597912430763245
66 169 0.9467153549194336
66 170 0.9494631290435791
66 171 0.9604625105857849
66 173 0.956658124923706
66 174 0.9533404111862183
66 175 0.9538868069648743
66 176 0.15827883780002594
66 177 0.13003933429718018
66 178 0.30753207206726074
66 179 0.3957732319831848
66 180 0.3473866581916809
66 181 0.953931450843811
66 182 0.9549350738525391
66 183 0.1739867776632309
66 184 0.1822991967201233
66 185 0.943363606929779
66 186 0.9603340029716492
66 187 0.9577024579048157
66 188 0.1682807356119156
66 189 0.9669498801231384
66 190 0.960375964641571
66 191 0.06594952195882797
66 192 0.9451077580451965
66 193 0.6552810072898865
66 194 0.12513041496276855
66 195 0.9647066593170166
66 196 0.15874920785427094
66 197 0.9484546780586243
66 198 0.9688984155654907
66 199 0.11753954738378525
66 200 0.24368621408939362
66 201 0.959377110004425
66 202 0.9470975399017334
66 203 0.9520772695541382
66 204 0.9533404111862183
66 205 0.9533851146697998
66 206 0.11649007350206375
66 207 0.9517444968223572
66 208 0.44462844729423523
66 209 0.9559832811355591
66 210 0.9652053117752075
66 211 0.08548034727573395
66 212 0.32322248816490173
66 213 0.9570314884185791
66 214 0.941619873046875
66 215 0.9550230503082275
66 216 0.9684394001960754
66 217 0.9602930545806885
66 218 0.9550230503082275
66 219 0.9526653289794922
66 220 0.9533404111862183
66 221 0.9545229077339172
66 222 0.9329026341438293
66 223 0.9669498801231384
66 224 0.12945829331874847
66 225 0.9506491422653198
66 226 0.963215172290802
66 227 0.9516995549201965
66 228 0.12945829331874847
66 229 0.05596001818776131
66 230 0.9631708264350891
66 231 0.965125560760498
66 232 0.962088406085968
66 233 0.951612651348114
66 234 0.15154045820236206
66 235 0.9653857350349426
66 236 0.15264347195625305
66 237 0.9545229077339172
66 238 0.956113338470459
66 239 0.9621329307556152
66 240 0.9490500092506409
66 241 0.9631708264350891
66 242 0.9503936171531677
66 244 0.9517444968223572
66 245 0.0722440779209137
66 246 0.2912694811820984
66 247 0.9512428641319275
66 248 0.9626297950744629
66 249 0.959377110004425
66 250 0.20182982087135315
66 251 0.103617824614048
66 252 0.9645854234695435
66 253 0.9367572665214539
66 254 0.9604625105857849
66 255 0.9533404111862183
67 68 0.09157370775938034
67 69 0.9468247890472412
67 70 0.953188955783844
67 71 0.9582546949386597
67 72 0.06475239247083664
67 73 0.9613421559333801
67 74 0.9592071175575256
67 75 0.15185782313346863
67 76 0.9173975586891174
67 77 0.9565218687057495
67 78 0.15540573000907898
67 79 0.3706553876399994
67 80 0.9450164437294006
67 81 0.09712859243154526
67 82 0.08785611391067505
67 83 0.9412863850593567
67 84 0.9320544004440308
67 85 0.9544265866279602
67 86 0.9609798192977905
67 87 0.8405523300170898
67 88 0.9484294056892395
67 89 0.9553369283676147
67 90 0.1665741503238678
67 91 0.12114062905311584
67 92 0.9607978463172913
67 93 0.9615716934204102
67 94 0.12950478494167328
67 95 0.9471328854560852
67 96 0.9164137244224548
67 97 0.9565218687057495
67 98 0.9512324333190918
67 99 0.9561669826507568
67 100 0.9550725817680359
67 101 0.9599387049674988
67 102 0.9594427347183228
67 103 0.9503510594367981
67 104 0.9593937397003174
67 105 0.43497511744499207
67 106 0.9489311575889587
67 107 0.9487427473068237
67 108 0.09761790186166763
67 109 0.9457195997238159
67 110 0.40320801734924316
67 111 0.9076550006866455
67 112 0.9593937397003174
67 113 0.3725338578224182
67 114 0.9451155662536621
67 116 0.9618863463401794
67 117 0.9465804100036621
67 118 0.9527812004089355
67 119 0.9511330723762512
67 120 0.9125828742980957
67 121 0.9548798203468323
67 122 0.07342230528593063
67 123 0.35372892022132874
67 124 0.07239537686109543
67 125 0.9632019400596619
67 126 0.9553369283676147
67 127 0.9593937397003174
67 128 0.9557979106903076
67 129 0.9542859792709351
67 130 0.9588484764099121
67 131 0.9456186294555664
67 132 0.950682520866394
67 133 0.9515411257743835
67 134 0.9186398386955261
67 135 0.9405298233032227
67 136 0.9525948762893677
67 138 0.9453834295272827
67 139 0.9530998468399048
67 140 0.17774364352226257
67 141 0.09157370775938034
67 142 0.942345142364502
67 143 0.9539769887924194
67 144 0.9569784998893738
67 145 0.05607721582055092
67 146 0.9604353904724121
67 147 0.18026302754878998
67 148 0.5466543436050415
67 149 0.9459816217422485
67 150 0.25359493494033813
67 151 0.9549266695976257
67 152 0.9350525736808777
67 153 0.9390100240707397
67 154 0.955521821975708
67 155 0.9384019374847412
67 156 0.14176897704601288
67 157 0.9522812366485596
67 158 0.9588003158569336
67 159 0.9499843716621399
67 161 0.9599387049674988
67 162 0.17142066359519958
67 163 0.9534287452697754
67 164 0.05607721582055092
67 165 0.9521368741989136
67 166 0.9574815034866333
67 167 0.9609329700469971
67 168 0.9544752836227417
67 169 0.942345142364502
67 170 0.9535635709762573
67 171 0.9645595550537109
67 173 0.9586616158485413
67 174 0.9521840214729309
67 175 0.9495818614959717
67 176 0.1387840360403061
67 177 0.14479075372219086
67 178 0.3207547068595886
67 179 0.396602064371109
67 180 0.34530678391456604
67 181 0.9538305401802063
67 182 0.9495818614959717
67 183 0.17435114085674286
67 184 0.20736759901046753
67 185 0.9368323087692261
67 186 0.9550230503082275
67 187 0.9628478288650513
67 188 0.16863314807415009
67 189 0.9648295044898987
67 190 0.9582074284553528
67 191 0.07930515706539154
67 192 0.9428495168685913
67 193 0.6491056084632874
67 194 0.12539246678352356
67 195 0.9604833126068115
67 196 0.17131872475147247
67 197 0.9472763538360596
67 198 0.9615716934204102
67 199 0.12563809752464294
67 200 0.2709055542945862
67 201 0.9561669826507568
67 202 0.9405786395072937
67 203 0.9445620775222778
67 204 0.9521840214729309
67 205 0.9522321820259094
67 206 0.11673403531312943
67 207 0.9495315551757812
67 208 0.44780993461608887
67 209 0.9537835717201233
67 210 0.9661855697631836
67 211 0.07342230528593063
67 212 0.3176100552082062
67 213 0.9506322741508484
67 214 0.9446592926979065
67 215 0.9528301954269409
67 216 0.9642398953437805
67 217 0.9591628909111023
67 218 0.9559748768806458
67 219 0.9462214708328247
67 220 0.9532350301742554
67 221 0.9617602229118347
67 222 0.932712197303772
67 223 0.9669021368026733
67 224 0.1373605579137802
67 225 0.9484294056892395
67 226 0.9631544351577759
67 227 0.9526399970054626
67 228 0.12209827452898026
67 229 0.05607721582055092
67 230 0.9620677828788757
67 231 0.9588003158569336
67 232 0.9599387049674988
67 233 0.9483312368392944
67 234 0.1380525678396225
67 235 0.9505830407142639
67 236 0.15908166766166687
67 237 0.9544265866279602
67 238 0.9570686221122742
67 239 0.9651879668235779
67 240 0.9584099054336548
67 241 0.9610276818275452
67 242 0.9513245820999146
67 244 0.9558407068252563
67 245 0.07239537686109543
67 246 0.2884855270385742
67 247 0.9532350301742554
67 248 0.9594427347183228
67 249 0.963473916053772
67 250 0.20225249230861664
67 251 0.12114062905311584
67 252 0.9572108387947083
67 253 0.9344424605369568
67 254 0.9593456387519836
67 255 0.9500820636749268
68 69 0.08050764352083206
68 70 0.09191153198480606
68 71 0.09119214862585068
68 73 0.09128709137439728
68 74 0.09138233214616776
68 76 0.0713881105184555
68 77 0.09152575582265854
68 79 0.0906183123588562
68 80 0.08089377731084824
68 83 0.08093702048063278
68 84 0.07043728232383728
68 85 0.09152575582265854
68 86 0.09095608443021774
68 87 0.10327955335378647
68 88 0.09196009486913681
68 89 0.08033780008554459
68 92 0.09133467823266983
68 93 0.09081532061100006
68 95 0.08089377731084824
68 96 0.07122696191072464
68 97 0.09152575582265854
68 98 0.09162174165248871
68 99 0.09119214862585068
68 100 0.09128709137439728
68 101 0.09095608443021774
68 102 0.05681817978620529
68 103 0.09235142171382904
68 104 0.09100314974784851
68 105 0.10000000894069672
68 106 0.08050764352083206
68 107 0.0924006849527359
68 109 0.09210626035928726
68 111 0.08409963548183441
68 112 0.07962775230407715
68 113 0.11145563423633575
68 114 0.05765819922089577
68 116 0.07983463257551193
68 117 0.08093702048063278
68 118 0.09166985005140305
68 119 0.09181462973356247
68 120 0.09616940468549728
68 121 0.09166985005140305
68 125 0.09067521244287491
68 126 0.09181462973356247
68 127 0.09100314974784851
68 128 0.09196009486913681
68 129 0.08033780008554459
68 130 0.09105028957128525
68 131 0.08076445013284683
68 132 0.08021111786365509
68 133 0.09205746650695801
68 135 0.09294787794351578
68 136 0.08055028319358826
68 138 0.09279768168926239
68 139 0.09210626035928726
68 142 0.06937458366155624
68 143 0.05711396038532257
68 144 0.09166985005140305
68 146 0.09100314974784851
68 148 0.0617540180683136
68 149 0.0926482081413269
68 151 0.08012699335813522
68 152 0.06993785500526428
68 153 0.09279768168926239
68 154 0.06857254356145859
68 155 0.09294787794351578
68 157 0.06871630251407623
68 158 0.09114479273557663
68 159 0.09200873970985413
68 161 0.09095608443021774
68 163 0.08000130206346512
68 165 0.09191153198480606
68 166 0.08025328069925308
68 167 0.07966900616884232
68 168 0.09143006801605225
68 169 0.09249944984912872
68 170 0.09225311875343323
68 171 0.09109750390052795
68 173 0.09143006801605225
68 174 0.08033780008554459
68 175 0.06882471591234207
68 176 0.07216878980398178
68 179 0.08492077887058258
68 180 0.1226278692483902
68 181 0.09166985005140305
68 182 0.09176629036664963
68 185 0.09289773553609848
68 186 0.07995954155921936
68 187 0.09143006801605225
68 189 0.0792187750339508
68 190 0.09128709137439728
68 192 0.06941171735525131
68 193 0.11539158225059509
68 195 0.09090908616781235
68 197 0.08063574135303497
68 198 0.09081532061100006
68 201 0.07979313284158707
68 202 0.08124171197414398
68 203 0.08076445013284683
68 204 0.09181462973356247
68 205 0.09171804040670395
68 207 0.09186303615570068
68 209 0.09176629036664963
68 210 0.09095608443021774
68 212 0.10302041471004486
68 213 0.06882471591234207
68 214 0.09325047582387924
68 215 0.08012699335813522
68 216 0.09067521244287491
68 217 0.06860840320587158
68 218 0.09157370775938034
68 219 0.09215513616800308
68 220 0.09181462973356247
68 221 0.09152575582265854
68 222 0.09365858137607574
68 223 0.09053574502468109
68 225 0.09196009486913681
68 226 0.09076854586601257
68 227 0.09196009486913681
68 230 0.09086216986179352
68 231 0.09114479273557663
68 232 0.09095608443021774
68 233 0.08063574135303497
68 234 0.15075567364692688
68 235 0.0803801566362381
68 237 0.09152575582265854
68 238 0.08004313707351685
68 239 0.09086216986179352
68 240 0.09200873970985413
68 241 0.07950439304113388
68 242 0.0809803381562233
68 244 0.0803801566362381
68 247 0.09181462973356247
68 248 0.09090908616781235
68 249 0.09119214862585068
68 252 0.07979313284158707
68 253 0.09340289235115051
68 254 0.09109750390052795
68 255 0.09181462973356247
69 70 0.9460893273353577
69 71 0.9565141201019287
69 72 0.06506000459194183
69 73 0.9522604942321777
69 74 0.951151967048645
69 75 0.15257923305034637
69 76 0.9086191058158875
69 77 0.9526447653770447
69 78 0.162650004029274
69 79 0.3779746890068054
69 80 0.9409996271133423
69 81 0.054216671735048294
69 82 0.08827348053455353
69 83 0.9468218684196472
69 84 0.9224404096603394
69 85 0.9505395293235779
69 86 0.9571762681007385
69 87 0.8386064171791077
69 88 0.9455316066741943
69 89 0.9450918436050415
69 90 0.18968088924884796
69 91 0.10432810336351395
69 92 0.9517063498497009
69 93 0.9567395448684692
69 94 0.11385500431060791
69 95 0.9431261420249939
69 96 0.9174904823303223
69 97 0.9505395293235779
69 98 0.947321355342865
69 99 0.9523189067840576
69 100 0.9522604942321777
69 101 0.9561302065849304
69 102 0.9545906782150269
69 103 0.9378715753555298
69 104 0.9618582129478455
69 105 0.4347413182258606
69 106 0.9481481313705444
69 107 0.9436855316162109
69 108 0.08827348053455353
69 109 0.943856418132782
69 110 0.3770960569381714
69 111 0.9009128212928772
69 112 0.9587183594703674
69 113 0.3845584988594055
69 114 0.9421783685684204
69 116 0.9517649412155151
69 117 0.9415026903152466
69 118 0.9520360231399536
69 119 0.9450918436050415
69 120 0.915812075138092
69 121 0.9467644691467285
69 122 0.07377111166715622
69 123 0.3610507547855377
69 125 0.9594348669052124
69 126 0.9440358877182007
69 127 0.9587183594703674
69 128 0.9455316066741943
69 129 0.9482597708702087
69 130 0.9581676721572876
69 131 0.9416183233261108
69 132 0.9509817361831665
69 133 0.9433563947677612
69 134 0.9197309017181396
69 135 0.936445951461792
69 136 0.9433563947677612
69 138 0.9402690529823303
69 139 0.944915771484375
69 140 0.208352729678154
69 141 0.06900654733181
69 142 0.9404388666152954
69 143 0.9522029757499695
69 144 0.9499273896217346
69 146 0.9534851908683777
69 147 0.14022144675254822
69 148 0.5435693264007568
69 149 0.9366233944892883
69 150 0.25479966402053833
69 151 0.951037585735321
69 152 0.9309147000312805
69 153 0.9424036145210266
69 154 0.9505972862243652
69 155 0.9407219290733337
69 156 0.12887650728225708
69 157 0.9494287967681885
69 158 0.9528725743293762
69 159 0.9470899105072021
69 161 0.9582224488258362
69 162 0.13660019636154175
69 163 0.9505972862243652
69 164 0.05634361505508423
69 165 0.9460893273353577
69 166 0.947262167930603
69 167 0.9539790153503418
69 168 0.9484942555427551
69 169 0.9468218684196472
69 170 0.9432393908500671
69 171 0.9565691351890564
69 173 0.9558550119400024
69 174 0.9482597708702087
69 175 0.9456496834754944
69 176 0.13280318677425385
69 177 0.10910893976688385
69 178 0.30964013934135437
69 179 0.36983683705329895
69 180 0.3666921854019165
69 181 0.9509817361831665
69 182 0.9467051029205322
69 183 0.16309808194637299
69 184 0.19843116402626038
69 185 0.9391459822654724
69 186 0.9606109857559204
69 187 0.9505972862243652
69 188 0.16359169781208038
69 189 0.961082935333252
69 190 0.9543602466583252
69 191 0.06640159338712692
69 192 0.938813328742981
69 193 0.671906590461731
69 194 0.10079052299261093
69 195 0.9577273726463318
69 196 0.15983740985393524
69 197 0.9422375559806824
69 198 0.9567395448684692
69 199 0.11834526807069778
69 200 0.2568577229976654
69 201 0.9565141201019287
69 202 0.9343684911727905
69 203 0.9405567646026611
69 204 0.9461477994918823
69 205 0.9483169913291931
69 206 0.11728858947753906
69 207 0.9519293308258057
69 208 0.4499373137950897
69 209 0.9467051029205322
69 210 0.9540380239486694
69 211 0.08606629818677902
69 212 0.30016136169433594
69 213 0.9509267210960388
69 214 0.9319872260093689
69 215 0.951037585735321
69 216 0.9573491811752319
69 217 0.9553026556968689
69 218 0.951037585735321
69 219 0.9443573355674744
69 220 0.9461477994918823
69 221 0.9494868516921997
69 222 0.9263713359832764
69 223 0.966289222240448
69 224 0.13034571707248688
69 225 0.949762225151062
69 226 0.9604223966598511
69 227 0.9434162974357605
69 228 0.13034571707248688
69 229 0.05634361505508423
69 230 0.9593231081962585
69 231 0.9518243074417114
69 232 0.9582224488258362
69 233 0.9464771151542664
69 234 0.14564381539821625
69 235 0.94453364610672
69 236 0.16598500311374664
69 237 0.9473815560340881
69 238 0.9510942697525024
69 239 0.9561880230903625
69 240 0.9439153075218201
69 241 0.9551430344581604
69 242 0.937748908996582
69 244 0.9466466903686523
69 245 0.058191437274217606
69 246 0.29326605796813965
69 247 0.9461477994918823
69 248 0.9556362628936768
69 249 0.9565141201019287
69 250 0.20321330428123474
69 251 0.10432810336351395
69 252 0.9544165134429932
69 253 0.933510422706604
69 254 0.9586645364761353
69 255 0.9482597708702087
70 71 0.9628374576568604
70 72 0.06499126553535461
70 73 0.9627911448478699
70 74 0.9543465971946716
70 75 0.13856184482574463
70 76 0.9207819104194641
70 77 0.9537413716316223
70 78 0.15597903728485107
70 79 0.35814133286476135
70 80 0.9378811120986938
70 81 0.09748690575361252
70 82 0.09797801822423935
70 83 0.9426333904266357
70 84 0.927939772605896
70 85 0.9516382813453674
70 86 0.9593000411987305
70 87 0.836533784866333
70 88 0.9487587809562683
70 89 0.9483127593994141
70 90 0.14489682018756866
70 91 0.09553305804729462
70 92 0.9538488984107971
70 93 0.9567720293998718
70 94 0.11373472213745117
70 95 0.9431918859481812
70 96 0.9165211915969849
70 97 0.9558444023132324
70 98 0.9484257102012634
70 99 0.9544559121131897
70 100 0.9523032307624817
70 101 0.9603449702262878
70 102 0.9567155241966248
70 103 0.9421858787536621
70 104 0.9629330635070801
70 105 0.4090063273906708
70 106 0.9492605924606323
70 107 0.9448116421699524
70 108 0.08818021416664124
70 109 0.943917453289032
70 110 0.358880877494812
70 111 0.9087948799133301
70 112 0.9587509036064148
70 113 0.3918352723121643
70 114 0.9411829710006714
70 116 0.9560006260871887
70 117 0.946884274482727
70 118 0.9520833492279053
70 119 0.947257936000824
70 120 0.9126347303390503
70 121 0.9489237666130066
70 122 0.08597537130117416
70 123 0.3691225051879883
70 124 0.07266244292259216
70 125 0.9605047702789307
70 126 0.9504224061965942
70 127 0.9556143283843994
70 128 0.9508717656135559
70 129 0.947257936000824
70 130 0.956109344959259
70 131 0.9406235218048096
70 132 0.9478706121444702
70 133 0.9476478695869446
70 134 0.9198490977287292
70 135 0.9343886971473694
70 136 0.9476478695869446
70 138 0.9467387199401855
70 139 0.9513249397277832
70 140 0.19822150468826294
70 141 0.09191153198480606
70 142 0.943696141242981
70 143 0.9511969089508057
70 144 0.9510301947593689
70 146 0.9597964286804199
70 147 0.16925525665283203
70 148 0.5240753889083862
70 149 0.947342574596405
70 150 0.25067394971847534
70 151 0.9489806294441223
70 152 0.9310026168823242
70 153 0.9403417706489563
70 154 0.9537946581840515
70 155 0.9407958984375
70 156 0.13551615178585052
70 157 0.9557942152023315
70 158 0.9571016430854797
70 159 0.9471464157104492
70 161 0.9572100639343262
70 162 0.16612018644809723
70 163 0.9495929479598999
70 164 0.056284088641405106
70 165 0.9503695964813232
70 166 0.9536375403404236
70 167 0.9550632834434509
70 168 0.9506433606147766
70 169 0.9405079483985901
70 170 0.9475423097610474
70 171 0.9586983919143677
70 173 0.954845130443573
70 174 0.952532172203064
70 175 0.9541392922401428
70 176 0.1392960250377655
70 177 0.14532488584518433
70 178 0.31562548875808716
70 179 0.3798530399799347
70 180 0.355033814907074
70 181 0.9499769806861877
70 182 0.9457049369812012
70 183 0.16292576491832733
70 184 0.2081325799226761
70 185 0.9434902667999268
70 186 0.9553964734077454
70 187 0.9516937732696533
70 188 0.14590969681739807
70 189 0.9600675702095032
70 190 0.9544007778167725
70 191 0.07959771901369095
70 192 0.9388847351074219
70 193 0.6515001654624939
70 194 0.12585505843162537
70 195 0.9567155241966248
70 196 0.17195074260234833
70 197 0.9486534595489502
70 198 0.957815408706665
70 199 0.12610158324241638
70 200 0.2757346034049988
70 201 0.9586466550827026
70 202 0.9408482909202576
70 203 0.9491071701049805
70 204 0.947257936000824
70 205 0.9494225382804871
70 206 0.11716467142105103
70 207 0.9456465244293213
70 208 0.43591031432151794
70 209 0.9520307183265686
70 210 0.9582550525665283
70 211 0.08597537130117416
70 212 0.29984423518180847
70 213 0.9488677978515625
70 214 0.9395734071731567
70 215 0.9479285478591919
70 216 0.9584212303161621
70 217 0.954293429851532
70 218 0.9521368741989136
70 219 0.9433596134185791
70 220 0.952532172203064
70 221 0.9526897668838501
70 222 0.9286207556724548
70 223 0.9611076712608337
70 224 0.13020800054073334
70 225 0.9519283175468445
70 226 0.9583648443222046
70 227 0.9498152732849121
70 228 0.09191152453422546
70 229 0.056284088641405106
70 230 0.9572656154632568
70 231 0.9550073146820068
70 232 0.96138995885849
70 233 0.9465359449386597
70 234 0.13856184482574463
70 235 0.9456465244293213
70 236 0.15966853499412537
70 237 0.9495352506637573
70 238 0.954293429851532
70 239 0.9635290503501892
70 240 0.9492605924606323
70 241 0.9572656154632568
70 242 0.941011369228363
70 244 0.9519790410995483
70 245 0.07266244292259216
70 246 0.27251747250556946
70 247 0.9493675827980042
70 248 0.9598488211631775
70 249 0.9523604512214661
70 250 0.1725488305091858
70 251 0.10421787202358246
70 252 0.9565512537956238
70 253 0.9282318353652954
70 254 0.9545118808746338
70 255 0.9546418786048889
71 72 0.06448258459568024
71 73 0.9614989161491394
71 74 0.9635437726974487
71 75 0.1374773383140564
71 76 0.9276800751686096
71 77 0.9567095637321472
71 78 0.1612064689397812
71 79 0.33605629205703735
71 80 0.9495095014572144
71 81 0.08597678691148758
71 82 0.09721115976572037
71 83 0.9531803131103516
71 84 0.9378057718276978
71 85 0.9587961435317993
71 86 0.967343807220459
71 87 0.8617730736732483
71 88 0.9528636932373047
71 89 0.9534496068954468
71 90 0.1603507399559021
71 91 0.10340217500925064
71 92 0.9599179029464722
71 93 0.9648115634918213
71 94 0.10478420555591583
71 95 0.950563371181488
71 96 0.9266685843467712
71 97 0.9608827829360962
71 98 0.9556241035461426
71 99 0.9604989290237427
71 100 0.962539553642273
71 101 0.9694174528121948
71 102 0.9668440222740173
71 103 0.9474440217018127
71 104 0.9657697081565857
71 105 0.4263232946395874
71 106 0.9533677101135254
71 107 0.9511092901229858
71 108 0.08749004453420639
71 109 0.9564780592918396
71 110 0.3889012932777405
71 111 0.9115422964096069
71 112 0.9636949896812439
71 113 0.40655517578125
71 114 0.9527450799942017
71 116 0.96099853515625
71 117 0.9500170946121216
71 118 0.9550809264183044
71 119 0.9555427432060242
71 120 0.9241276979446411
71 121 0.9592607021331787
71 122 0.0853024423122406
71 123 0.3550507128238678
71 124 0.05767497792840004
71 125 0.9674574732780457
71 126 0.9544962048530579
71 127 0.9657697081565857
71 128 0.9539119601249695
71 129 0.9534496068954468
71 130 0.9652321338653564
71 131 0.9490436911582947
71 132 0.9550809264183044
71 133 0.9538725018501282
71 134 0.9299508929252625
71 135 0.9419085383415222
71 136 0.9549218416213989
71 138 0.9509645104408264
71 139 0.9585778713226318
71 140 0.1966700553894043
71 141 0.07979313284158707
71 142 0.947908341884613
71 143 0.959377110004425
71 144 0.9561258554458618
71 146 0.9647324085235596
71 147 0.15055838227272034
71 148 0.5105876922607422
71 149 0.950488805770874
71 150 0.27166998386383057
71 151 0.9582546949386597
71 152 0.9439120888710022
71 153 0.9499067068099976
71 154 0.9640470743179321
71 155 0.9514442086219788
71 156 0.14117825031280518
71 157 0.9639793038368225
71 158 0.9631170034408569
71 159 0.9523189067840576
71 161 0.9652701616287231
71 162 0.15893355011940002
71 163 0.9598782062530518
71 164 0.05584355816245079
71 165 0.9544559121131897
71 166 0.9566284418106079
71 167 0.9631562829017639
71 168 0.9588359594345093
71 169 0.9489626884460449
71 170 0.9558998942375183
71 171 0.9646941423416138
71 173 0.9609203934669495
71 174 0.9555427432060242
71 175 0.9592238664627075
71 176 0.15794943273067474
71 177 0.14418745040893555
71 178 0.3006289005279541
71 179 0.38720542192459106
71 180 0.3550507128238678
71 181 0.957170844078064
71 182 0.956085741519928
71 183 0.15566350519657135
71 184 0.2015867978334427
71 185 0.9488129615783691
71 186 0.9645854234695435
71 187 0.9630048274993896
71 188 0.17372122406959534
71 189 0.968033492565155
71 190 0.9646207094192505
71 191 0.07897471636533737
71 192 0.9526355266571045
71 193 0.6644400954246521
71 194 0.11654532700777054
71 195 0.9678803086280823
71 196 0.1523257941007614
71 197 0.9559350609779358
71 198 0.9668819308280945
71 199 0.12511460483074188
71 200 0.26597708463668823
71 201 0.9615384936332703
71 202 0.9472432732582092
71 203 0.957460880279541
71 204 0.9555427432060242
71 205 0.957673966884613
71 206 0.11624763160943985
71 207 0.9581408500671387
71 208 0.4257757067680359
71 209 0.9581778645515442
71 210 0.9631965160369873
71 211 0.0853024423122406
71 212 0.33194443583488464
71 213 0.9581778645515442
71 214 0.9428490400314331
71 215 0.9603423476219177
71 216 0.9664239287376404
71 217 0.9645511507987976
71 218 0.9572108387947083
71 219 0.956985592842102
71 220 0.9544962048530579
71 221 0.9567095637321472
71 222 0.9352315664291382
71 223 0.970097541809082
71 224 0.1215895339846611
71 225 0.9549602270126343
71 226 0.9674186110496521
71 227 0.9549602270126343
71 228 0.10639084130525589
71 229 0.05584355816245079
71 230 0.9663450121879578
71 231 0.961039125919342
71 232 0.9652701616287231
71 233 0.9527837038040161
71 234 0.12372960150241852
71 235 0.9549994468688965
71 236 0.15841881930828094
71 237 0.9598394632339478
71 238 0.9593372941017151
71 239 0.9663450121879578
71 240 0.9523189067840576
71 241 0.9663450121879578
71 242 0.9547454714775085
71 244 0.9560465812683105
71 245 0.07209372520446777
71 246 0.28390371799468994
71 247 0.9565893411636353
71 248 0.9658077955245972
71 249 0.9604989290237427
71 250 0.20140977203845978
71 251 0.10340217500925064
71 252 0.9625779390335083
71 253 0.9401311874389648
71 254 0.9646941423416138
71 255 0.9565893411636353
72 73 0.06454972177743912
72 74 0.06461706012487411
72 76 0.06730536371469498
72 84 0.0664089098572731
72 87 0.05477225035429001
72 88 0.06502561271190643
72 92 0.06458336859941483
72 93 0.06421612948179245
72 95 0.0653720498085022
72 96 0.06715342402458191
72 97 0.06471847742795944
72 98 0.06478635221719742
72 99 0.06448258459568024
72 100 0.06454972177743912
72 101 0.06431566923856735
72 102 0.06428243219852448
72 103 0.06530231237411499
72 104 0.06434894353151321
72 106 0.06506000459194183
72 109 0.06512895971536636
72 110 0.07832604646682739
72 111 0.06796276569366455
72 114 0.06523280590772629
72 116 0.06451612710952759
72 117 0.06540699303150177
72 120 0.06800203770399094
72 121 0.06482037156820297
72 126 0.0649227499961853
72 127 0.06434894353151321
72 128 0.06502561271190643
72 129 0.0649227499961853
72 130 0.06438227742910385
72 131 0.06526753306388855
72 132 0.06482037156820297
72 133 0.06509445607662201
72 134 0.050308384001255035
72 136 0.06509445607662201
72 139 0.06512895971536636
72 142 0.06540699303150177
72 143 0.06461706012487411
72 144 0.06482037156820297
72 146 0.06434894353151321
72 149 0.06551217287778854
72 150 0.05933908373117447
72 152 0.06593804806470871
72 154 0.06465081870555878
72 155 0.06572407484054565
72 157 0.06478635221719742
72 158 0.06444909423589706
72 159 0.06506000459194183
72 163 0.06465081870555878
72 169 0.06540699303150177
72 170 0.06523280590772629
72 171 0.06441566348075867
72 173 0.06465081870555878
72 175 0.06488857418298721
72 176 0.10206206887960434
72 179 0.0800640806555748
72 182 0.06488857418298721
72 183 0.1856953352689743
72 185 0.0656886175274849
72 186 0.06461706012487411
72 187 0.06465081870555878
72 189 0.06401844322681427
72 190 0.06454972177743912
72 192 0.06544199585914612
72 194 0.12909944355487823
72 195 0.06428243219852448
72 197 0.0651635229587555
72 198 0.06421612948179245
72 202 0.06565321981906891
72 203 0.06526753306388855
72 205 0.0648544430732727
72 207 0.06495697796344757
72 209 0.06488857418298721
72 213 0.06488857418298721
72 214 0.06593804806470871
72 215 0.06475239247083664
72 216 0.06411705911159515
72 217 0.06468462198972702
72 218 0.06475239247083664
72 220 0.0649227499961853
72 221 0.06471847742795944
72 222 0.06622661650180817
72 223 0.06401844322681427
72 225 0.06502561271190643
72 227 0.06502561271190643
72 230 0.06424925476312637
72 231 0.06444909423589706
72 232 0.06431566923856735
72 233 0.0651635229587555
72 235 0.06495697796344757
72 237 0.06471847742795944
72 238 0.06468462198972702
72 239 0.06424925476312637
72 240 0.06506000459194183
72 241 0.06424925476312637
72 242 0.06544199585914612
72 247 0.0649227499961853
72 248 0.06428243219852448
72 249 0.06448258459568024
72 252 0.06448258459568024
72 253 0.06604582071304321
72 255 0.0649227499961853
73 74 0.9582903981208801
73 75 0.11697740107774734
73 76 0.9232152104377747
73 77 0.9618831872940063
73 78 0.1613743007183075
73 79 0.3694952726364136
73 80 0.9462783336639404
73 81 0.09682458639144897
73 82 0.10704360902309418
73 83 0.9467841982841492
73 84 0.9302088618278503
73 85 0.9639719724655151
73 86 0.9631614685058594
73 87 0.8473495841026306
73 88 0.9528064131736755
73 89 0.952346920967102
73 90 0.17712298035621643
73 91 0.12076146900653839
73 92 0.9588328003883362
73 93 0.964779794216156
73 94 0.12909944355487823
73 95 0.9483882188796997
73 96 0.9265496134757996
73 97 0.960838794708252
73 98 0.9545280337333679
73 99 0.9614989161491394
73 100 0.9604166746139526
73 101 0.9631614685058594
73 102 0.9626638889312744
73 103 0.9463227987289429
73 104 0.9688520431518555
73 105 0.4130741059780121
73 106 0.9543602466583252
73 107 0.9489363431930542
73 108 0.10704360902309418
73 109 0.9490657448768616
73 110 0.37413838505744934
73 111 0.9157816171646118
73 112 0.963659942150116
73 113 0.3891731798648834
73 114 0.9474208950996399
73 116 0.959916889667511
73 117 0.9478397369384766
73 118 0.9592134952545166
73 119 0.955489993095398
73 120 0.9141160249710083
73 121 0.955029308795929
73 122 0.08539125323295593
73 123 0.3610175549983978
73 124 0.07216878235340118
73 125 0.9674301147460938
73 126 0.956537663936615
73 127 0.9626215100288391
73 128 0.9559544920921326
73 129 0.9596807360649109
73 130 0.962081253528595
73 131 0.9510850310325623
73 132 0.9571213722229004
73 133 0.9538151621818542
73 134 0.9222593903541565
73 135 0.948192298412323
73 136 0.9517142176628113
73 138 0.9561902284622192
73 139 0.9532697796821594
73 140 0.21164043247699738
73 141 0.09128709137439728
73 142 0.9488952159881592
73 143 0.9593331217765808
73 144 0.9613054990768433
73 145 0.055901702493429184
73 146 0.964698314666748
73 147 0.17969882488250732
73 148 0.5468224883079529
73 149 0.9504212141036987
73 150 0.25280117988586426
73 151 0.9571624994277954
73 152 0.9374462962150574
73 153 0.942424476146698
73 154 0.9567043781280518
73 155 0.9418286085128784
73 156 0.15478479862213135
73 157 0.9545280337333679
73 158 0.960999608039856
73 159 0.9564601182937622
73 161 0.9631614685058594
73 162 0.1708841472864151
73 163 0.9567043781280518
73 164 0.055901702493429184
73 165 0.9575471878051758
73 166 0.9628573060035706
73 167 0.9610422849655151
73 168 0.9587909579277039
73 169 0.9488952159881592
73 170 0.9505789875984192
73 171 0.9636195302009583
73 173 0.9567043781280518
73 174 0.957585334777832
73 175 0.9570811986923218
73 176 0.1317615807056427
73 177 0.12268692255020142
73 178 0.3228856027126312
73 179 0.3772723376750946
73 180 0.3498231768608093
73 181 0.9571213722229004
73 182 0.960222601890564
73 183 0.16781215369701385
73 184 0.1870310753583908
73 185 0.9445005655288696
73 186 0.9593331217765808
73 187 0.9577476978302002
73 188 0.13332493603229523
73 189 0.970074474811554
73 190 0.9593750238418579
73 191 0.07905694842338562
73 192 0.9451788067817688
73 193 0.6621222496032715
73 194 0.125
73 195 0.9647386074066162
73 196 0.17078250646591187
73 197 0.952724039554596
73 198 0.964779794216156
73 199 0.11741705983877182
73 200 0.27386125922203064
73 201 0.9604583382606506
73 202 0.9439915418624878
73 203 0.9489784836769104
73 204 0.9544423222541809
73 205 0.9555312395095825
73 206 0.09846580028533936
73 207 0.9528489708900452
73 208 0.4396785497665405
73 209 0.9581283330917358
73 210 0.9641993641853333
73 211 0.07319250702857971
73 212 0.2821330428123474
73 213 0.9539398550987244
73 214 0.940638542175293
73 215 0.9561175107955933
73 216 0.966395378112793
73 217 0.9582484364509583
73 218 0.9602972865104675
73 219 0.952724039554596
73 220 0.955489993095398
73 221 0.9577056169509888
73 222 0.9458237886428833
73 223 0.9690413475036621
73 224 0.12932337820529938
73 225 0.9559544920921326
73 226 0.9673900604248047
73 227 0.9517570734024048
73 228 0.09889434278011322
73 229 0.055901702493429184
73 230 0.9663142561912537
73 231 0.9661998152732849
73 232 0.9631614685058594
73 233 0.9558787941932678
73 234 0.1445014923810959
73 235 0.9549455046653748
73 236 0.15248438715934753
73 237 0.9566612839698792
73 238 0.9613799452781677
73 239 0.9683879017829895
73 240 0.9522604942321777
73 241 0.9642406702041626
73 242 0.9462348818778992
73 244 0.9591383934020996
73 245 0.05773502215743065
73 246 0.30449920892715454
73 247 0.9596807360649109
73 248 0.9647386074066162
73 249 0.9614989161491394
73 250 0.2016194611787796
73 251 0.11213564872741699
73 252 0.9677424430847168
73 253 0.9368468523025513
73 254 0.9605010151863098
73 255 0.955489993095398
74 75 0.15154045820236206
74 76 0.9187420606613159
74 77 0.9576593637466431
74 78 0.16154266893863678
74 79 0.3671204745769501
74 80 0.9483216404914856
74 81 0.09692560136318207
74 82 0.09741389006376266
74 83 0.945658802986145
74 84 0.9333248734474182
74 85 0.9566138386726379
74 86 0.9641663432121277
74 87 0.854132354259491
74 88 0.9569517970085144
74 89 0.9543891549110413
74 90 0.18838949501514435
74 91 0.12088746577501297
74 92 0.9671362638473511
74 93 0.9647489786148071
74 94 0.12923412024974823
74 95 0.9483216404914856
74 96 0.9166681170463562
74 97 0.9555683732032776
74 98 0.9534308314323425
74 99 0.9614604115486145
74 100 0.9614186882972717
74 101 0.9652053117752075
74 102 0.9626297950744629
74 103 0.9494198560714722
74 104 0.9605072736740112
74 105 0.4386352002620697
74 106 0.9543049931526184
74 107 0.9488708972930908
74 108 0.10715528577566147
74 109 0.9500558972358704
74 110 0.3897123634815216
74 111 0.9112475514411926
74 112 0.961546778678894
74 113 0.389579176902771
74 114 0.9473555684089661
74 116 0.9609183073043823
74 117 0.9467153549194336
74 118 0.9602141976356506
74 119 0.9522916078567505
74 120 0.9117741584777832
74 121 0.9549785256385803
74 122 0.08548034727573395
74 123 0.3557911813259125
74 124 0.0722440779209137
74 125 0.9642963409423828
74 126 0.9543891549110413
74 127 0.9625862836837769
74 128 0.952750027179718
74 129 0.9554380178451538
74 130 0.9630849361419678
74 131 0.9468055367469788
74 132 0.9549785256385803
74 133 0.9527071714401245
74 134 0.922137975692749
74 135 0.9417494535446167
74 136 0.9516556262969971
74 138 0.9444676041603088
74 139 0.9532122015953064
74 140 0.2020072191953659
74 141 0.07995954155921936
74 142 0.9446021914482117
74 143 0.9572024941444397
74 144 0.9581198692321777
74 145 0.05596001818776131
74 146 0.9636257886886597
74 147 0.15667515993118286
74 148 0.517295777797699
74 149 0.9482378363609314
74 150 0.25689926743507385
74 151 0.9571150541305542
74 152 0.9373591542243958
74 153 0.9455276131629944
74 154 0.956658124923706
74 155 0.9428111910820007
74 156 0.1414726972579956
74 157 0.9565705060958862
74 158 0.9599199295043945
74 159 0.9501010179519653
74 161 0.961049497127533
74 162 0.16516371071338654
74 163 0.9577024579048157
74 164 0.05596001818776131
74 165 0.9501470327377319
74 166 0.9554805159568787
74 167 0.9610047936439514
74 168 0.9618800282478333
74 169 0.9488286375999451
74 170 0.9494631290435791
74 171 0.9625437259674072
74 173 0.9577024579048157
74 174 0.9512428641319275
74 175 0.9633208513259888
74 176 0.15827883780002594
74 177 0.13726374506950378
74 178 0.3106701374053955
74 179 0.3802526593208313
74 180 0.35298967361450195
74 181 0.9560256600379944
74 182 0.9517903327941895
74 183 0.14998860657215118
74 184 0.21186122298240662
74 185 0.9465470314025879
74 186 0.9572024941444397
74 187 0.9618800282478333
74 188 0.1682807356119156
74 189 0.9669498801231384
74 190 0.9572476744651794
74 191 0.07913941890001297
74 192 0.9493364691734314
74 193 0.6733577251434326
74 194 0.09176230430603027
74 195 0.9657451510429382
74 196 0.1709606945514679
74 197 0.9537180066108704
74 198 0.9647489786148071
74 199 0.12537550926208496
74 200 0.25891658663749695
74 201 0.9614604115486145
74 202 0.9428552389144897
74 203 0.9468055367469788
74 204 0.9533404111862183
74 205 0.9554805159568787
74 206 0.08960775285959244
74 207 0.9517444968223572
74 208 0.4423828423023224
74 209 0.9549350738525391
74 210 0.962088406085968
74 211 0.06105739250779152
74 212 0.32949861884117126
74 213 0.9559832811355591
74 214 0.938424289226532
74 215 0.9592071175575256
74 216 0.9653320908546448
74 217 0.9571583271026611
74 218 0.9592071175575256
74 219 0.9474020004272461
74 220 0.9512428641319275
74 221 0.9618412256240845
74 222 0.9350422620773315
74 223 0.9669498801231384
74 224 0.12945829331874847
74 225 0.9495987296104431
74 226 0.963215172290802
74 227 0.9559013247489929
74 228 0.12184310704469681
74 229 0.05596001818776131
74 230 0.9631708264350891
74 231 0.9588788151741028
74 232 0.962088406085968
74 233 0.9495073556900024
74 234 0.15154045820236206
74 235 0.9548923969268799
74 236 0.16485494375228882
74 237 0.9545229077339172
74 238 0.956113338470459
74 239 0.9693982005119324
74 240 0.951151967048645
74 241 0.964208722114563
74 242 0.9525079131126404
74 244 0.9548923969268799
74 245 0.0722440779209137
74 246 0.2912694811820984
74 247 0.9522916078567505
74 248 0.9626297950744629
74 249 0.959377110004425
74 250 0.20182982087135315
74 251 0.12088746577501297
74 252 0.9583353996276855
74 253 0.9378242492675781
74 254 0.9604625105857849
74 255 0.9575355052947998
75 76 0.12914596498012543
75 77 0.15177829563617706
75 79 0.07285986840724945
75 80 0.13937367498874664
75 83 0.13944818079471588
75 84 0.14158426225185394
75 85 0.1310812532901764
75 86 0.1508336067199707
75 88 0.15249857306480408
75 89 0.15225733816623688
75 92 0.1514614224433899
75 93 0.11637286096811295
75 94 0.10660035163164139
75 95 0.15331104397773743
75 96 0.07158579677343369
75 97 0.12418223917484283
75 98 0.1381249725818634
75 99 0.13060347735881805
75 100 0.12385842204093933
75 101 0.1508336067199707
75 102 0.13705061376094818
75 103 0.15314750373363495
75 104 0.13719241321086884
75 105 0.10552897304296494
75 106 0.14564381539821625
75 107 0.15322920680046082
75 109 0.13885541260242462
75 111 0.12316253781318665
75 112 0.14405202865600586
75 113 0.05040770769119263
75 114 0.14603066444396973
75 116 0.1513037383556366
75 117 0.14642059803009033
75 118 0.1520172506570816
75 119 0.1453365534543991
75 120 0.14498083293437958
75 121 0.1520172506570816
75 122 0.08058229088783264
75 125 0.1503678262233734
75 126 0.13149496912956238
75 127 0.14405202865600586
75 128 0.15249857306480408
75 129 0.13841576874256134
75 130 0.14412665367126465
75 131 0.13219329714775085
75 132 0.13819749653339386
75 133 0.1457209289073944
75 134 0.1430104523897171
75 135 0.14012420177459717
75 136 0.1457209289073944
75 138 0.1259079873561859
75 139 0.13191263377666473
75 142 0.14642059803009033
75 143 0.10332302749156952
75 144 0.1520172506570816
75 146 0.15091165900230408
75 148 0.08689117431640625
75 149 0.10475432127714157
75 151 0.15185782313346863
75 152 0.1476094126701355
75 153 0.14689265191555023
75 154 0.14472781121730804
75 155 0.12611177563667297
75 157 0.14503122866153717
75 158 0.1442762315273285
75 159 0.13870839774608612
75 161 0.13712146878242493
75 163 0.14472781121730804
75 165 0.13856184482574463
75 166 0.13827012479305267
75 167 0.150989830493927
75 168 0.14472781121730804
75 169 0.12550336122512817
75 170 0.14603066444396973
75 171 0.15106812119483948
75 173 0.15161961317062378
75 174 0.15225733816623688
75 175 0.1452600359916687
75 177 0.09534625709056854
75 178 0.08283153176307678
75 179 0.05120915174484253
75 180 0.11092107743024826
75 181 0.14510737359523773
75 182 0.0968400165438652
75 184 0.1950768232345581
75 185 0.1540534645318985
75 186 0.14465224742889404
75 187 0.14472781121730804
75 188 0.15316791832447052
75 189 0.1501365602016449
75 190 0.1445014923810959
75 192 0.14649894833564758
75 193 0.08946481347084045
75 195 0.15075567364692688
75 196 0.16116458177566528
75 197 0.14587555825710297
75 198 0.1437547206878662
75 200 0.07537782937288284
75 201 0.15122507512569427
75 202 0.13997311890125275
75 203 0.14610838890075684
75 204 0.13841576874256134
75 205 0.15209715068340302
75 206 0.11826248466968536
75 207 0.14541317522525787
75 208 0.17782168090343475
75 209 0.13834288716316223
75 210 0.1508336067199707
75 212 0.08283153176307678
75 213 0.13142573833465576
75 214 0.1476094126701355
75 215 0.1380525678396225
75 216 0.14353293180465698
75 217 0.1448034942150116
75 218 0.1380525678396225
75 219 0.13198263943195343
75 220 0.13841576874256134
75 221 0.1448792815208435
75 222 0.12001627683639526
75 223 0.1501365602016449
75 224 0.05025188997387886
75 225 0.15249857306480408
75 226 0.1505226045846939
75 227 0.15249857306480408
75 228 0.10050377994775772
75 230 0.13013088703155518
75 231 0.13053564727306366
75 232 0.1508336067199707
75 233 0.13198263943195343
75 234 0.09090908616781235
75 235 0.12463986873626709
75 236 0.12087343633174896
75 237 0.1448792815208435
75 238 0.1448034942150116
75 239 0.1506778746843338
75 240 0.15257923305034637
75 241 0.143828883767128
75 242 0.14649894833564758
75 244 0.15233762562274933
75 247 0.13149496912956238
75 248 0.14390315115451813
75 249 0.14435119926929474
75 251 0.05698028579354286
75 252 0.10998187214136124
75 253 0.12672914564609528
75 254 0.15106812119483948
75 255 0.15225733816623688
76 77 0.916917085647583
76 78 0.1480717957019806
76 79 0.2932645380496979
76 80 0.9019772410392761
76 81 0.07852292060852051
76 82 0.10146664828062057
76 83 0.9046605229377747
76 84 0.9140486121177673
76 85 0.9180060625076294
76 86 0.9220320582389832
76 87 0.8061072826385498
76 88 0.9157976508140564
76 89 0.91107177734375
76 90 0.12697051465511322
76 91 0.09893462806940079
76 92 0.9215230345726013
76 93 0.9216856360435486
76 94 0.12619754672050476
76 95 0.9085770845413208
76 96 0.8937876224517822
76 97 0.919094979763031
76 98 0.9222391247749329
76 99 0.9244250655174255
76 100 0.9210429787635803
76 101 0.9241964221000671
76 102 0.9302087426185608
76 103 0.9131019115447998
76 104 0.9322539567947388
76 105 0.3664590120315552
76 106 0.9129979610443115
76 107 0.9102908968925476
76 108 0.10146664828062057
76 109 0.9128698110580444
76 110 0.3795669376850128
76 111 0.867965579032898
76 112 0.9192608594894409
76 113 0.3394819498062134
76 114 0.9209110736846924
76 116 0.9227347373962402
76 117 0.9178672432899475
76 118 0.9139979481697083
76 119 0.9121641516685486
76 120 0.874188244342804
76 121 0.9205420613288879
76 122 0.08903662115335464
76 123 0.3384946584701538
76 124 0.07524967938661575
76 125 0.9245790839195251
76 126 0.9219958782196045
76 127 0.9214263558387756
76 128 0.9147035479545593
76 129 0.9165338277816772
76 130 0.9273203015327454
76 131 0.9071244597434998
76 132 0.9118164777755737
76 133 0.9211484789848328
76 134 0.8905242681503296
76 135 0.9001990556716919
76 136 0.9145766496658325
76 138 0.9108896255493164
76 139 0.9150615334510803
76 140 0.1847514808177948
76 141 0.09518415480852127
76 142 0.9090627431869507
76 143 0.9285274744033813
76 144 0.9139979481697083
76 146 0.9268401861190796
76 147 0.16319338977336884
76 148 0.48003697395324707
76 149 0.9171386957168579
76 150 0.27557486295700073
76 151 0.9184870719909668
76 152 0.9164436459541321
76 153 0.9064732193946838
76 154 0.9301003217697144
76 155 0.9068344831466675
76 156 0.13332431018352509
76 157 0.9265996217727661
76 158 0.9196072220802307
76 159 0.9119032621383667
76 161 0.9220320582389832
76 162 0.15974688529968262
76 163 0.9203097820281982
76 164 0.058288149535655975
76 165 0.9273433089256287
76 166 0.9122957587242126
76 167 0.9262369275093079
76 168 0.9203097820281982
76 169 0.9112639427185059
76 170 0.9198134541511536
76 171 0.9234656691551208
76 173 0.9224855303764343
76 174 0.9121641516685486
76 175 0.9236941337585449
76 176 0.15799446403980255
76 177 0.1504993587732315
76 178 0.30398324131965637
76 179 0.412238746881485
76 180 0.3443307876586914
76 181 0.9150885939598083
76 182 0.9105921387672424
76 183 0.17497608065605164
76 184 0.20014743506908417
76 185 0.909661054611206
76 186 0.9187420606613159
76 187 0.9213976860046387
76 188 0.17528179287910461
76 189 0.9263885617256165
76 190 0.9221290946006775
76 191 0.08243189007043839
76 192 0.909549355506897
76 193 0.6040897369384766
76 194 0.1216471791267395
76 195 0.9226372838020325
76 196 0.1653537154197693
76 197 0.9111611843109131
76 198 0.9270882606506348
76 199 0.10610565543174744
76 200 0.2419264018535614
76 201 0.9190000295639038
76 202 0.9080661535263062
76 203 0.9148120284080505
76 204 0.91107177734375
76 205 0.9232084155082703
76 206 0.12133646011352539
76 207 0.9137381911277771
76 208 0.3976338803768158
76 209 0.9226023554801941
76 210 0.9285252094268799
76 211 0.06359758973121643
76 212 0.3105205297470093
76 213 0.9346125721931458
76 214 0.9020202159881592
76 215 0.9184870719909668
76 216 0.9288945198059082
76 217 0.9262329936027527
76 218 0.9163079857826233
76 219 0.9144505858421326
76 220 0.9165338277816772
76 221 0.9136501550674438
76 222 0.8959386348724365
76 223 0.9274657964706421
76 224 0.11104817688465118
76 225 0.9125152826309204
76 226 0.9233707785606384
76 227 0.9114211201667786
76 228 0.08725214749574661
76 230 0.9264854788780212
76 231 0.9206916689872742
76 232 0.9361006021499634
76 233 0.924318790435791
76 234 0.15067028999328613
76 235 0.9181101322174072
76 236 0.13355493545532227
76 237 0.9180060625076294
76 238 0.9197025895118713
76 239 0.9275665283203125
76 240 0.9129979610443115
76 241 0.9243232607841492
76 242 0.9084482192993164
76 244 0.9148311614990234
76 245 0.06019974127411842
76 246 0.25399866700172424
76 247 0.9198110699653625
76 248 0.9237189292907715
76 249 0.9222550392150879
76 250 0.20497097074985504
76 251 0.10792867839336395
76 252 0.9211700558662415
76 253 0.9023832082748413
76 254 0.9191301465034485
76 255 0.9154413938522339
77 78 0.15532435476779938
77 79 0.3676966428756714
77 80 0.9476945400238037
77 81 0.08629130572080612
77 82 0.09756678342819214
77 83 0.9450265169143677
77 84 0.927268385887146
77 85 0.963350772857666
77 86 0.9625577926635742
77 87 0.8412937521934509
77 88 0.9521411061286926
77 89 0.9527358412742615
77 90 0.18868517875671387
77 91 0.12107718735933304
77 92 0.9634295105934143
77 93 0.9621071219444275
77 94 0.12134714424610138
77 95 0.948752224445343
77 96 0.917020320892334
77 97 0.9539267420768738
77 98 0.9538789391517639
77 99 0.9567095637321472
77 100 0.95561683177948
77 101 0.9604765772819519
77 102 0.9599803686141968
77 103 0.9445706009864807
77 104 0.9588913321495056
77 105 0.4278829097747803
77 106 0.9494868516921997
77 107 0.950360119342804
77 108 0.10732346028089523
77 109 0.9494393467903137
77 110 0.38018569350242615
77 111 0.9060801267623901
77 112 0.9640970826148987
77 113 0.37998950481414795
77 114 0.946731448173523
77 116 0.9624264240264893
77 117 0.9450265169143677
77 118 0.9575261473655701
77 119 0.9495845437049866
77 120 0.908804178237915
77 121 0.9522823095321655
77 122 0.0733838602900505
77 123 0.3367082476615906
77 124 0.07235746085643768
77 125 0.9689218997955322
77 126 0.95168536901474
77 127 0.9609736204147339
77 128 0.953193187713623
77 129 0.9537862539291382
77 130 0.959388017654419
77 131 0.9451234936714172
77 132 0.9533310532569885
77 133 0.9531491994857788
77 134 0.919244110584259
77 135 0.9506711959838867
77 136 0.9468300342559814
77 138 0.9448882937431335
77 139 0.9462780952453613
77 140 0.19738951325416565
77 141 0.09152575582265854
77 142 0.9450265169143677
77 143 0.9555683732032776
77 144 0.9543797969818115
77 145 0.056047845631837845
77 146 0.9620147347450256
77 147 0.15110917389392853
77 148 0.5463680624961853
77 149 0.9444262981414795
77 150 0.2534621059894562
77 151 0.9554742574691772
77 152 0.9377634525299072
77 153 0.9427649974822998
77 154 0.9550215005874634
77 155 0.9389739036560059
77 156 0.1484420895576477
77 157 0.9538789391517639
77 158 0.9593409299850464
77 159 0.9484341740608215
77 161 0.9604765772819519
77 162 0.1654229313135147
77 163 0.9539754390716553
77 164 0.056047845631837845
77 165 0.9526897668838501
77 166 0.9548814296722412
77 167 0.9614713191986084
77 168 0.9560675024986267
77 169 0.9439681768417358
77 170 0.9456760287284851
77 171 0.9619699716567993
77 173 0.9560675024986267
77 174 0.9548366665840149
77 175 0.9522342681884766
77 176 0.1387113481760025
77 177 0.13747917115688324
77 178 0.3205867409706116
77 179 0.3627137541770935
77 180 0.35634955763816833
77 181 0.9617211818695068
77 182 0.9501345157623291
77 183 0.15623296797275543
77 184 0.20725899934768677
77 185 0.9405929446220398
77 186 0.9555683732032776
77 187 0.9581595659255981
77 188 0.16854484379291534
77 189 0.9663957953453064
77 190 0.9566612839698792
77 191 0.07926362752914429
77 192 0.942355751991272
77 193 0.6713970303535461
77 194 0.10861656069755554
77 195 0.9631005525588989
77 196 0.17122900485992432
77 197 0.9488889575004578
77 198 0.9610681533813477
77 199 0.13342057168483734
77 200 0.274577260017395
77 201 0.9629693627357483
77 202 0.9390237927436829
77 203 0.9451234936714172
77 204 0.9537862539291382
77 205 0.9538321495056152
77 206 0.11667290329933167
77 207 0.952187180519104
77 208 0.45657190680503845
77 209 0.9564337730407715
77 210 0.9646390080451965
77 211 0.08561450242996216
77 212 0.30487167835235596
77 213 0.9522342681884766
77 214 0.9377634525299072
77 215 0.9544265866279602
77 216 0.9626975655555725
77 217 0.9555208086967468
77 218 0.9544265866279602
77 219 0.9467803239822388
77 220 0.9527358412742615
77 221 0.9539267420768738
77 222 0.9311521649360657
77 223 0.9695032238960266
77 224 0.1296614706516266
77 225 0.9510890245437622
77 226 0.9657654762268066
77 227 0.9542453289031982
77 228 0.1296614706516266
77 229 0.056047845631837845
77 230 0.9657220244407654
77 231 0.957255482673645
77 232 0.9604765772819519
77 233 0.9499432444572449
77 234 0.1448792815208435
77 235 0.9553401470184326
77 236 0.17122900485992432
77 237 0.9560209512710571
77 238 0.9565674066543579
77 239 0.9636430144309998
77 240 0.9515921473503113
77 241 0.9615639448165894
77 242 0.942355751991272
77 244 0.9532381892204285
77 245 0.07235746085643768
77 246 0.29851096868515015
77 247 0.9537862539291382
77 248 0.9599803686141968
77 249 0.9629693627357483
77 250 0.17687824368476868
77 251 0.12107718735933304
77 252 0.9577528834342957
77 253 0.9392961263656616
77 254 0.9588432908058167
77 255 0.9569375514984131
78 80 0.150355726480484
78 83 0.15697677433490753
78 84 0.13945871591567993
78 85 0.1617961972951889
78 86 0.1607891470193863
78 87 0.058423738926649094
78 88 0.1365537792444229
78 89 0.14932233095169067
78 91 0.053452249616384506
78 92 0.15500007569789886
78 93 0.16054031252861023
78 94 0.10000000894069672
78 95 0.14381851255893707
78 96 0.1410222053527832
78 97 0.14885251224040985
78 98 0.14252997934818268
78 99 0.15475820004940033
78 100 0.1549193263053894
78 101 0.1607891470193863
78 102 0.15427783131599426
78 103 0.1436651051044464
78 104 0.16087237000465393
78 105 0.0707106813788414
78 106 0.14963801205158234
78 107 0.15680916607379913
78 108 0.18090680241584778
78 109 0.1628224104642868
78 111 0.14951808750629425
78 112 0.16087237000465393
78 113 0.1260976642370224
78 114 0.13698890805244446
78 115 0.20000001788139343
78 116 0.1548387110233307
78 117 0.15043608844280243
78 118 0.16205093264579773
78 119 0.1298454999923706
78 120 0.13600409030914307
78 121 0.14260482788085938
78 122 0.07559289038181305
78 123 0.08671099692583084
78 125 0.1602926403284073
78 126 0.1298454999923706
78 127 0.16087237000465393
78 128 0.16256402432918549
78 129 0.14932233095169067
78 130 0.16095568239688873
78 131 0.15011532604694366
78 132 0.1555688977241516
78 133 0.15622667968273163
78 134 0.16098684072494507
78 135 0.16431020200252533
78 136 0.15622667968273163
78 138 0.16404467821121216
78 139 0.15630951523780823
78 142 0.11119188368320465
78 143 0.14861926436424255
78 144 0.16205093264579773
78 145 0.11547005921602249
78 146 0.15443746745586395
78 148 0.09315560758113861
78 149 0.13102436065673828
78 151 0.1618809700012207
78 152 0.1318761110305786
78 153 0.16404467821121216
78 154 0.14223182201385498
78 155 0.16431020200252533
78 157 0.16196587681770325
78 158 0.16112273931503296
78 159 0.13012000918388367
78 161 0.14149446785449982
78 163 0.16162705421447754
78 164 0.11547005921602249
78 165 0.16247816383838654
78 166 0.14916522800922394
78 167 0.16095568239688873
78 168 0.15516197681427002
78 169 0.16351747512817383
78 170 0.15655873715877533
78 171 0.16103914380073547
78 173 0.16162705421447754
78 174 0.15581458806991577
78 175 0.14924371242523193
78 178 0.09712859243154526
78 180 0.06936880201101303
78 181 0.1490868777036667
78 182 0.15573255717754364
78 184 0.06099943071603775
78 185 0.16422154009342194
78 186 0.16154266893863678
78 187 0.15516197681427002
78 189 0.14724242687225342
78 190 0.14200939238071442
78 191 0.08164966106414795
78 192 0.1636049896478653
78 193 0.13987572491168976
78 195 0.1607060730457306
78 197 0.16290879249572754
78 198 0.13485386967658997
78 199 0.09701424837112427
78 200 0.1178511381149292
78 201 0.1612064689397812
78 202 0.16413304209709167
78 203 0.16316883265972137
78 204 0.16230687499046326
78 205 0.16213610768318176
78 207 0.16239243745803833
78 209 0.16222141683101654
78 210 0.15435758233070374
78 212 0.07770287245512009
78 213 0.16222141683101654
78 214 0.15165752172470093
78 215 0.15540573000907898
78 216 0.14746923744678497
78 217 0.1487746387720108
78 218 0.15540573000907898
78 219 0.14987610280513763
78 220 0.14932233095169067
78 221 0.1617961972951889
78 222 0.15894387662410736
78 223 0.16004610061645508
78 224 0.094280906021595
78 225 0.16256402432918549
78 226 0.16045762598514557
78 227 0.16256402432918549
78 229 0.11547005921602249
78 230 0.14777329564094543
78 231 0.14823293685913086
78 232 0.1607891470193863
78 233 0.14335975050926208
78 235 0.11692256480455399
78 237 0.1617961972951889
78 238 0.16171155869960785
78 239 0.16062313318252563
78 240 0.162650004029274
78 241 0.16062313318252563
78 242 0.1505165994167328
78 244 0.16239243745803833
78 247 0.15581458806991577
78 248 0.1607060730457306
78 249 0.1612064689397812
78 251 0.053452249616384506
78 252 0.14830996096134186
78 253 0.1519053876399994
78 254 0.16103914380073547
78 255 0.16230687499046326
79 80 0.35186195373535156
79 81 0.08543576300144196
79 83 0.3436679542064667
79 84 0.3177269697189331
79 85 0.3732259273529053
79 86 0.3489234745502472
79 87 0.2838902175426483
79 88 0.3777748644351959
79 89 0.3660838007926941
79 90 0.1758253425359726
79 92 0.372446745634079
79 93 0.35386985540390015
79 94 0.06407682597637177
79 95 0.36303219199180603
79 96 0.2926025390625
79 97 0.36493200063705444
79 98 0.345941960811615
79 99 0.37462010979652405
79 100 0.36673784255981445
79 101 0.35716578364372253
79 102 0.3377591371536255
79 103 0.38217201828956604
79 104 0.35735058784484863
79 105 0.28997859358787537
79 106 0.3640785813331604
79 107 0.36283841729164124
79 108 0.07727955281734467
79 109 0.3338605761528015
79 110 0.0869939923286438
79 111 0.3541935086250305
79 112 0.3765925467014313
79 113 0.28279781341552734
79 114 0.3260330557823181
79 116 0.3582790195941925
79 117 0.3436679542064667
79 118 0.35719960927963257
79 119 0.3660838007926941
79 120 0.3543981909751892
79 121 0.354430615901947
79 122 0.06458336859941483
79 123 0.23706305027008057
79 125 0.3697575628757477
79 126 0.37163054943084717
79 127 0.35460174083709717
79 128 0.36388611793518066
79 129 0.3466702699661255
79 130 0.37678763270378113
79 131 0.3652399182319641
79 132 0.36827555298805237
79 133 0.36983275413513184
79 134 0.31806203722953796
79 135 0.3706023097038269
79 136 0.3587099611759186
79 138 0.3643973469734192
79 139 0.3672465980052948
79 142 0.3632262945175171
79 143 0.3367571532726288
79 144 0.37381353974342346
79 146 0.34910401701927185
79 147 0.09206829220056534
79 148 0.25368741154670715
79 149 0.33582496643066406
79 150 0.07097551226615906
79 151 0.3595910668373108
79 152 0.3070239722728729
79 153 0.35598817467689514
79 154 0.33693304657936096
79 155 0.32568082213401794
79 156 0.05344376340508461
79 157 0.31273153424263
79 158 0.3496473729610443
79 159 0.3779746890068054
79 160 0.0604122094810009
79 161 0.36815547943115234
79 163 0.3673122227191925
79 165 0.3720227777957916
79 166 0.36846911907196045
79 167 0.3492848575115204
79 168 0.36455047130584717
79 169 0.3604322373867035
79 170 0.34553930163383484
79 171 0.36047279834747314
79 173 0.36455047130584717
79 174 0.36331048607826233
79 175 0.3631192147731781
79 178 0.2489476501941681
79 179 0.0889243632555008
79 180 0.18520550429821014
79 181 0.36827555298805237
79 182 0.3548034727573395
79 183 0.0793251171708107
79 184 0.09120182693004608
79 185 0.37882059812545776
79 186 0.3698807656764984
79 187 0.34245651960372925
79 189 0.35004571080207825
79 190 0.35570815205574036
79 192 0.3214874863624573
79 193 0.26290854811668396
79 195 0.3624732196331024
79 196 0.08072920888662338
79 197 0.34238865971565247
79 198 0.35661303997039795
79 199 0.06216364726424217
79 201 0.36635640263557434
79 202 0.35898450016975403
79 203 0.3317827880382538
79 204 0.3605371117591858
79 205 0.36846911907196045
79 207 0.34130340814590454
79 208 0.23752784729003906
79 209 0.3520315885543823
79 210 0.3489234745502472
79 212 0.0580877847969532
79 213 0.3437158763408661
79 214 0.3464582562446594
79 215 0.3236319422721863
79 216 0.35880181193351746
79 217 0.3426355719566345
79 218 0.3706553876399994
79 219 0.334037721157074
79 220 0.36331048607826233
79 221 0.37599053978919983
79 222 0.3649488687515259
79 223 0.3691888451576233
79 224 0.0604122057557106
79 225 0.3749971091747284
79 226 0.37013816833496094
79 227 0.36944159865379333
79 230 0.3677753210067749
79 231 0.363413006067276
79 232 0.3654080629348755
79 233 0.34238865971565247
79 234 0.2003646343946457
79 235 0.34130340814590454
79 236 0.24218761920928955
79 237 0.3511088192462921
79 238 0.359214723110199
79 239 0.3595415949821472
79 240 0.3390655517578125
79 241 0.3705199360847473
79 242 0.3131008744239807
79 244 0.35795238614082336
79 246 0.161209836602211
79 247 0.3466702699661255
79 248 0.3624732196331024
79 249 0.3470745086669922
79 250 0.10674260556697845
79 251 0.09133467823266983
79 252 0.36360183358192444
79 253 0.3583098351955414
79 254 0.3687278926372528
79 255 0.349443644285202
80 81 0.08716272562742233
80 82 0.07884165644645691
80 83 0.9374667406082153
80 84 0.9181819558143616
80 85 0.9445214867591858
80 86 0.9596648812294006
80 87 0.8354673385620117
80 88 0.937313973903656
80 89 0.9475026726722717
80 90 0.1849849969148636
80 91 0.11356418579816818
80 92 0.9467715620994568
80 93 0.9529323577880859
80 94 0.10622957348823547
80 95 0.938034176826477
80 96 0.9098185896873474
80 97 0.9498099684715271
80 98 0.9433944225311279
80 99 0.9484556913375854
80 100 0.950498104095459
80 101 0.9502049088478088
80 102 0.9549667835235596
80 103 0.9359663724899292
80 104 0.9485933184623718
80 105 0.4368264377117157
80 106 0.9441894292831421
80 107 0.9343301057815552
80 108 0.08869685977697372
80 109 0.936674952507019
80 110 0.37890470027923584
80 111 0.8985694050788879
80 112 0.9496449828147888
80 113 0.3529146611690521
80 114 0.9381684064865112
80 116 0.950003445148468
80 117 0.9374667406082153
80 118 0.9438897967338562
80 119 0.9411364197731018
80 120 0.9068681597709656
80 121 0.9449491500854492
80 122 0.07412493228912354
80 123 0.3457770049571991
80 124 0.07308816909790039
80 125 0.9535578489303589
80 126 0.9400753974914551
80 127 0.951748251914978
80 128 0.9405021071434021
80 129 0.94325852394104
80 130 0.9480324387550354
80 131 0.9365344643592834
80 132 0.9428304433822632
80 133 0.9372425079345703
80 134 0.9120832681655884
80 135 0.9323442578315735
80 136 0.9468171000480652
80 138 0.93190997838974
80 139 0.9388037323951721
80 140 0.2143365889787674
80 141 0.09245003759860992
80 142 0.9385356307029724
80 143 0.9451534748077393
80 144 0.946008563041687
80 145 0.056613851338624954
80 146 0.9496449828147888
80 147 0.16437631845474243
80 148 0.5252428650856018
80 149 0.9368330240249634
80 150 0.2560217082500458
80 151 0.9439581036567688
80 152 0.9353796243667603
80 153 0.9351271986961365
80 154 0.9498736262321472
80 155 0.9323442578315735
80 156 0.14994116127490997
80 157 0.945512056350708
80 158 0.9511229991912842
80 159 0.9399363398551941
80 161 0.9533582329750061
80 162 0.17902871966362
80 163 0.9498736262321472
80 165 0.9378811120986938
80 166 0.9486256241798401
80 167 0.9480324387550354
80 168 0.9456472396850586
80 169 0.9331909418106079
80 170 0.9349700808525085
80 171 0.9516823291778564
80 173 0.9445906281471252
80 174 0.9443195462226868
80 175 0.9417014718055725
80 176 0.15345615148544312
80 177 0.14617633819580078
80 178 0.32064947485923767
80 179 0.3742275834083557
80 180 0.3429427444934845
80 181 0.9428304433822632
80 182 0.9448828101158142
80 183 0.17601962387561798
80 184 0.2093520313501358
80 185 0.9286206364631653
80 186 0.9462094902992249
80 187 0.9509301781654358
80 188 0.17611747980117798
80 189 0.9583687782287598
80 190 0.9483882188796997
80 191 0.05337604880332947
80 192 0.9347598552703857
80 193 0.6675092577934265
80 194 0.12659242749214172
80 195 0.9581184983253479
80 196 0.1358957141637802
80 197 0.9446267485618591
80 198 0.9529323577880859
80 199 0.12684039771556854
80 200 0.254237562417984
80 201 0.9495095014572144
80 202 0.9334850311279297
80 203 0.9418678283691406
80 204 0.9411364197731018
80 205 0.9433260560035706
80 206 0.10878565907478333
80 207 0.9395095109939575
80 208 0.4611826539039612
80 209 0.9448828101158142
80 210 0.9502049088478088
80 211 0.08647909015417099
80 212 0.33334845304489136
80 213 0.9417014718055725
80 214 0.9343019723892212
80 215 0.9439581036567688
80 216 0.9556536078453064
80 217 0.9471988081932068
80 218 0.9481911063194275
80 219 0.9424968361854553
80 220 0.9443195462226868
80 221 0.9476945400238037
80 222 0.9178263545036316
80 223 0.9552299976348877
80 224 0.1386750489473343
80 225 0.943690299987793
80 226 0.9513925313949585
80 227 0.9447529911994934
80 228 0.1386750489473343
80 229 0.056613851338624954
80 230 0.9502738118171692
80 231 0.9511229991912842
80 232 0.9523071050643921
80 233 0.937171995639801
80 234 0.13937367498874664
80 235 0.9458790421485901
80 236 0.1544269472360611
80 237 0.9498099684715271
80 238 0.9450845718383789
80 239 0.9502738118171692
80 240 0.9441894292831421
80 241 0.9555239677429199
80 242 0.9390379190444946
80 244 0.9395095109939575
80 245 0.07308816909790039
80 246 0.304951936006546
80 247 0.9421975016593933
80 248 0.9518150687217712
80 249 0.9516172409057617
80 250 0.18887387216091156
80 251 0.12229989469051361
80 252 0.950563371181488
80 253 0.9228763580322266
80 254 0.9527350068092346
80 255 0.94325852394104
81 83 0.09811048954725266
81 84 0.07747705280780792
81 85 0.07550489157438278
81 86 0.08575422316789627
81 87 0.10954451560974121
81 88 0.09753841161727905
81 89 0.09738411754369736
81 90 0.057166192680597305
81 92 0.07534725964069366
81 93 0.09632419049739838
81 95 0.0980580672621727
81 96 0.10073014348745346
81 97 0.09707771986722946
81 98 0.09717953205108643
81 99 0.09672388434410095
81 100 0.08606629818677902
81 101 0.08575422316789627
81 102 0.09642364829778671
81 103 0.09795347601175308
81 104 0.06434894353151321
81 105 0.0707106813788414
81 106 0.09759000688791275
81 107 0.09800572693347931
81 109 0.09769343584775925
81 111 0.09061701595783234
81 112 0.08579859137535095
81 114 0.09784920513629913
81 116 0.07526881992816925
81 117 0.0872093215584755
81 118 0.09723056107759476
81 119 0.08656366169452667
81 120 0.06800203770399094
81 121 0.09723056107759476
81 124 0.14907120168209076
81 125 0.09617558866739273
81 126 0.09738411754369736
81 127 0.08579859137535095
81 128 0.06502560526132584
81 129 0.08656366169452667
81 130 0.09657341986894608
81 131 0.09790129959583282
81 132 0.09723056107759476
81 133 0.09764168411493301
81 134 0.10061677545309067
81 135 0.09858611971139908
81 136 0.09764168411493301
81 138 0.09842680394649506
81 139 0.09769343584775925
81 142 0.09811048954725266
81 143 0.09692560136318207
81 144 0.08642716705799103
81 146 0.09652341902256012
81 149 0.09826827049255371
81 151 0.08633652329444885
81 152 0.09890707582235336
81 153 0.07655417919158936
81 154 0.09697623550891876
81 155 0.09858611971139908
81 157 0.09717953205108643
81 158 0.0966736450791359
81 159 0.09759000688791275
81 161 0.09647350013256073
81 162 0.12171611934900284
81 163 0.09697623550891876
81 165 0.054159391671419144
81 166 0.09728167206048965
81 167 0.09657341986894608
81 168 0.09697623550891876
81 169 0.0872093215584755
81 170 0.09784920513629913
81 171 0.07515160739421844
81 173 0.09697623550891876
81 174 0.09738411754369736
81 175 0.09733285009860992
81 176 0.13608276844024658
81 179 0.0800640732049942
81 181 0.09723056107759476
81 182 0.09733285009860992
81 184 0.05083286017179489
81 185 0.09853293001651764
81 186 0.08615608513355255
81 187 0.09697623550891876
81 189 0.0960276648402214
81 190 0.09682458639144897
81 191 0.13608276844024658
81 192 0.09816300123929977
81 195 0.09642364829778671
81 197 0.09774527698755264
81 198 0.09632419049739838
81 201 0.09672388434410095
81 202 0.09847982227802277
81 203 0.07614545524120331
81 204 0.09738411754369736
81 205 0.08647259324789047
81 207 0.06495697796344757
81 209 0.09733285009860992
81 210 0.08575422316789627
81 213 0.08651808649301529
81 214 0.08791740238666534
81 215 0.08633652329444885
81 216 0.09617558866739273
81 217 0.08624616265296936
81 218 0.07554445415735245
81 219 0.09774527698755264
81 220 0.09738411754369736
81 221 0.08629130572080612
81 222 0.08830215781927109
81 223 0.07468818128108978
81 225 0.09753841161727905
81 226 0.08557740598917007
81 227 0.09753841161727905
81 230 0.09637388586997986
81 231 0.0966736450791359
81 232 0.08575422316789627
81 233 0.09774527698755264
81 234 0.07106690108776093
81 235 0.09743546694517136
81 237 0.08629130572080612
81 238 0.09702693670988083
81 239 0.09637388586997986
81 240 0.08674667030572891
81 241 0.09637388586997986
81 242 0.09816300123929977
81 244 0.09743546694517136
81 247 0.09738411754369736
81 248 0.09642364829778671
81 249 0.08597678691148758
81 252 0.09672388434410095
81 253 0.05503818392753601
81 254 0.07515160739421844
81 255 0.09738411754369736
82 83 0.09860475361347198
82 84 0.11012671887874603
82 85 0.10732346028089523
82 86 0.10665546357631683
82 87 0.09908673912286758
82 88 0.0882268100976944
82 89 0.10766219347715378
82 90 0.1034175381064415
82 91 0.08058229088783264
82 92 0.09736309200525284
82 93 0.10649040341377258
82 95 0.08869685977697372
82 96 0.10123760253190994
82 97 0.07805342227220535
82 98 0.10743601620197296
82 99 0.10693227499723434
82 100 0.10704360902309418
82 101 0.07756760716438293
82 102 0.09690941870212555
82 103 0.09844695031642914
82 104 0.10671065002679825
82 106 0.08827348053455353
82 107 0.09849946945905685
82 108 0.09090908616781235
82 109 0.10800416767597198
82 110 0.11808095872402191
82 111 0.10245772451162338
82 112 0.10671065002679825
82 114 0.10817637294530869
82 116 0.0875355526804924
82 117 0.09860475361347198
82 118 0.10749242454767227
82 119 0.10766219347715378
82 120 0.09226523339748383
82 121 0.09772038459777832
82 125 0.10632611066102982
82 126 0.10766219347715378
82 127 0.10671065002679825
82 128 0.09802979230880737
82 129 0.0978747233748436
82 130 0.0970599353313446
82 131 0.10823395848274231
82 132 0.10749242454767227
82 133 0.10794694721698761
82 134 0.10112365335226059
82 135 0.09908277541399002
82 136 0.07850686460733414
82 138 0.09892266243696213
82 139 0.0883670449256897
82 140 0.09196009486913681
82 142 0.10846523195505142
82 143 0.09741389006376266
82 144 0.09772038459777832
82 145 0.17407765984535217
82 146 0.10671065002679825
82 147 0.10830607265233994
82 148 0.08777334541082382
82 149 0.108639657497406
82 151 0.09761790186166763
82 152 0.10934588313102722
82 153 0.06924585998058319
82 154 0.09746478497982025
82 155 0.059449661523103714
82 157 0.10743601620197296
82 158 0.10687673836946487
82 159 0.09808164834976196
82 161 0.0872635617852211
82 163 0.09746478497982025
82 165 0.09797801822423935
82 166 0.10754892975091934
82 167 0.10676592588424683
82 168 0.10721126198768616
82 169 0.08874428272247314
82 170 0.0983421579003334
82 171 0.09711026400327682
82 173 0.10721126198768616
82 174 0.0978747233748436
82 175 0.08804087340831757
82 177 0.06741998344659805
82 181 0.10749242454767227
82 182 0.09782319515943527
82 185 0.07922345399856567
82 186 0.08767250180244446
82 187 0.09746478497982025
82 188 0.1624591052532196
82 189 0.10616257041692734
82 190 0.08758113533258438
82 192 0.09865752607584
82 195 0.10660036653280258
82 197 0.07859016209840775
82 198 0.09680946171283722
82 201 0.09721115976572037
82 202 0.08907835185527802
82 203 0.10823395848274231
82 204 0.08808724582195282
82 205 0.10754892975091934
82 207 0.10771896690130234
82 208 0.06286945939064026
82 209 0.09782319515943527
82 210 0.10665546357631683
82 212 0.0585707388818264
82 213 0.09782319515943527
82 214 0.06958374381065369
82 215 0.10737969726324081
82 216 0.10632611066102982
82 217 0.10726731270551682
82 218 0.10737969726324081
82 219 0.09823770821094513
82 220 0.10766219347715378
82 221 0.06829674541950226
82 222 0.10982441902160645
82 223 0.10616257041692734
82 225 0.0882268100976944
82 226 0.09675959497690201
82 227 0.06862085312604904
82 228 0.07106690108776093
82 230 0.0968594029545784
82 231 0.10687673836946487
82 232 0.0872635617852211
82 233 0.10806147754192352
82 235 0.09792633354663849
82 237 0.08781010657548904
82 238 0.09751573950052261
82 239 0.1065453439950943
82 240 0.08827348053455353
82 241 0.1065453439950943
82 242 0.10852327942848206
82 244 0.10771896690130234
82 245 0.1348399668931961
82 246 0.09482093155384064
82 247 0.10766219347715378
82 248 0.10660036653280258
82 249 0.10693227499723434
82 252 0.10693227499723434
82 253 0.09956781566143036
82 254 0.10682129114866257
82 255 0.07829977571964264
83 84 0.9251883029937744
83 85 0.9450265169143677
83 86 0.9549195766448975
83 87 0.8454672694206238
83 88 0.9452580213546753
83 89 0.9511939883232117
83 90 0.1794753074645996
83 91 0.10488452017307281
83 92 0.9451656341552734
83 93 0.9513416290283203
83 94 0.07358286529779434
83 95 0.9331909418106079
83 96 0.9125010967254639
83 97 0.94608473777771
83 98 0.9417800903320312
83 99 0.951071560382843
83 100 0.9488952159881592
83 101 0.9559712409973145
83 102 0.9533751010894775
83 103 0.9343311786651611
83 104 0.9512048959732056
83 105 0.4208725392818451
83 106 0.9468218684196472
83 107 0.934829592704773
83 108 0.07888380438089371
83 109 0.9403705596923828
83 110 0.3893534243106842
83 111 0.8957159519195557
83 112 0.9522570967674255
83 113 0.3969191014766693
83 114 0.9365366101264954
83 116 0.9452365636825562
83 117 0.9379678964614868
83 118 0.9454542994499207
83 119 0.9427012205123901
83 120 0.905129075050354
83 121 0.9454542994499207
83 122 0.07416456192731857
83 123 0.3431260883808136
83 124 0.05850179120898247
83 125 0.9572129249572754
83 126 0.9395163655281067
83 127 0.9564659595489502
83 128 0.9378150701522827
83 129 0.9405779838562012
83 130 0.9538030624389648
83 131 0.9381024241447449
83 132 0.9433345198631287
83 133 0.940936803817749
83 134 0.9268298745155334
83 135 0.931768000125885
83 136 0.9377435445785522
83 138 0.9313352704048157
83 139 0.9435654878616333
83 140 0.20447668433189392
83 141 0.08093702048063278
83 142 0.9358288645744324
83 143 0.9467153549194336
83 144 0.9422745704650879
83 146 0.9491004347801208
83 147 0.11747443675994873
83 148 0.50838702917099
83 149 0.9319776296615601
83 150 0.24451503157615662
83 151 0.943403959274292
83 152 0.9315668344497681
83 153 0.9420649409294128
83 154 0.947209894657135
83 155 0.9392908811569214
83 156 0.1091064065694809
83 157 0.9513144493103027
83 158 0.9474160671234131
83 159 0.9383111000061035
83 161 0.9570229053497314
83 162 0.1671828031539917
83 163 0.9493242502212524
83 164 0.05664411932229996
83 165 0.9383825063705444
83 166 0.9523142576217651
83 167 0.949592113494873
83 168 0.9450955986976624
83 169 0.9379678964614868
83 170 0.9354699850082397
83 171 0.9479778409004211
83 173 0.9493242502212524
83 174 0.9416395425796509
83 175 0.9422049522399902
83 176 0.1335114687681198
83 177 0.13162903487682343
83 178 0.3176444172859192
83 179 0.3639541566371918
83 180 0.33461883664131165
83 181 0.9465143084526062
83 182 0.9464490413665771
83 183 0.1457492858171463
83 184 0.20447668433189392
83 185 0.9355617761611938
83 186 0.9519983530044556
83 187 0.9450955986976624
83 188 0.17033793032169342
83 189 0.9546938538551331
83 190 0.9478397369384766
83 191 0.08010687679052353
83 192 0.9320493340492249
83 193 0.673965334892273
83 194 0.06755205243825912
83 195 0.9575796127319336
83 196 0.154509499669075
83 197 0.9461973309516907
83 198 0.9523917436599731
83 199 0.1348399668931961
83 200 0.23895691335201263
83 201 0.9531803131103516
83 202 0.9382781982421875
83 203 0.9487748146057129
83 204 0.9395163655281067
83 205 0.9417094588279724
83 206 0.10884381085634232
83 207 0.9431982636451721
83 208 0.45006391406059265
83 209 0.9464490413665771
83 210 0.9517645835876465
83 211 0.0865253210067749
83 212 0.31446799635887146
83 213 0.9475101232528687
83 214 0.924019455909729
83 215 0.9412863850593567
83 216 0.9519708156585693
83 217 0.9455897808074951
83 218 0.942345142364502
83 219 0.9408695697784424
83 220 0.9405779838562012
83 221 0.9418516755104065
83 222 0.9183169603347778
83 223 0.9557406306266785
83 224 0.12333259731531143
83 225 0.9441947937011719
83 226 0.9560992121696472
83 227 0.9463213086128235
83 228 0.1156243085861206
83 229 0.05664411932229996
83 230 0.956034779548645
83 231 0.9484699368476868
83 232 0.9549195766448975
83 233 0.9440662264823914
83 234 0.13944818079471588
83 235 0.9485090374946594
83 236 0.16687026619911194
83 237 0.94608473777771
83 238 0.9487628936767578
83 239 0.9507818222045898
83 240 0.9404388666152954
83 241 0.9518324136734009
83 242 0.93418949842453
83 244 0.9421360492706299
83 245 0.05850179120898247
83 246 0.2914018929004669
83 247 0.9469475746154785
83 248 0.9523239135742188
83 249 0.9500170946121216
83 250 0.19408227503299713
83 251 0.11362489312887192
83 252 0.9489626884460449
83 253 0.9287695288658142
83 254 0.9521910548210144
83 255 0.945885956287384
84 85 0.928342878818512
84 86 0.9375137090682983
84 87 0.8305318355560303
84 88 0.9349076151847839
84 89 0.9323508739471436
84 90 0.17083550989627838
84 91 0.09761691093444824
84 92 0.9306936860084534
84 93 0.9381951689720154
84 94 0.09961336106061935
84 95 0.9246939420700073
84 96 0.9086406230926514
84 97 0.9294173717498779
84 98 0.9293164610862732
84 99 0.9324530363082886
84 100 0.9334238767623901
84 101 0.9439204335212708
84 102 0.9498361349105835
84 103 0.9258759021759033
84 104 0.943340539932251
84 105 0.41323208808898926
84 106 0.930001437664032
84 107 0.9187766909599304
84 108 0.08009215444326401
84 109 0.9277432560920715
84 110 0.3901160657405853
84 111 0.8846132755279541
84 112 0.9358622431755066
84 113 0.38468098640441895
84 114 0.9292224645614624
84 116 0.9340091943740845
84 117 0.9241023659706116
84 118 0.9276521801948547
84 119 0.9280394315719604
84 120 0.890769362449646
84 121 0.9351852536201477
84 122 0.06275052577257156
84 123 0.3311069905757904
84 124 0.07424741983413696
84 125 0.9410056471824646
84 126 0.9323508739471436
84 127 0.9369305372238159
84 128 0.923032283782959
84 129 0.9323508739471436
84 130 0.935278058052063
84 131 0.9253827929496765
84 132 0.9276521801948547
84 133 0.9337359666824341
84 134 0.90761798620224
84 135 0.9100325107574463
84 136 0.9229288697242737
84 138 0.9172772169113159
84 139 0.9277432560920715
84 140 0.1721634864807129
84 141 0.08217683434486389
84 142 0.9251883029937744
84 143 0.9408343434333801
84 144 0.9276521801948547
84 146 0.9358622431755066
84 147 0.16101980209350586
84 148 0.5026419162750244
84 149 0.9201502799987793
84 150 0.2640231251716614
84 151 0.926679253578186
84 152 0.9283213019371033
84 153 0.9172772169113159
84 154 0.9413257837295532
84 155 0.9176706075668335
84 156 0.09693049639463425
84 157 0.9443747997283936
84 158 0.9330387711524963
84 159 0.9321616888046265
84 161 0.9407170414924622
84 162 0.14549462497234344
84 163 0.9273722767829895
84 165 0.9268608093261719
84 166 0.92706298828125
84 167 0.935278058052063
84 168 0.9381057620048523
84 169 0.9154151678085327
84 170 0.9259734153747559
84 171 0.9379019141197205
84 173 0.9348857402801514
84 174 0.9323508739471436
84 175 0.9297053813934326
84 176 0.15589012205600739
84 177 0.14849483966827393
84 178 0.3063846826553345
84 179 0.4040895700454712
84 180 0.29943591356277466
84 181 0.9265760183334351
84 182 0.9318600296974182
84 183 0.1788114607334137
84 184 0.20254528522491455
84 185 0.9149944186210632
84 186 0.9279609322547913
84 187 0.9327390193939209
84 188 0.166983500123024
84 189 0.9416838884353638
84 190 0.9334238767623901
84 191 0.08133397251367569
84 192 0.9343753457069397
84 193 0.6006882786750793
84 194 0.12002694606781006
84 195 0.941298246383667
84 196 0.15687629580497742
84 197 0.9271537065505981
84 198 0.939261257648468
84 199 0.12079894542694092
84 200 0.24261732399463654
84 201 0.9324530363082886
84 202 0.9221312403678894
84 203 0.9275499582290649
84 204 0.9237279295921326
84 205 0.9324465990066528
84 206 0.11972036212682724
84 207 0.9263718724250793
84 208 0.443110853433609
84 209 0.9297053813934326
84 210 0.9439204335212708
84 211 0.06275052577257156
84 212 0.2999344766139984
84 213 0.9361691474914551
84 214 0.9173741340637207
84 215 0.9299043416976929
84 216 0.9410056471824646
84 217 0.9343007206916809
84 218 0.9288292527198792
84 219 0.9249899387359619
84 220 0.9291172623634338
84 221 0.928342878818512
84 222 0.9037966132164001
84 223 0.9427467584609985
84 224 0.10956910997629166
84 225 0.9295097589492798
84 226 0.9377118945121765
84 227 0.9349076151847839
84 228 0.11739547550678253
84 229 0.05751180276274681
84 230 0.9376124143600464
84 231 0.9383887648582458
84 232 0.9449881911277771
84 233 0.9293173551559448
84 234 0.12742583453655243
84 235 0.9360777139663696
84 236 0.15687629580497742
84 237 0.928342878818512
84 238 0.9321528673171997
84 239 0.9386790990829468
84 240 0.9256808757781982
84 241 0.944012463092804
84 242 0.9245969653129578
84 244 0.9306855797767639
84 246 0.26105794310569763
84 247 0.9301950931549072
84 248 0.9370293021202087
84 249 0.9324530363082886
84 250 0.20742659270763397
84 251 0.09761691093444824
84 252 0.9313824772834778
84 253 0.9144874215126038
84 254 0.9389713406562805
84 255 0.9312729835510254
85 86 0.9646390080451965
85 87 0.8495649695396423
85 88 0.9479327201843262
85 89 0.9495845437049866
85 90 0.18313559889793396
85 91 0.12107718735933304
85 92 0.9613395929336548
85 93 0.9631461501121521
85 94 0.12943695485591888
85 95 0.9455791711807251
85 96 0.9191933274269104
85 97 0.9539267420768738
85 98 0.9559754133224487
85 99 0.9577528834342957
85 100 0.9618831872940063
85 101 0.9625577926635742
85 102 0.9599803686141968
85 103 0.9498534202575684
85 104 0.9630559086799622
85 105 0.42101848125457764
85 106 0.9473815560340881
85 107 0.950360119342804
85 108 0.10732346028089523
85 109 0.9483855962753296
85 110 0.3903239965438843
85 111 0.9104785919189453
85 112 0.9672204256057739
85 113 0.3952910900115967
85 114 0.9446206092834473
85 116 0.959294855594635
85 117 0.94608473777771
85 118 0.9533310532569885
85 119 0.95168536901474
85 120 0.9143053889274597
85 121 0.9522823095321655
85 122 0.08561450242996216
85 123 0.3395141661167145
85 125 0.9658097624778748
85 126 0.9495845437049866
85 127 0.9588913321495056
85 128 0.953193187713623
85 129 0.9548366665840149
85 130 0.9614713191986084
85 131 0.9472354650497437
85 132 0.9533310532569885
85 133 0.9499896168708801
85 134 0.918158769607544
85 135 0.9496078491210938
85 136 0.9478831887245178
85 138 0.9512583017349243
85 139 0.9462780952453613
85 140 0.21219372749328613
85 141 0.09152575582265854
85 142 0.9492594599723816
85 143 0.9566138386726379
85 144 0.9522823095321655
85 145 0.056047845631837845
85 146 0.9588913321495056
85 147 0.18016862869262695
85 148 0.5407159328460693
85 149 0.942306399345398
85 150 0.257302463054657
85 151 0.9554742574691772
85 152 0.935629665851593
85 153 0.9406415820121765
85 154 0.9539754390716553
85 155 0.9368471503257751
85 156 0.15518946945667267
85 157 0.9517825245857239
85 158 0.9655975699424744
85 159 0.9473815560340881
85 161 0.9594359993934631
85 162 0.1654229313135147
85 163 0.9550215005874634
85 164 0.056047845631837845
85 165 0.9558444023132324
85 166 0.9590787291526794
85 167 0.959388017654419
85 168 0.9560675024986267
85 169 0.94608473777771
85 170 0.9446206092834473
85 171 0.9609277248382568
85 173 0.9550215005874634
85 174 0.9537862539291382
85 175 0.9501345157623291
85 176 0.11889544129371643
85 177 0.13747917115688324
85 178 0.33001574873924255
85 179 0.37048619985580444
85 180 0.3703790605068207
85 181 0.9543797969818115
85 182 0.9522342681884766
85 183 0.15623296797275543
85 184 0.16778108477592468
85 185 0.9395301342010498
85 186 0.9545229077339172
85 187 0.9539754390716553
85 188 0.17435672879219055
85 189 0.9643242359161377
85 190 0.95561683177948
85 191 0.06605302542448044
85 192 0.943414568901062
85 193 0.6713970303535461
85 194 0.10026143491268158
85 195 0.9610204100608826
85 196 0.15899835526943207
85 197 0.9457259774208069
85 198 0.9610681533813477
85 199 0.10987576097249985
85 200 0.274577260017395
85 201 0.9619261026382446
85 202 0.9422104954719543
85 203 0.9451234936714172
85 204 0.9537862539291382
85 205 0.9527828097343445
85 206 0.11667290329933167
85 207 0.9584931135177612
85 208 0.4430771768093109
85 209 0.9532841444015503
85 210 0.9646390080451965
85 211 0.0733838602900505
85 212 0.30172866582870483
85 213 0.9501345157623291
85 214 0.9388302564620972
85 215 0.9523311853408813
85 216 0.9637349247932434
85 217 0.9555208086967468
85 218 0.9565218687057495
85 219 0.9488889575004578
85 220 0.95168536901474
85 221 0.9560209512710571
85 222 0.9386528134346008
85 223 0.9674316048622131
85 224 0.1372886300086975
85 225 0.9500369429588318
85 226 0.9626500606536865
85 227 0.9500369429588318
85 228 0.1372886300086975
85 229 0.056047845631837845
85 230 0.9615639448165894
85 231 0.9603837728500366
85 232 0.9604765772819519
85 233 0.9478346109390259
85 234 0.15177829563617706
85 235 0.9511362314224243
85 236 0.17122900485992432
85 237 0.9560209512710571
85 238 0.9565674066543579
85 239 0.9636430144309998
85 240 0.9473815560340881
85 241 0.9615639448165894
85 242 0.943414568901062
85 244 0.9584931135177612
85 245 0.07235746085643768
85 246 0.29172661900520325
85 247 0.9537862539291382
85 248 0.9610204100608826
85 249 0.9598394632339478
85 250 0.1718245893716812
85 251 0.11242882162332535
85 252 0.9608827829360962
85 253 0.9435704946517944
85 254 0.9578010439872742
85 255 0.9527358412742615
86 87 0.845451295375824
86 88 0.95457923412323
86 89 0.9614202976226807
86 90 0.17096570134162903
86 91 0.10313450545072556
86 92 0.9636635780334473
86 93 0.9685091376304626
86 94 0.11255241185426712
86 95 0.9523071050643921
86 96 0.9264292120933533
86 97 0.9625577926635742
86 98 0.9604421854019165
86 99 0.9631965160369873
86 100 0.9641993641853333
86 101 0.9700102806091309
86 102 0.9684755206108093
86 103 0.9533913135528564
86 104 0.965338945388794
86 105 0.4388630986213684
86 106 0.9582224488258362
86 107 0.9517987966537476
86 108 0.10665546357631683
86 109 0.9550492167472839
86 110 0.40048855543136597
86 111 0.911368191242218
86 112 0.967408299446106
86 113 0.39029642939567566
86 114 0.9523765444755554
86 116 0.9668096303939819
86 117 0.9559712409973145
86 118 0.9599042534828186
86 119 0.9562008380889893
86 120 0.921735405921936
86 121 0.9609465003013611
86 122 0.07292710244655609
86 123 0.3429778218269348
86 124 0.07190710306167603
86 125 0.9690768122673035
86 126 0.9572447538375854
86 127 0.965338945388794
86 128 0.9577158689498901
86 129 0.9572447538375854
86 130 0.9648038148880005
86 131 0.9507846236228943
86 132 0.9599042534828186
86 133 0.9545432329177856
86 134 0.9286221265792847
86 135 0.9479243755340576
86 136 0.9545432329177856
86 138 0.948502779006958
86 139 0.9540020823478699
86 140 0.20106495916843414
86 141 0.09095608443021774
86 142 0.9517645835876465
86 143 0.9631273746490479
86 144 0.9599042534828186
86 145 0.055698998272418976
86 146 0.967408299446106
86 147 0.16172008216381073
86 148 0.539222776889801
86 149 0.9490816593170166
86 150 0.2595174014568329
86 151 0.9588975310325623
86 152 0.9478298425674438
86 153 0.9453375339508057
86 154 0.9625909328460693
86 155 0.9489811658859253
86 156 0.14751817286014557
86 157 0.961483895778656
86 158 0.965805172920227
86 159 0.9540380239486694
86 161 0.9689761996269226
86 162 0.17613568902015686
86 163 0.9625909328460693
86 164 0.055698998272418976
86 165 0.9561650156974792
86 166 0.9645799994468689
86 167 0.9648038148880005
86 168 0.9615514278411865
86 169 0.9486095905303955
86 170 0.9523765444755554
86 171 0.9653041362762451
86 173 0.9605118632316589
86 174 0.9572447538375854
86 175 0.957784116268158
86 176 0.15097637474536896
86 177 0.14381420612335205
86 178 0.3123444616794586
86 179 0.37847900390625
86 180 0.3569200336933136
86 181 0.9578197598457336
86 182 0.9588274359703064
86 183 0.17317521572113037
86 184 0.21087300777435303
86 185 0.9453005790710449
86 186 0.961049497127533
86 187 0.9636304378509521
86 188 0.1732715219259262
86 189 0.9706743359565735
86 190 0.9631614685058594
86 191 0.07877027988433838
86 192 0.9512217044830322
86 193 0.6822118163108826
86 194 0.10794050991535187
86 195 0.9726098775863647
86 196 0.15800872445106506
86 197 0.9586992859840393
86 198 0.9695417284965515
86 199 0.1325901299715042
86 200 0.26907840371131897
86 201 0.967343807220459
86 202 0.9469023942947388
86 203 0.9518341422080994
86 204 0.9572447538375854
86 205 0.9583232402801514
86 206 0.1159467026591301
86 207 0.9577494859695435
86 208 0.46267062425613403
86 209 0.957784116268158
86 210 0.9679420590400696
86 211 0.08508162200450897
86 212 0.324838250875473
86 213 0.9588274359703064
86 214 0.9531309008598328
86 215 0.9620209336280823
86 216 0.9690768122673035
86 217 0.9641343355178833
86 218 0.9651443958282471
86 219 0.9555560350418091
86 220 0.9603763222694397
86 221 0.9604765772819519
86 222 0.9360051155090332
86 223 0.9727330803871155
86 224 0.12885445356369019
86 225 0.9566702842712402
86 226 0.9700742959976196
86 227 0.9577158689498901
86 228 0.12885445356369019
86 229 0.055698998272418976
86 230 0.9679757356643677
86 231 0.9647688865661621
86 232 0.9658737778663635
86 233 0.9545083045959473
86 234 0.13026538491249084
86 235 0.9608827233314514
86 236 0.15800872445106506
86 237 0.9625577926635742
86 238 0.9651743769645691
86 239 0.9679757356643677
86 240 0.9592685103416443
86 241 0.96900874376297
86 242 0.9512217044830322
86 244 0.9608827233314514
86 245 0.07190710306167603
86 246 0.30002403259277344
86 247 0.9603763222694397
86 248 0.966408371925354
86 249 0.9642333984375
86 250 0.17577733099460602
86 251 0.11172904819250107
86 252 0.9663069844245911
86 253 0.9408833980560303
86 254 0.9673755764961243
86 255 0.9624641537666321
87 88 0.8488478064537048
87 89 0.843949019908905
87 90 0.1628183126449585
87 91 0.09759001433849335
87 92 0.8466122150421143
87 93 0.8675913214683533
87 94 0.05477225035429001
87 95 0.839047908782959
87 96 0.8410691022872925
87 97 0.8460201621055603
87 98 0.854004442691803
87 99 0.8488228917121887
87 100 0.8520636558532715
87 101 0.8560194373130798
87 102 0.8544036149978638
87 103 0.8321916460990906
87 104 0.8447140455245972
87 105 0.46217596530914307
87 106 0.8302916288375854
87 107 0.8445644974708557
87 109 0.8573315143585205
87 110 0.37180817127227783
87 111 0.8164626955986023
87 112 0.8482385873794556
87 113 0.40288808941841125
87 114 0.8563165664672852
87 116 0.8410191535949707
87 117 0.8227781653404236
87 118 0.8355175852775574
87 119 0.8475050330162048
87 120 0.802035927772522
87 121 0.8473520874977112
87 123 0.307125061750412
87 125 0.8510348796844482
87 126 0.8403931260108948
87 127 0.8505882620811462
87 128 0.8310398459434509
87 129 0.8498756289482117
87 130 0.8663097620010376
87 131 0.8543891310691833
87 132 0.8438017964363098
87 133 0.833108127117157
87 134 0.803382396697998
87 135 0.8327666521072388
87 136 0.8473696112632751
87 138 0.8386090993881226
87 139 0.8608987927436829
87 140 0.16148535907268524
87 141 0.051639776676893234
87 142 0.8442731499671936
87 143 0.8612107634544373
87 144 0.8331506848335266
87 146 0.8494134545326233
87 147 0.13116517663002014
87 148 0.3784237205982208
87 149 0.8300817608833313
87 150 0.26867786049842834
87 151 0.8381879329681396
87 152 0.8378855586051941
87 153 0.8529852032661438
87 154 0.8486766815185547
87 155 0.8483660817146301
87 156 0.09898030012845993
87 157 0.8563700914382935
87 158 0.8530887365341187
87 159 0.8457333445549011
87 161 0.8618906140327454
87 162 0.13333334028720856
87 163 0.8463159203529358
87 164 0.06324554979801178
87 165 0.8282277584075928
87 166 0.8383248448371887
87 167 0.846327006816864
87 168 0.8533981442451477
87 169 0.8514381647109985
87 170 0.8491706848144531
87 171 0.8432376384735107
87 173 0.8427749276161194
87 174 0.8309105038642883
87 175 0.850612998008728
87 176 0.17888544499874115
87 177 0.06531972438097
87 178 0.23762449622154236
87 179 0.4034467041492462
87 180 0.3292887210845947
87 181 0.8461686372756958
87 182 0.8482435941696167
87 183 0.10849016159772873
87 184 0.11693768203258514
87 185 0.8467090129852295
87 186 0.8529525995254517
87 187 0.8474963307380676
87 188 0.1377234309911728
87 189 0.8614140152931213
87 190 0.8497065901756287
87 191 0.07453560084104538
87 192 0.8459197282791138
87 193 0.6009870767593384
87 194 0.10370899736881256
87 195 0.8532299995422363
87 196 0.1311124563217163
87 197 0.8292332291603088
87 198 0.86876380443573
87 199 0.07084918767213821
87 200 0.16352595388889313
87 201 0.8429364562034607
87 202 0.8258755207061768
87 203 0.8508143424987793
87 204 0.8427637219429016
87 205 0.8466134071350098
87 207 0.8503237962722778
87 208 0.23602993786334991
87 209 0.8458741903305054
87 210 0.8501482605934143
87 211 0.0690065547823906
87 212 0.30146390199661255
87 213 0.8423200845718384
87 214 0.8150122165679932
87 215 0.8500100374221802
87 216 0.856887936592102
87 217 0.8384917378425598
87 218 0.8417345285415649
87 219 0.8661144971847534
87 220 0.8356518149375916
87 221 0.842475414276123
87 222 0.8439706563949585
87 223 0.8579075336456299
87 224 0.11188618093729019
87 225 0.8334141969680786
87 226 0.850739061832428
87 227 0.8334141969680786
87 228 0.09467292577028275
87 230 0.8516165018081665
87 231 0.8483820557594299
87 232 0.8466255068778992
87 233 0.8470789790153503
87 234 0.12455983459949493
87 235 0.8515098094940186
87 236 0.1311124563217163
87 237 0.8401122093200684
87 238 0.8384917378425598
87 239 0.852789580821991
87 240 0.8302916288375854
87 241 0.8551356196403503
87 242 0.8506989479064941
87 244 0.837278425693512
87 245 0.08164965361356735
87 246 0.26794561743736267
87 247 0.8403931260108948
87 248 0.8637926578521729
87 249 0.8452910780906677
87 250 0.18818774819374084
87 251 0.07807200402021408
87 252 0.8523547649383545
87 253 0.8501074314117432
87 254 0.8514701128005981
87 255 0.8403931260108948
88 89 0.9519801139831543
88 90 0.17285290360450745
88 91 0.11296235769987106
88 92 0.9543529152870178
88 93 0.9572775959968567
88 94 0.09753841161727905
88 95 0.9394394159317017
88 96 0.9159138202667236
88 97 0.9489848613739014
88 98 0.9499801397323608
88 99 0.9528636932373047
88 100 0.9538557529449463
88 101 0.95457923412323
88 102 0.958266019821167
88 103 0.9448068737983704
88 104 0.9561192393302917
88 105 0.4437074661254883
88 106 0.9465892314910889
88 107 0.9453108906745911
88 108 0.10783277451992035
88 109 0.947592556476593
88 110 0.3845365345478058
88 111 0.900436520576477
88 112 0.9550731778144836
88 113 0.4125412404537201
88 114 0.9459220767021179
88 116 0.9523105621337891
88 117 0.9388782978057861
88 118 0.9494251608848572
88 119 0.9488138556480408
88 120 0.9042732119560242
88 121 0.9515327215194702
88 122 0.08602079749107361
88 123 0.36931753158569336
88 124 0.07270084321498871
88 125 0.9599699974060059
88 126 0.9477584362030029
88 127 0.9571653008460999
88 128 0.9450317025184631
88 129 0.9477584362030029
88 130 0.9618476629257202
88 131 0.9464256167411804
88 132 0.9473177194595337
88 133 0.9449741244316101
88 134 0.9225159287452698
88 135 0.9359508156776428
88 136 0.9417994618415833
88 138 0.9387052655220032
88 139 0.9465337991714478
88 140 0.1983262449502945
88 141 0.09196009486913681
88 142 0.9473845958709717
88 143 0.9516995549201965
88 144 0.9483714699745178
88 145 0.05631382763385773
88 146 0.9550731778144836
88 147 0.17518416047096252
88 148 0.5148875117301941
88 149 0.9361282587051392
88 150 0.2739577293395996
88 151 0.9473767876625061
88 152 0.9304225444793701
88 153 0.9408386945724487
88 154 0.9521966576576233
88 155 0.9359508156776428
88 156 0.10847021639347076
88 157 0.951033353805542
88 158 0.9534164667129517
88 159 0.9444739818572998
88 161 0.9608524441719055
88 162 0.16620796918869019
88 163 0.9521966576576233
88 164 0.05631382763385773
88 165 0.9455891847610474
88 166 0.9478156566619873
88 167 0.9545212984085083
88 168 0.9574516415596008
88 169 0.9441947937011719
88 170 0.9459220767021179
88 171 0.9560633897781372
88 173 0.9521966576576233
88 174 0.9467030167579651
88 175 0.9525337815284729
88 176 0.15927955508232117
88 177 0.13813160359859467
88 178 0.32210811972618103
88 179 0.3904661536216736
88 180 0.34112533926963806
88 181 0.9536401629447937
88 182 0.9462046027183533
88 183 0.15093690156936646
88 184 0.20824256539344788
88 185 0.9514638185501099
88 186 0.9506491422653198
88 187 0.9521966576576233
88 188 0.14014732837677002
88 189 0.9595341682434082
88 190 0.9528064131736755
88 191 0.07963977754116058
88 192 0.9383170008659363
88 193 0.6579081416130066
88 194 0.09234247356653214
88 195 0.9551309943199158
88 196 0.17204159498214722
88 197 0.9427987337112427
88 198 0.9593654274940491
88 199 0.12616822123527527
88 200 0.2567219138145447
88 201 0.9560084939002991
88 202 0.9349417686462402
88 203 0.9474866390228271
88 204 0.9467030167579651
88 205 0.9488699436187744
88 206 0.10820915549993515
88 207 0.9440343379974365
88 208 0.44969943165779114
88 209 0.9504240155220032
88 210 0.9556247591972351
88 211 0.08602079749107361
88 212 0.3063185214996338
88 213 0.9504240155220032
88 214 0.9293506741523743
88 215 0.9473767876625061
88 216 0.9589276313781738
88 217 0.9484884142875671
88 218 0.9473767876625061
88 219 0.945976734161377
88 220 0.9467030167579651
88 221 0.9500369429588318
88 222 0.9248049855232239
88 223 0.9605748653411865
88 224 0.13027679920196533
88 225 0.948202908039093
88 226 0.9588713049888611
88 227 0.9513742327690125
88 228 0.13027679920196533
88 229 0.05631382763385773
88 230 0.9588159322738647
88 231 0.9544642567634583
88 232 0.9577158689498901
88 233 0.9480953812599182
88 234 0.15249857306480408
88 235 0.947202205657959
88 236 0.17204159498214722
88 237 0.9479327201843262
88 238 0.9505914449691772
88 239 0.9577714800834656
88 240 0.9434162974357605
88 241 0.9609048366546631
88 242 0.9361893534660339
88 244 0.9503701329231262
88 245 0.07270084321498871
88 246 0.28629449009895325
88 247 0.9477584362030029
88 248 0.958266019821167
88 249 0.9518154263496399
88 250 0.19295060634613037
88 251 0.1216517761349678
88 252 0.9528636932373047
88 253 0.9297959804534912
88 254 0.959204912185669
88 255 0.9530355334281921
89 90 0.1837136149406433
89 91 0.10410800576210022
89 92 0.9559879899024963
89 93 0.9609746932983398
89 94 0.09738411754369736
89 95 0.9390143752098083
89 96 0.9122849702835083
89 97 0.9506349563598633
89 98 0.9484773874282837
89 99 0.9534496068954468
89 100 0.9533945918083191
89 101 0.9593324661254883
89 102 0.9588368535041809
89 103 0.9475519061088562
89 104 0.9577401280403137
89 105 0.44300559163093567
89 106 0.9524836540222168
89 107 0.9416946172714233
89 108 0.10766219347715378
89 109 0.9460935592651367
89 110 0.3788430690765381
89 111 0.9056306481361389
89 112 0.9566956758499146
89 113 0.38630548119544983
89 114 0.9423081874847412
89 116 0.9549926519393921
89 117 0.9405779838562012
89 118 0.9510795474052429
89 119 0.9483667016029358
89 120 0.9083613157272339
89 121 0.9521316289901733
89 122 0.07361546903848648
89 123 0.34058573842048645
89 124 0.07258584350347519
89 125 0.9636547565460205
89 126 0.950474202632904
89 127 0.9556512236595154
89 128 0.9488138556480408
89 129 0.9494203925132751
89 130 0.9582362174987793
89 131 0.9481064677238464
89 132 0.9510795474052429
89 133 0.9455922842025757
89 134 0.9210566878318787
89 135 0.9376705288887024
89 136 0.9466487765312195
89 138 0.9350903034210205
89 139 0.9471506476402283
89 140 0.16336031258106232
89 141 0.09181462973356247
89 142 0.9427012205123901
89 143 0.9512428641319275
89 144 0.9521316289901733
89 145 0.056224748492240906
89 146 0.9556512236595154
89 147 0.15741634368896484
89 148 0.531082808971405
89 149 0.9431538581848145
89 150 0.21573756635189056
89 151 0.9490311145782471
89 152 0.9343018531799316
89 153 0.9414804577827454
89 154 0.9548877477645874
89 155 0.9366037249565125
89 156 0.12860462069511414
89 157 0.9516319632530212
89 158 0.9581846594810486
89 159 0.9524836540222168
89 161 0.9603763222694397
89 162 0.17779827117919922
89 163 0.9559371471405029
89 164 0.056224748492240906
89 165 0.9462029933929443
89 166 0.9631584286689758
89 167 0.9571912884712219
89 168 0.9548877477645874
89 169 0.9395163655281067
89 170 0.9454845190048218
89 171 0.9566420316696167
89 173 0.9527891278266907
89 174 0.9462592005729675
89 175 0.9489206075668335
89 176 0.15240146219730377
89 177 0.13065451383590698
89 178 0.3215985894203186
89 179 0.38724949955940247
89 180 0.34621524810791016
89 181 0.9521316289901733
89 182 0.9489206075668335
89 183 0.16878192126750946
89 184 0.21286344528198242
89 185 0.9392970204353333
89 186 0.9533404111862183
89 187 0.9527891278266907
89 188 0.18073728680610657
89 189 0.9642506837844849
89 190 0.952346920967102
89 191 0.0795137956738472
89 192 0.9389570951461792
89 193 0.6659485101699829
89 194 0.11734087020158768
89 195 0.9598802328109741
89 196 0.15336556732654572
89 197 0.944480299949646
89 198 0.9599323868751526
89 199 0.12596863508224487
89 200 0.2601414620876312
89 201 0.9586825966835022
89 202 0.9451842904090881
89 203 0.9459878206253052
89 204 0.9494203925132751
89 205 0.9484215378761292
89 206 0.11704114079475403
89 207 0.9457038640975952
89 208 0.46026915311813354
89 209 0.9531333446502686
89 210 0.9593324661254883
89 211 0.07361546903848648
89 212 0.3342103064060211
89 213 0.9489206075668335
89 214 0.9353720545768738
89 215 0.9511330723762512
89 216 0.9615734219551086
89 217 0.9501376152038574
89 218 0.9521840214729309
89 219 0.9465955495834351
89 220 0.9462592005729675
89 221 0.9558870792388916
89 222 0.9276416897773743
89 223 0.9621725678443909
89 224 0.1377219557762146
89 225 0.9477584362030029
89 226 0.9594379663467407
89 227 0.9509246349334717
89 228 0.1377219557762146
89 229 0.056224748492240906
89 230 0.9583419561386108
89 231 0.9592307209968567
89 232 0.9614202976226807
89 233 0.944480299949646
89 234 0.1453365534543991
89 235 0.9520296454429626
89 236 0.16563481092453003
89 237 0.9495845437049866
89 238 0.9553869962692261
89 239 0.9604276418685913
89 240 0.9503716826438904
89 241 0.9625132083892822
89 242 0.937894880771637
89 244 0.9488667249679565
89 245 0.07258584350347519
89 246 0.2960502505302429
89 247 0.9483667016029358
89 248 0.9577935338020325
89 249 0.9555427432060242
89 250 0.18757575750350952
89 251 0.12145934253931046
89 252 0.9534496068954468
89 253 0.9326130151748657
89 254 0.9629151225090027
89 255 0.950474202632904
90 92 0.1827532798051834
90 93 0.18722058832645416
90 95 0.1849849969148636
90 96 0.19578421115875244
90 97 0.18313559889793396
90 98 0.18888306617736816
90 99 0.18799743056297302
90 100 0.18265806138515472
90 101 0.16545067727565765
90 102 0.17638954520225525
90 103 0.18478769063949585
90 104 0.1600184142589569
90 105 0.09701424837112427
90 106 0.18968088924884796
90 107 0.17928366363048553
90 109 0.17312763631343842
90 110 0.06716403365135193
90 111 0.19814381003379822
90 112 0.1876078099012375
90 113 0.09461186826229095
90 114 0.18459099531173706
90 116 0.18256299197673798
90 117 0.15704089403152466
90 118 0.18898223340511322
90 119 0.17814654111862183
90 120 0.18076492846012115
90 121 0.1723073273897171
90 125 0.18693174421787262
90 126 0.17814654111862183
90 127 0.1655362993478775
90 128 0.16170109808444977
90 129 0.1837136149406433
90 130 0.18770499527454376
90 131 0.18468928337097168
90 132 0.18342392146587372
90 133 0.1730359047651291
90 134 0.12078943848609924
90 135 0.1859811693429947
90 136 0.15629048645496368
90 138 0.17442727088928223
90 139 0.178712397813797
90 140 0.05230657756328583
90 142 0.19069251418113708
90 143 0.18838949501514435
90 144 0.1778656244277954
90 146 0.1765720546245575
90 148 0.11982040107250214
90 149 0.17414629459381104
90 150 0.06105940788984299
90 151 0.1721266210079193
90 152 0.16397008299827576
90 153 0.17442727088928223
90 154 0.16631287336349487
90 155 0.15216641128063202
90 156 0.07151985168457031
90 157 0.1555507481098175
90 158 0.18237332999706268
90 159 0.18410202860832214
90 161 0.18199573457241058
90 163 0.1884879171848297
90 165 0.15604273974895477
90 166 0.1779591143131256
90 167 0.18218424916267395
90 168 0.1884879171848297
90 169 0.16825810074806213
90 170 0.17340368032455444
90 171 0.1767551302909851
90 173 0.16076910495758057
90 174 0.1837136149406433
90 175 0.18918107450008392
90 178 0.0832870751619339
90 181 0.18898223340511322
90 182 0.18361690640449524
90 183 0.06369297206401825
90 185 0.1520843207836151
90 186 0.16068516671657562
90 187 0.1884879171848297
90 189 0.18664422631263733
90 190 0.18265806138515472
90 192 0.17957136034965515
90 193 0.10395011305809021
90 195 0.1819017082452774
90 197 0.16204404830932617
90 198 0.18722058832645416
90 201 0.16588008403778076
90 202 0.15763206779956818
90 203 0.1567060649394989
90 204 0.17257946729660034
90 205 0.1890815645456314
90 207 0.18381048738956451
90 208 0.15495967864990234
90 209 0.15579617023468018
90 210 0.16545067727565765
90 211 0.06482037156820297
90 213 0.16692446172237396
90 214 0.15831594169139862
90 215 0.18323156237602234
90 216 0.18693174421787262
90 217 0.1774931401014328
90 218 0.18323156237602234
90 219 0.17880722880363464
90 220 0.1837136149406433
90 221 0.18313559889793396
90 222 0.18172433972358704
90 223 0.17566514015197754
90 225 0.17285290360450745
90 226 0.1816204935312271
90 227 0.1784287989139557
90 230 0.18731717765331268
90 231 0.18237332999706268
90 232 0.15993565320968628
90 233 0.1843949407339096
90 235 0.18938051164150238
90 237 0.17203648388385773
90 238 0.16085314750671387
90 239 0.17629851400852203
90 240 0.16178663074970245
90 241 0.1707891821861267
90 242 0.16273654997348785
90 244 0.18381048738956451
90 245 0.0766964927315712
90 246 0.16180142760276794
90 247 0.16701237857341766
90 248 0.1819017082452774
90 249 0.18246808648109436
90 250 0.053567156195640564
90 252 0.18246808648109436
90 253 0.18122823536396027
90 254 0.18227870762348175
90 255 0.17814654111862183
91 92 0.1208244115114212
91 93 0.12013737112283707
91 95 0.08735707402229309
91 96 0.10768505185842514
91 97 0.08648370951414108
91 98 0.12120416760444641
91 99 0.10340217500925064
91 100 0.12076146900653839
91 101 0.10313450545072556
91 102 0.1116713210940361
91 103 0.1134430542588234
91 104 0.12038585543632507
91 105 0.07559289038181305
91 106 0.10432810336351395
91 107 0.12223462015390396
91 108 0.08058229088783264
91 109 0.10443868488073349
91 111 0.09081907570362091
91 112 0.12038585543632507
91 114 0.11332230269908905
91 116 0.11207729578018188
91 117 0.09614414721727371
91 118 0.12126781046390533
91 119 0.10410800576210022
91 120 0.05452292785048485
91 121 0.103943832218647
91 125 0.11995202302932739
91 126 0.12145934253931046
91 127 0.12038585543632507
91 128 0.10427294671535492
91 129 0.12145934253931046
91 130 0.11184477061033249
91 131 0.12210436910390854
91 132 0.12126781046390533
91 133 0.12178057432174683
91 134 0.10756384581327438
91 135 0.12295849621295929
91 136 0.09568474441766739
91 138 0.08768557012081146
91 139 0.09573546797037125
91 140 0.081513911485672
91 142 0.10488452017307281
91 143 0.11225264519453049
91 144 0.12126781046390533
91 145 0.15430335700511932
91 146 0.12038585543632507
91 147 0.09600307792425156
91 148 0.10892385244369507
91 149 0.10505319386720657
91 151 0.11248772591352463
91 152 0.12335879355669022
91 153 0.1052226796746254
91 154 0.10367194563150406
91 155 0.10539299249649048
91 157 0.11254672706127167
91 158 0.12057321518659592
91 159 0.10432810336351395
91 161 0.09453997015953064
91 163 0.11231128126382828
91 165 0.09553305804729462
91 166 0.10399846732616425
91 167 0.11184477061033249
91 168 0.1209506094455719
91 169 0.11362489312887192
91 170 0.09588810801506042
91 171 0.12051066756248474
91 173 0.1209506094455719
91 174 0.10410800576210022
91 175 0.09538210183382034
91 176 0.054554469883441925
91 178 0.10383483022451401
91 181 0.11260582506656647
91 182 0.12139539420604706
91 185 0.10533612221479416
91 186 0.11225264519453049
91 187 0.11231128126382828
91 188 0.09600307792425156
91 189 0.11976753175258636
91 190 0.1035098284482956
91 192 0.12243077158927917
91 195 0.12026142328977585
91 196 0.05050762742757797
91 197 0.10449410229921341
91 198 0.11155613511800766
91 201 0.12063587456941605
91 202 0.09650608152151108
91 203 0.12210436910390854
91 204 0.12145934253931046
91 205 0.12133155018091202
91 207 0.12152338027954102
91 208 0.05572781711816788
91 209 0.12139539420604706
91 210 0.12032359093427658
91 212 0.051917415112257004
91 213 0.10405319184064865
91 214 0.09692476689815521
91 215 0.11248772591352463
91 216 0.11995202302932739
91 217 0.10372615605592728
91 218 0.12114062905311584
91 219 0.09578626602888107
91 220 0.12145934253931046
91 221 0.12107718735933304
91 222 0.11504875123500824
91 223 0.11121270805597305
91 224 0.0629940778017044
91 225 0.09558354318141937
91 226 0.12007549405097961
91 227 0.11296235769987106
91 228 0.18898223340511322
91 229 0.15430335700511932
91 230 0.12019935250282288
91 231 0.10334847122430801
91 232 0.10313450545072556
91 233 0.12190978974103928
91 234 0.05698028579354286
91 235 0.12152338027954102
91 236 0.05050762742757797
91 237 0.11242882162332535
91 238 0.12101384997367859
91 239 0.1116136834025383
91 240 0.11302211135625839
91 241 0.1116136834025383
91 242 0.1136857122182846
91 244 0.11284314095973969
91 246 0.1120663583278656
91 247 0.10410800576210022
91 248 0.12026142328977585
91 249 0.12063587456941605
91 251 0.1428571492433548
91 252 0.10340217500925064
91 253 0.11473466455936432
91 254 0.11190275847911835
91 255 0.12145934253931046
92 93 0.9642459154129028
92 94 0.12109380960464478
92 95 0.9541599750518799
92 96 0.9172742962837219
92 97 0.9561149477958679
92 98 0.9550256133079529
92 99 0.9640824198722839
92 100 0.9577906131744385
92 101 0.9636635780334473
92 102 0.9621278047561646
92 103 0.9584140181541443
92 104 0.9631232619285583
92 105 0.4452565610408783
92 106 0.9517063498497009
92 107 0.9494310021400452
92 108 0.10709939897060394
92 109 0.9516635537147522
92 110 0.3895091116428375
92 111 0.9107723832130432
92 112 0.9620842933654785
92 113 0.39701080322265625
92 114 0.9468615055084229
92 116 0.9635422229766846
92 117 0.9504458904266357
92 118 0.9534339308738708
92 119 0.9549397826194763
92 120 0.9134945273399353
92 121 0.9565736651420593
92 122 0.08543576300144196
92 123 0.35280555486679077
92 124 0.05776512250304222
92 125 0.9679343104362488
92 126 0.9559879899024963
92 127 0.9610453844070435
92 128 0.962752103805542
92 129 0.9528432488441467
92 130 0.9646616578102112
92 131 0.9484193325042725
92 132 0.9544805288314819
92 133 0.9501083493232727
92 134 0.9184080362319946
92 135 0.9455029368400574
92 136 0.9532613754272461
92 138 0.9439750909805298
92 139 0.9495604634284973
92 140 0.17727969586849213
92 141 0.09133467823266983
92 142 0.9441095590591431
92 143 0.9567033052444458
92 144 0.9618065357208252
92 145 0.055930834263563156
92 146 0.9620842933654785
92 147 0.1623932123184204
92 148 0.5283065438270569
92 149 0.9488010406494141
92 150 0.2567652761936188
92 151 0.9566159248352051
92 152 0.9368703365325928
92 153 0.9460940361022949
92 154 0.956159234046936
92 155 0.9423194527626038
92 156 0.14139892160892487
92 157 0.9550256133079529
92 158 0.9646222591400146
92 159 0.9517063498497009
92 161 0.9615867137908936
92 162 0.1297038197517395
92 163 0.9582468867301941
92 164 0.055930834263563156
92 165 0.9569969177246094
92 166 0.9539351463317871
92 167 0.9625826478004456
92 168 0.9613783955574036
92 169 0.9504458904266357
92 170 0.951074481010437
92 171 0.9620417952537537
92 173 0.9582468867301941
92 174 0.9538915157318115
92 175 0.9586277604103088
92 176 0.15819628536701202
92 177 0.13719215989112854
92 178 0.3199174702167511
92 179 0.39556682109832764
92 180 0.37240585684776306
92 181 0.9576202034950256
92 182 0.9523416757583618
92 183 0.16789962351322174
92 184 0.21175073087215424
92 185 0.9481746554374695
92 186 0.9577466249465942
92 187 0.9592906832695007
92 188 0.17399272322654724
92 189 0.9664455652236938
92 190 0.9577906131744385
92 191 0.07909814268350601
92 192 0.9446148872375488
92 193 0.6745121479034424
92 194 0.10838979482650757
92 195 0.9631656408309937
92 196 0.1708715260028839
92 197 0.9479600191116333
92 198 0.9632090330123901
92 199 0.13314202427864075
92 200 0.2740040123462677
92 201 0.9630413055419922
92 202 0.9423635601997375
92 203 0.9463117718696594
92 204 0.9528432488441467
92 205 0.9539351463317871
92 206 0.11642932146787643
92 207 0.9543944597244263
92 208 0.4466410279273987
92 209 0.9554847478866577
92 210 0.9636635780334473
92 211 0.07323065400123596
92 212 0.3293268084526062
92 213 0.9523416757583618
92 214 0.9443226456642151
92 215 0.9576614499092102
92 216 0.965863823890686
92 217 0.9556147456169128
92 218 0.9607978463172913
92 219 0.9490122199058533
92 220 0.9549397826194763
92 221 0.9644744396209717
92 222 0.9356239438056946
92 223 0.9685128331184387
92 224 0.13700200617313385
92 225 0.9522531628608704
92 226 0.9720394611358643
92 227 0.9543529152870178
92 228 0.12939079105854034
92 230 0.9647432565689087
92 231 0.959419310092926
92 232 0.9626251459121704
92 233 0.9490122199058533
92 234 0.1514614224433899
92 235 0.9522969126701355
92 236 0.1708715260028839
92 237 0.9571599364280701
92 238 0.9618811011314392
92 239 0.9668179750442505
92 240 0.9548577070236206
92 241 0.963705837726593
92 242 0.9467280507087708
92 244 0.9533457159996033
92 245 0.07220640033483505
92 246 0.2945026755332947
92 247 0.9517950415611267
92 248 0.9631656408309937
92 249 0.9609590172767639
92 250 0.18155209720134735
92 251 0.1208244115114212
92 252 0.9588767886161804
92 253 0.945866048336029
92 254 0.9620417952537537
92 255 0.9559879899024963
93 94 0.12040524184703827
93 95 0.9539818167686462
93 96 0.934698224067688
93 97 0.9621071219444275
93 98 0.9662363529205322
93 99 0.9668819308280945
93 100 0.9689249396324158
93 101 0.9695417284965515
93 102 0.9690408110618591
93 103 0.952964186668396
93 104 0.9669442176818848
93 105 0.44272470474243164
93 106 0.9556950330734253
93 107 0.9513747692108154
93 108 0.09680946171283722
93 109 0.9587991237640381
93 110 0.4048985540866852
93 111 0.919777512550354
93 112 0.9669442176818848
93 113 0.39728379249572754
93 114 0.955091655254364
93 116 0.9653134942054749
93 117 0.9513416290283203
93 118 0.9594593644142151
93 119 0.9620169401168823
93 120 0.9137586951255798
93 121 0.9605000019073486
93 123 0.33131057024002075
93 124 0.05743664875626564
93 125 0.9706650376319885
93 126 0.9588900804519653
93 127 0.9669442176818848
93 128 0.9572775959968567
93 129 0.9641014933586121
93 130 0.9705458879470825
93 131 0.9556000828742981
93 132 0.9657031297683716
93 133 0.9551560282707214
93 134 0.9250312447547913
93 135 0.9517331719398499
93 136 0.9562010765075684
93 138 0.9491417407989502
93 139 0.9567079544067383
93 140 0.2056502252817154
93 141 0.09081532061100006
93 142 0.9502915740013123
93 143 0.9668236970901489
93 144 0.9605000019073486
93 145 0.055612798780202866
93 146 0.9679772853851318
93 147 0.17877013981342316
93 148 0.5383883118629456
93 149 0.952871561050415
93 150 0.2400631308555603
93 151 0.9605321288108826
93 152 0.9442458748817444
93 153 0.9480882883071899
93 154 0.9631770849227905
93 155 0.9485676884651184
93 156 0.15398487448692322
93 157 0.961035966873169
93 158 0.9694838523864746
93 159 0.9588284492492676
93 161 0.9695417284965515
93 162 0.16413891315460205
93 163 0.9621391892433167
93 165 0.9567720293998718
93 166 0.9620460271835327
93 167 0.9705458879470825
93 168 0.9652529358863831
93 169 0.9544917941093445
93 170 0.9561388492584229
93 171 0.9679467678070068
93 173 0.9621391892433167
93 174 0.9578478336334229
93 175 0.9604688286781311
93 176 0.15729676187038422
93 177 0.1292324662208557
93 178 0.3180983364582062
93 179 0.3933175206184387
93 180 0.35358354449272156
93 181 0.9594593644142151
93 182 0.9646357297897339
93 183 0.15502026677131653
93 184 0.18606449663639069
93 185 0.9480559825897217
93 186 0.9647489786148071
93 187 0.9642149806022644
93 188 0.17300336062908173
93 189 0.976366400718689
93 190 0.9637435078620911
93 191 0.06554032117128372
93 192 0.9518508315086365
93 193 0.6781619787216187
93 194 0.12435399740934372
93 195 0.9680087566375732
93 196 0.1516963392496109
93 197 0.9540772438049316
93 198 0.9711340069770813
93 199 0.12459760159254074
93 200 0.2421741932630539
93 201 0.9648115634918213
93 202 0.9485989809036255
93 203 0.9524566531181335
93 204 0.9620169401168823
93 205 0.963087260723114
93 206 0.09795693308115005
93 207 0.9656527042388916
93 208 0.4396379888057709
93 209 0.9604688286781311
93 210 0.9716067314147949
93 211 0.07281424105167389
93 212 0.3243355453014374
93 213 0.9594271183013916
93 214 0.9463630318641663
93 215 0.9626112580299377
93 216 0.9737530946731567
93 217 0.962642252445221
93 218 0.9636507630348206
93 219 0.9572156071662903
93 220 0.9588900804519653
93 221 0.9621071219444275
93 222 0.9505046606063843
93 223 0.9732831120491028
93 224 0.12865504622459412
93 225 0.9562336802482605
93 226 0.9706338047981262
93 227 0.9562336802482605
93 228 0.1362229883670807
93 229 0.055612798780202866
93 230 0.9685406684875488
93 231 0.9684491753578186
93 232 0.9674766063690186
93 233 0.9551233649253845
93 234 0.13690924644470215
93 235 0.96043860912323
93 236 0.13956063985824585
93 237 0.9631461501121521
93 238 0.9636806845664978
93 239 0.969572126865387
93 240 0.9556950330734253
93 241 0.9685406684875488
93 242 0.9518508315086365
93 244 0.9593957662582397
93 245 0.07179581373929977
93 246 0.29955974221229553
93 247 0.9599323868751526
93 248 0.9690408110618591
93 249 0.9699875712394714
93 250 0.20559193193912506
93 251 0.10297489166259766
93 252 0.9668819308280945
93 253 0.9489700198173523
93 254 0.9669126868247986
93 255 0.9588900804519653
94 95 0.12257258594036102
94 96 0.10073013603687286
94 97 0.12943695485591888
94 98 0.12957270443439484
94 99 0.12896516919136047
94 100 0.12103072553873062
94 101 0.11255241185426712
94 102 0.10445895045995712
94 103 0.1224418431520462
94 104 0.12065427005290985
94 105 0.0883883535861969
94 106 0.12198750674724579
94 107 0.11434001475572586
94 108 0.22613349556922913
94 109 0.1221168041229248
94 111 0.12743018567562103
94 112 0.12869788706302643
94 114 0.11415741592645645
94 116 0.12903225421905518
94 117 0.13081398606300354
94 118 0.12964074313640594
94 119 0.12173014879226685
94 120 0.07650229334831238
94 121 0.1215381994843483
94 124 0.11180339008569717
94 125 0.11220484972000122
94 126 0.1298454999923706
94 127 0.12869788706302643
94 128 0.12192301452159882
94 129 0.12173014879226685
94 130 0.11266898363828659
94 131 0.11421817541122437
94 132 0.1215381994843483
94 133 0.13018891215324402
94 134 0.10061676800251007
94 135 0.1232326403260231
94 136 0.12205210328102112
94 138 0.12303350865840912
94 139 0.11397568136453629
94 141 0.0883883461356163
94 142 0.10628636181354523
94 143 0.12115699052810669
94 144 0.12964074313640594
94 146 0.12065427005290985
94 147 0.17960529029369354
94 148 0.08733337372541428
94 149 0.10645728558301926
94 151 0.12950478494167328
94 152 0.09890706837177277
94 153 0.11483127623796463
94 154 0.12122028321027756
94 155 0.08215510100126266
94 156 0.31277161836624146
94 157 0.08098294585943222
94 158 0.12084205448627472
94 159 0.10572250932455063
94 161 0.08843404054641724
94 163 0.12930163741111755
94 164 0.14433757960796356
94 165 0.12998253107070923
94 166 0.11349527537822723
94 167 0.1287645548582077
94 168 0.12930163741111755
94 169 0.1144622340798378
94 170 0.11415741592645645
94 171 0.12883132696151733
94 173 0.10505757480859756
94 174 0.12173014879226685
94 175 0.12977714836597443
94 177 0.05590169504284859
94 178 0.0728464350104332
94 180 0.17342199385166168
94 181 0.09723055362701416
94 182 0.11355499923229218
94 185 0.10674399882555008
94 186 0.11307986080646515
94 187 0.12122028321027756
94 189 0.12803688645362854
94 190 0.12103072553873062
94 192 0.12270374596118927
94 193 0.10490678995847702
94 194 0.19364915788173676
94 195 0.10445895045995712
94 196 0.09449111670255661
94 197 0.130327045917511
94 198 0.10435120761394501
94 200 0.2062394767999649
94 201 0.12090485543012619
94 202 0.10668647289276123
94 203 0.09790129214525223
94 204 0.1298454999923706
94 205 0.1297088861465454
94 206 0.06933752447366714
94 207 0.12179433554410934
94 208 0.08688100427389145
94 209 0.10544392466545105
94 210 0.1286313384771347
94 213 0.1216660663485527
94 214 0.10714932531118393
94 215 0.12141072750091553
94 216 0.1282341182231903
94 217 0.11319809406995773
94 218 0.12141072750091553
94 219 0.0895998403429985
94 220 0.1298454999923706
94 221 0.12943695485591888
94 222 0.13245323300361633
94 223 0.12003457546234131
94 225 0.11379481106996536
94 226 0.11232034116983414
94 227 0.1056666150689125
94 230 0.12849850952625275
94 231 0.11278592050075531
94 232 0.11255241185426712
94 233 0.11403615772724152
94 234 0.10660035163164139
94 235 0.10555508732795715
94 237 0.12943695485591888
94 238 0.12936924397945404
94 239 0.12849850952625275
94 240 0.13012000918388367
94 241 0.1124361976981163
94 242 0.10634324699640274
94 244 0.12991395592689514
94 246 0.13103559613227844
94 247 0.12173014879226685
94 248 0.12856486439704895
94 249 0.12090485543012619
94 251 0.06681530922651291
94 252 0.09672387689352036
94 253 0.11558017879724503
94 254 0.08857154101133347
94 255 0.11361480504274368
95 96 0.915306031703949
95 97 0.9540407657623291
95 98 0.9497472643852234
95 99 0.9516172409057617
95 100 0.9462783336639404
95 101 0.9544093608856201
95 102 0.9518150687217712
95 103 0.9359663724899292
95 104 0.9485933184623718
95 105 0.42295894026756287
95 106 0.9420628547668457
95 107 0.9375334978103638
95 108 0.08869685977697372
95 109 0.9377393126487732
95 110 0.39426571130752563
95 111 0.9118980169296265
95 112 0.9496449828147888
95 113 0.3812508285045624
95 114 0.9413666725158691
95 116 0.9573841691017151
95 117 0.9363977909088135
95 118 0.9438897967338562
95 119 0.9421975016593933
95 120 0.9213158488273621
95 121 0.9449491500854492
95 122 0.08647909015417099
95 123 0.3514454662799835
95 124 0.058470532298088074
95 125 0.9535578489303589
95 126 0.9475026726722717
95 127 0.9506966471672058
95 128 0.9447529911994934
95 129 0.9390143752098083
95 130 0.9501368999481201
95 131 0.9354678392410278
95 132 0.94706791639328
95 133 0.9404340982437134
95 134 0.9066020250320435
95 135 0.9291219115257263
95 136 0.945753276348114
95 138 0.9329824447631836
95 139 0.9451901912689209
95 140 0.16947545111179352
95 141 0.08089377731084824
95 142 0.9353288412094116
95 143 0.9483216404914856
95 144 0.9449491500854492
95 146 0.9496449828147888
95 147 0.1526351422071457
95 148 0.5252428650856018
95 149 0.9336209893226624
95 150 0.2560217082500458
95 151 0.9450164437294006
95 152 0.9235257506370544
95 153 0.9329824447631836
95 154 0.9519867300987244
95 155 0.933418333530426
95 156 0.14994116127490997
95 157 0.9486884474754333
95 158 0.9479631185531616
95 159 0.9388729929924011
95 161 0.9523071050643921
95 162 0.14322297275066376
95 163 0.9456472396850586
95 164 0.056613851338624954
95 165 0.9389432668685913
95 166 0.9412062168121338
95 167 0.9511890411376953
95 168 0.9488170146942139
95 169 0.9353288412094116
95 170 0.9466972351074219
95 171 0.9516823291778564
95 173 0.9477604031562805
95 174 0.9475026726722717
95 175 0.9491247534751892
95 176 0.14678414165973663
95 177 0.13886751234531403
95 178 0.3047757148742676
95 179 0.3977803885936737
95 180 0.36561664938926697
95 181 0.9438897967338562
95 182 0.940640926361084
95 183 0.17601962387561798
95 184 0.18941374123096466
95 185 0.931841254234314
95 186 0.9462094902992249
95 187 0.9477604031562805
95 188 0.16437631845474243
95 189 0.9541837573051453
95 190 0.950498104095459
95 191 0.0800640732049942
95 192 0.9390379190444946
95 193 0.6675092577934265
95 194 0.12659242749214172
95 195 0.9507644772529602
95 196 0.16678109765052795
95 197 0.9446267485618591
95 198 0.9518828988075256
95 199 0.13476791977882385
95 200 0.2619417607784271
95 201 0.950563371181488
95 202 0.9313390254974365
95 203 0.9344011545181274
95 204 0.9400753974914551
95 205 0.9433260560035706
95 206 0.1178511306643486
95 207 0.9416326284408569
95 208 0.43846428394317627
95 209 0.9417014718055725
95 210 0.9512559771537781
95 211 0.08647909015417099
95 212 0.2952514886856079
95 213 0.9427618980407715
95 214 0.9332243800163269
95 215 0.9492493867874146
95 216 0.9567014575004578
95 217 0.9471988081932068
95 218 0.9460746645927429
95 219 0.9382369518280029
95 220 0.94325852394104
95 221 0.9498099684715271
95 222 0.9232380390167236
95 223 0.9562762379646301
95 224 0.10015419870615005
95 225 0.9447529911994934
95 226 0.9566372632980347
95 227 0.9447529911994934
95 228 0.10785836726427078
95 230 0.9534239172935486
95 231 0.9479631185531616
95 232 0.9491537809371948
95 233 0.937171995639801
95 234 0.13937367498874664
95 235 0.9448174238204956
95 236 0.1544269472360611
95 237 0.948752224445343
95 238 0.9471988081932068
95 239 0.9544739127159119
95 240 0.9420628547668457
95 241 0.9534239172935486
95 242 0.9347598552703857
95 244 0.9437558650970459
95 245 0.058470532298088074
95 246 0.304951936006546
95 247 0.9443195462226868
95 248 0.9518150687217712
95 249 0.9474018216133118
95 250 0.20418797433376312
95 251 0.08735707402229309
95 252 0.9484556913375854
95 253 0.9315114617347717
95 254 0.9527350068092346
95 255 0.9421975016593933
96 97 0.9224528670310974
96 98 0.9255955815315247
96 99 0.9212557077407837
96 100 0.9308843612670898
96 101 0.9242697358131409
96 102 0.9345842003822327
96 103 0.906655490398407
96 104 0.9247480034828186
96 105 0.4107421934604645
96 106 0.9196749925613403
96 107 0.9137205481529236
96 108 0.06074255704879761
96 109 0.9162761569023132
96 110 0.3839699923992157
96 111 0.8899669051170349
96 112 0.9247480034828186
96 113 0.3863475024700165
96 114 0.9308789372444153
96 116 0.922818124294281
96 117 0.9070107340812683
96 118 0.9173758029937744
96 119 0.9155548214912415
96 120 0.874498188495636
96 121 0.915199339389801
96 122 0.0634540244936943
96 123 0.3260846734046936
96 125 0.9257212281227112
96 126 0.9166447520256042
96 127 0.9258283376693726
96 128 0.9104554653167725
96 129 0.9242744445800781
96 130 0.9263078570365906
96 131 0.9193213582038879
96 132 0.9173758029937744
96 133 0.9125121235847473
96 134 0.8862618803977966
96 135 0.9025805592536926
96 136 0.9125121235847473
96 138 0.9110366106033325
96 139 0.9228365421295166
96 140 0.2048160433769226
96 142 0.9157953262329102
96 143 0.9448732733726501
96 144 0.9141111373901367
96 146 0.9301496148109436
96 147 0.16282500326633453
96 148 0.4867730736732483
96 149 0.9150684475898743
96 150 0.2550286650657654
96 151 0.9142394661903381
96 152 0.9066260457038879
96 153 0.9066301584243774
96 154 0.9269154071807861
96 155 0.9125111699104309
96 156 0.14702579379081726
96 157 0.9288585782051086
96 158 0.9261873364448547
96 159 0.915306031703949
96 161 0.9318280220031738
96 162 0.14712578058242798
96 163 0.9182323217391968
96 165 0.9121567606925964
96 166 0.9156804084777832
96 167 0.9230652451515198
96 168 0.9225738644599915
96 169 0.9125010967254639
96 170 0.9166419506072998
96 171 0.9235439300537109
96 173 0.9204031229019165
96 174 0.9199146628379822
96 175 0.9281453490257263
96 176 0.157637819647789
96 177 0.12763568758964539
96 178 0.28372952342033386
96 179 0.4113081693649292
96 180 0.30861586332321167
96 181 0.9173758029937744
96 182 0.9259665608406067
96 183 0.17458109557628632
96 184 0.11776922643184662
96 185 0.9054021239280701
96 186 0.92643141746521
96 187 0.9225738644599915
96 188 0.13870278000831604
96 189 0.9296712875366211
96 190 0.9276333451271057
96 191 0.06853818148374557
96 192 0.915186882019043
96 193 0.6136847734451294
96 194 0.13004206120967865
96 195 0.9227129817008972
96 196 0.13959886133670807
96 197 0.912386417388916
96 198 0.932542085647583
96 199 0.11400969326496124
96 200 0.22950910031795502
96 201 0.920173168182373
96 202 0.904914140701294
96 203 0.9182256460189819
96 204 0.9133749604225159
96 205 0.9211243987083435
96 206 0.10243755578994751
96 207 0.9225807189941406
96 208 0.37339887022972107
96 209 0.9161621928215027
96 210 0.9264292120933533
96 211 0.08883563429117203
96 212 0.25111693143844604
96 213 0.9205197095870972
96 214 0.89777010679245
96 215 0.922936201095581
96 216 0.9354090094566345
96 217 0.9219703078269958
96 218 0.9175007939338684
96 219 0.9320781826972961
96 220 0.9220945239067078
96 221 0.917020320892334
96 222 0.8972517251968384
96 223 0.9307460188865662
96 224 0.08705518394708633
96 225 0.9137304425239563
96 226 0.9255965352058411
96 227 0.9148221611976624
96 228 0.10288339108228683
96 230 0.9287086129188538
96 231 0.9315972924232483
96 232 0.9221101999282837
96 233 0.9309841394424438
96 234 0.11453726887702942
96 235 0.9269428253173828
96 236 0.1269080489873886
96 237 0.9181067943572998
96 238 0.9165405631065369
96 239 0.9243940711021423
96 240 0.9109370112419128
96 241 0.9243940711021423
96 242 0.9129895567893982
96 244 0.9127660393714905
96 245 0.06006385013461113
96 246 0.2745440900325775
96 247 0.9177348017692566
96 248 0.9291881918907166
96 249 0.9223383069038391
96 250 0.20450825989246368
96 251 0.07179003208875656
96 252 0.9266685843467712
96 253 0.8992374539375305
96 254 0.9235439300537109
96 255 0.9177348017692566
97 98 0.9538789391517639
97 99 0.9598394632339478
97 100 0.95561683177948
97 101 0.9604765772819519
97 102 0.9620605111122131
97 103 0.9456271529197693
97 104 0.9620147347450256
97 105 0.4050014615058899
97 106 0.9515921473503113
97 107 0.9482458233833313
97 108 0.08781010657548904
97 109 0.9473318457603455
97 110 0.385254830121994
97 111 0.9170762300491333
97 112 0.9609736204147339
97 113 0.36213764548301697
97 114 0.9488424062728882
97 116 0.9624264240264893
97 117 0.9482012391090393
97 118 0.9522823095321655
97 119 0.95168536901474
97 120 0.922007143497467
97 121 0.9564773440361023
97 122 0.08561450242996216
97 123 0.35634955763816833
97 124 0.07235746085643768
97 125 0.9626975655555725
97 126 0.9506349563598633
97 127 0.9661793112754822
97 128 0.953193187713623
97 129 0.9495845437049866
97 130 0.959388017654419
97 131 0.9440675377845764
97 132 0.9512335062026978
97 133 0.9499896168708801
97 134 0.919244110584259
97 135 0.9432274699211121
97 136 0.9510428309440613
97 138 0.9438266158103943
97 139 0.9547081589698792
97 140 0.1924547702074051
97 141 0.09152575582265854
97 142 0.9439681768417358
97 143 0.9566138386726379
97 144 0.9543797969818115
97 146 0.9599325060844421
97 147 0.15692105889320374
97 148 0.5105715394020081
97 149 0.9518460631370544
97 150 0.2611427903175354
97 151 0.9544265866279602
97 152 0.9345628619194031
97 153 0.9448882937431335
97 154 0.9592055678367615
97 155 0.9400373101234436
97 156 0.15518946945667267
97 157 0.9549272060394287
97 158 0.9582982063293457
97 159 0.9473815560340881
97 161 0.9615171551704407
97 162 0.17133089900016785
97 163 0.9581595659255981
97 164 0.056047845631837845
97 165 0.9484837055206299
97 166 0.9538321495056152
97 167 0.9604296684265137
97 168 0.9560675024986267
97 169 0.9429099559783936
97 170 0.9488424062728882
97 171 0.9619699716567993
97 173 0.9560675024986267
97 174 0.9527358412742615
97 175 0.9574836492538452
97 176 0.15192195773124695
97 177 0.1302434355020523
97 178 0.3143007159233093
97 179 0.3834402561187744
97 180 0.35915547609329224
97 181 0.9585748910903931
97 182 0.9522342681884766
97 183 0.1682508885860443
97 184 0.18258529901504517
97 185 0.9395301342010498
97 186 0.9576593637466431
97 187 0.9602515697479248
97 188 0.16273294389247894
97 189 0.9643242359161377
97 190 0.9597944021224976
97 191 0.07926362752914429
97 192 0.9455322623252869
97 193 0.6578181982040405
97 194 0.12532679736614227
97 195 0.9631005525588989
97 196 0.17122900485992432
97 197 0.9541605114936829
97 198 0.9631461501121521
97 199 0.13342057168483734
97 200 0.27076366543769836
97 201 0.9619261026382446
97 202 0.9411482214927673
97 203 0.9440675377845764
97 204 0.9506349563598633
97 205 0.950684130191803
97 206 0.11667290329933167
97 207 0.9490342736244202
97 208 0.4475754201412201
97 209 0.9532841444015503
97 210 0.9615171551704407
97 211 0.08561450242996216
97 212 0.3111577332019806
97 213 0.9532841444015503
97 214 0.9420307874679565
97 215 0.9586172103881836
97 216 0.9637349247932434
97 217 0.9576139450073242
97 218 0.9544265866279602
97 219 0.9520519375801086
97 220 0.9548366665840149
97 221 0.9570680260658264
97 222 0.9354382157325745
97 223 0.9653600454330444
97 224 0.12203433364629745
97 225 0.9563494920730591
97 226 0.9626500606536865
97 227 0.953193187713623
97 228 0.1067800372838974
97 229 0.056047845631837845
97 230 0.9636430144309998
97 231 0.9593409299850464
97 232 0.9604765772819519
97 233 0.9457259774208069
97 234 0.1448792815208435
97 235 0.9532381892204285
97 236 0.15899835526943207
97 237 0.9581151604652405
97 238 0.9565674066543579
97 239 0.9646825194358826
97 240 0.9494868516921997
97 241 0.9605243802070618
97 242 0.949767529964447
97 244 0.952187180519104
97 245 0.05788596719503403
97 246 0.2951188087463379
97 247 0.9548366665840149
97 248 0.9631005525588989
97 249 0.9577528834342957
97 250 0.20214657485485077
97 251 0.10378044843673706
97 252 0.9587961435317993
97 253 0.9350217580795288
97 254 0.9609277248382568
97 255 0.9579879641532898
98 99 0.9566685557365417
98 100 0.9566190242767334
98 101 0.9583587646484375
98 102 0.9589048027992249
98 103 0.9466188549995422
98 104 0.957812488079071
98 105 0.44207489490509033
98 106 0.9462676048278809
98 107 0.9428908824920654
98 108 0.08790219575166702
98 109 0.9462156891822815
98 110 0.4084939658641815
98 111 0.9092318415641785
98 112 0.959896981716156
98 113 0.40336450934410095
98 114 0.9466677904129028
98 116 0.9561212062835693
98 117 0.9428394436836243
98 118 0.950131356716156
98 119 0.9516319632530212
98 120 0.9020474553108215
98 121 0.9532809853553772
98 122 0.08570428937673569
98 123 0.34267905354499817
98 124 0.07243335247039795
98 125 0.9616302251815796
98 126 0.9526834487915039
98 127 0.957812488079071
98 128 0.9478737115859985
98 129 0.9547865390777588
98 130 0.9572658538818359
98 131 0.9471717476844788
98 132 0.9553806781768799
98 133 0.9457142949104309
98 134 0.9158623814582825
98 135 0.9367651343345642
98 136 0.9499315619468689
98 138 0.9395025968551636
98 139 0.9462156891822815
98 140 0.21241626143455505
98 141 0.08016902208328247
98 142 0.9470769166946411
98 143 0.9628499150276184
98 144 0.9532809853553772
98 145 0.056106630712747574
98 146 0.957812488079071
98 147 0.16872160136699677
98 148 0.5318530201911926
98 149 0.9401113390922546
98 150 0.272949755191803
98 151 0.9512324333190918
98 152 0.9355429410934448
98 153 0.9405653476715088
98 154 0.9528816342353821
98 155 0.9399586319923401
98 156 0.14859777688980103
98 157 0.9506819844245911
98 158 0.9582594037055969
98 159 0.947321355342865
98 161 0.9594005346298218
98 162 0.14785394072532654
98 163 0.9539288282394409
98 165 0.9484257102012634
98 166 0.9495803117752075
98 167 0.9645653367042542
98 168 0.9591644406318665
98 169 0.9449581503868103
98 170 0.9508939981460571
98 171 0.9577622413635254
98 173 0.9528816342353821
98 174 0.9484773874282837
98 175 0.9500799775123596
98 176 0.15869350731372833
98 177 0.1448667049407959
98 178 0.2894599437713623
98 179 0.3994036018848419
98 180 0.35953211784362793
98 181 0.951181173324585
98 182 0.9521819353103638
98 183 0.1744425892829895
98 184 0.17289695143699646
98 185 0.9394515156745911
98 186 0.9534308314323425
98 187 0.9549759030342102
98 188 0.17453959584236145
98 189 0.9653355479240417
98 190 0.9587100148200989
98 191 0.05289783701300621
98 192 0.9444039463996887
98 193 0.6585080623626709
98 194 0.125458225607872
98 195 0.9589048027992249
98 196 0.1652868539094925
98 197 0.9456623792648315
98 198 0.9599958658218384
98 199 0.1178474947810173
98 200 0.2672300636768341
98 201 0.9556241035461426
98 202 0.9389451742172241
98 203 0.9450575709342957
98 204 0.9547865390777588
98 205 0.9495803117752075
98 206 0.11679525673389435
98 207 0.9542378783226013
98 208 0.4232785105705261
98 209 0.9490290284156799
98 210 0.9604421854019165
98 211 0.07346081733703613
98 212 0.2894599437713623
98 213 0.9574368596076965
98 214 0.9344750046730042
98 215 0.9575250744819641
98 216 0.9637071490287781
98 217 0.9554752707481384
98 218 0.9512324333190918
98 219 0.9467177987098694
98 220 0.9516319632530212
98 221 0.9517825245857239
98 222 0.9353466629981995
98 223 0.9632617831230164
98 224 0.12216231226921082
98 225 0.9499801397323608
98 226 0.9626200795173645
98 227 0.9468205571174622
98 228 0.13743260502815247
98 230 0.9625723958015442
98 231 0.9561716914176941
98 232 0.9583587646484375
98 233 0.9519949555397034
98 234 0.14503122866153717
98 235 0.9510816335678101
98 236 0.15916511416435242
98 237 0.9570236206054688
98 238 0.9523321986198425
98 239 0.9615316987037659
98 240 0.947321355342865
98 241 0.9594504833221436
98 242 0.9454638957977295
98 244 0.9500295519828796
98 245 0.07243335247039795
98 246 0.2988240420818329
98 247 0.9495289325714111
98 248 0.9589048027992249
98 249 0.9608460664749146
98 250 0.2074175328016281
98 251 0.12120416760444641
98 252 0.9566685557365417
98 253 0.9370720386505127
98 254 0.9577622413635254
98 255 0.9495289325714111
99 100 0.9614989161491394
99 101 0.9642333984375
99 102 0.9637352228164673
99 103 0.9506021738052368
99 104 0.9636949896812439
99 105 0.41948390007019043
99 106 0.9565141201019287
99 107 0.9490026831626892
99 108 0.10693227499723434
99 109 0.9512283802032471
99 110 0.4065786302089691
99 111 0.9137335419654846
99 112 0.9647324085235596
99 113 0.39385029673576355
99 114 0.950641930103302
99 116 0.9620386362075806
99 117 0.9468539357185364
99 118 0.957170844078064
99 119 0.9565893411636353
99 120 0.9142615795135498
99 121 0.9582157731056213
99 122 0.07311637699604034
99 123 0.35784637928009033
99 124 0.07209372520446777
99 125 0.9664239287376404
99 126 0.9597291350364685
99 127 0.9657697081565857
99 128 0.9570567011833191
99 129 0.9555427432060242
99 130 0.9631562829017639
99 131 0.9500958323478699
99 132 0.9561258554458618
99 133 0.95702064037323
99 134 0.922381579875946
99 135 0.9450870752334595
99 136 0.9538725018501282
99 138 0.9456754922866821
99 139 0.9512283802032471
99 140 0.21142031252384186
99 141 0.07979313284158707
99 142 0.9468539357185364
99 143 0.9583353996276855
99 144 0.9582157731056213
99 145 0.05584355816245079
99 146 0.9626576900482178
99 147 0.1679305136203766
99 148 0.5349907875061035
99 149 0.9526010751724243
99 150 0.2601909637451172
99 151 0.9582546949386597
99 152 0.9385972023010254
99 153 0.9435598254203796
99 154 0.9588359594345093
99 155 0.9419085383415222
99 156 0.1479010283946991
99 157 0.9566685557365417
99 158 0.9631170034408569
99 159 0.9554653167724609
99 161 0.9631965160369873
99 162 0.153047114610672
99 163 0.9619625806808472
99 164 0.05584355816245079
99 165 0.9670282602310181
99 166 0.9587194323539734
99 167 0.9641941785812378
99 168 0.9619625806808472
99 169 0.9542347192764282
99 170 0.9537967443466187
99 171 0.9636557698249817
99 173 0.9577937722206116
99 174 0.9544962048530579
99 175 0.9592238664627075
99 176 0.15794943273067474
99 177 0.13697807490825653
99 178 0.31002357602119446
99 179 0.38204264640808105
99 180 0.3634377419948578
99 181 0.9582157731056213
99 182 0.956085741519928
99 183 0.15566350519657135
99 184 0.20650357007980347
99 185 0.9498718976974487
99 186 0.9625020623207092
99 187 0.9598782062530518
99 188 0.17372122406959534
99 189 0.968033492565155
99 190 0.962539553642273
99 191 0.06581226736307144
99 192 0.9452507495880127
99 193 0.6704530715942383
99 194 0.12486998736858368
99 195 0.9647715091705322
99 196 0.14013974368572235
99 197 0.9517331719398499
99 198 0.9648115634918213
99 199 0.12511460483074188
99 200 0.2545780837535858
99 201 0.9625779390335083
99 202 0.9461848735809326
99 203 0.9479914903640747
99 204 0.9555427432060242
99 205 0.9545374512672424
99 206 0.09836339205503464
99 207 0.9539523124694824
99 208 0.43698033690452576
99 209 0.956085741519928
99 210 0.9631965160369873
99 211 0.0853024423122406
99 212 0.32568132877349854
99 213 0.956085741519928
99 214 0.9407231211662292
99 215 0.9572108387947083
99 216 0.9664239287376404
99 217 0.9593372941017151
99 218 0.9592984914779663
99 219 0.9506826996803284
99 220 0.9544962048530579
99 221 0.9577528834342957
99 222 0.9395020008087158
99 223 0.9711295366287231
99 224 0.1291888803243637
99 225 0.9528636932373047
99 226 0.9663839340209961
99 227 0.9528636932373047
99 228 0.1215895339846611
99 230 0.9673807621002197
99 231 0.9620780944824219
99 232 0.9642333984375
99 233 0.9538341760635376
99 234 0.15122507512569427
99 235 0.9602352380752563
99 236 0.16451185941696167
99 237 0.9608827829360962
99 238 0.9645511507987976
99 239 0.9653093218803406
99 240 0.9512701034545898
99 241 0.9653093218803406
99 242 0.9463056921958923
99 244 0.9529051184654236
99 245 0.07209372520446777
99 246 0.2940431237220764
99 247 0.9586825966835022
99 248 0.9637352228164673
99 249 0.9604989290237427
99 250 0.20644500851631165
99 251 0.12063587456941605
99 252 0.9636174440383911
99 253 0.9433253407478333
99 254 0.9626173377037048
99 255 0.9544962048530579
100 101 0.9631614685058594
100 102 0.9657759666442871
100 103 0.9484304189682007
100 104 0.964698314666748
100 105 0.43361371755599976
100 106 0.9501606822013855
100 107 0.9489363431930542
100 108 0.09731236845254898
100 109 0.9564228057861328
100 110 0.4044739603996277
100 111 0.9146848917007446
100 112 0.963659942150116
100 113 0.39171677827835083
100 114 0.949526309967041
100 116 0.9588757753372192
100 117 0.9467841982841492
100 118 0.955029308795929
100 119 0.955489993095398
100 120 0.9119212627410889
100 121 0.9560753703117371
100 122 0.07319250702857971
100 123 0.37221187353134155
100 124 0.05773502215743065
100 125 0.965360701084137
100 126 0.957585334777832
100 127 0.964698314666748
100 128 0.9538557529449463
100 129 0.956537663936615
100 130 0.9641591310501099
100 131 0.9468720555305481
100 132 0.9539833068847656
100 133 0.9538151621818542
100 134 0.9255067706108093
100 135 0.9407679438591003
100 136 0.9496133327484131
100 138 0.946660041809082
100 139 0.9511677026748657
100 140 0.21164043247699738
100 141 0.07987620681524277
100 142 0.9457287192344666
100 143 0.9593331217765808
100 144 0.9539833068847656
100 145 0.055901702493429184
100 146 0.9657368063926697
100 147 0.17390207946300507
100 148 0.5336686968803406
100 149 0.9483067989349365
100 150 0.26812246441841125
100 151 0.9571624994277954
100 152 0.9385103583335876
100 153 0.942424476146698
100 154 0.9567043781280518
100 155 0.948192298412323
100 156 0.13459548354148865
100 157 0.9545280337333679
100 158 0.960999608039856
100 159 0.9554101824760437
100 161 0.9621236324310303
100 162 0.1473139077425003
100 163 0.9567043781280518
100 165 0.9544007778167725
100 166 0.9555312395095825
100 167 0.9610422849655151
100 168 0.9587909579277039
100 169 0.9552282094955444
100 170 0.949526309967041
100 171 0.9656984806060791
100 173 0.9587909579277039
100 174 0.952346920967102
100 175 0.9560340642929077
100 176 0.12517350912094116
100 177 0.13712067902088165
100 178 0.3009418845176697
100 179 0.3953607380390167
100 180 0.3386288583278656
100 181 0.9539833068847656
100 182 0.9549869298934937
100 183 0.15582557022571564
100 184 0.17718733847141266
100 185 0.9445005655288696
100 186 0.9645469784736633
100 187 0.9619209170341492
100 188 0.17390207946300507
100 189 0.966975212097168
100 190 0.9604166746139526
100 192 0.9483470320701599
100 193 0.6681415438652039
100 194 0.11666666716337204
100 195 0.9637011885643005
100 196 0.1402856409549713
100 197 0.952724039554596
100 198 0.9637435078620911
100 199 0.10958925634622574
100 200 0.25864675641059875
100 201 0.9594177603721619
100 202 0.9418726563453674
100 203 0.9521383047103882
100 204 0.9533945918083191
100 205 0.9576243758201599
100 206 0.09846580028533936
100 207 0.9570419788360596
100 208 0.42846226692199707
100 209 0.9560340642929077
100 210 0.9631614685058594
100 211 0.07319250702857971
100 212 0.3197507858276367
100 213 0.961269736289978
100 214 0.9363822340965271
100 215 0.9571624994277954
100 216 0.9674301147460938
100 217 0.9572045803070068
100 218 0.9582074284553528
100 219 0.9506209492683411
100 220 0.955489993095398
100 221 0.95561683177948
100 222 0.939411461353302
100 223 0.971107542514801
100 224 0.12932337820529938
100 225 0.9507076740264893
100 226 0.9642828702926636
100 227 0.9528064131736755
100 228 0.13693062961101532
100 229 0.055901702493429184
100 230 0.9642406702041626
100 231 0.9620397090911865
100 232 0.9631614685058594
100 233 0.9537757039070129
100 234 0.1376204788684845
100 235 0.95389723777771
100 236 0.15858376026153564
100 237 0.960838794708252
100 238 0.9572045803070068
100 239 0.9652774333953857
100 240 0.9512105584144592
100 241 0.9632037878036499
100 242 0.9462348818778992
100 244 0.95389723777771
100 245 0.07216878235340118
100 246 0.2841992676258087
100 247 0.952346920967102
100 248 0.9637011885643005
100 249 0.9635801315307617
100 250 0.2016194611787796
100 251 0.11213564872741699
100 252 0.9646207094192505
100 253 0.9432416558265686
100 254 0.9605010151863098
100 255 0.956537663936615
101 102 0.966408371925354
101 103 0.9502413272857666
101 104 0.9694775938987732
101 105 0.4456848204135895
101 106 0.9540380239486694
101 107 0.9528493881225586
101 108 0.0872635617852211
101 109 0.9571436047554016
101 110 0.40048855543136597
101 111 0.9146464467048645
101 112 0.967408299446106
101 113 0.3978995680809021
101 114 0.9513276815414429
101 116 0.9636975526809692
101 117 0.9496612548828125
101 118 0.9588619470596313
101 119 0.9582886099815369
101 120 0.9206420183181763
101 121 0.9640732407569885
101 122 0.07292710244655609
101 123 0.34855470061302185
101 124 0.07190710306167603
101 125 0.9690768122673035
101 126 0.9593324661254883
101 127 0.968442976474762
101 128 0.9587613940238953
101 129 0.9572447538375854
101 130 0.9658389687538147
101 131 0.9518341422080994
101 132 0.9599042534828186
101 133 0.9545432329177856
101 134 0.9275435209274292
101 135 0.945810854434967
101 136 0.9576831459999084
101 138 0.9474477171897888
101 139 0.9592380523681641
101 140 0.1961609423160553
101 141 0.09095608443021774
101 142 0.9507129192352295
101 143 0.961049497127533
101 144 0.9609465003013611
101 146 0.96637362241745
101 147 0.155944362282753
101 148 0.5410950779914856
101 149 0.9469749331474304
101 150 0.26333385705947876
101 151 0.9599387049674988
101 152 0.9478298425674438
101 153 0.9516679644584656
101 154 0.9615514278411865
101 155 0.9542650580406189
101 156 0.14751817286014557
101 157 0.9594005346298218
101 158 0.9637326002120972
101 159 0.9550841450691223
101 161 0.9689761996269226
101 162 0.16439330577850342
101 163 0.9605118632316589
101 164 0.055698998272418976
101 165 0.9561650156974792
101 166 0.9583232402801514
101 167 0.9658389687538147
101 168 0.9615514278411865
101 169 0.9496612548828125
101 170 0.953425407409668
101 171 0.9673755764961243
101 173 0.9625909328460693
101 174 0.9624641537666321
101 175 0.957784116268158
101 176 0.15097637474536896
101 177 0.14381420612335205
101 178 0.3185913860797882
101 179 0.3862030804157257
101 180 0.3569200336933136
101 181 0.9588619470596313
101 182 0.957784116268158
101 183 0.17317521572113037
101 184 0.20106495916843414
101 185 0.9484692215919495
101 186 0.9641663432121277
101 187 0.9605118632316589
101 188 0.17904722690582275
101 189 0.9717037081718445
101 190 0.9631614685058594
101 191 0.07877027988433838
101 192 0.9512217044830322
101 193 0.676214337348938
101 194 0.1162436306476593
101 195 0.9715763330459595
101 196 0.15800872445106506
101 197 0.9597470760345459
101 198 0.9705742001533508
101 199 0.1325901299715042
101 200 0.26907840371131897
101 201 0.9642333984375
101 202 0.9500693082809448
101 203 0.9539329409599304
101 204 0.9593324661254883
101 205 0.9572804570198059
101 206 0.1159467026591301
101 207 0.9587938785552979
101 208 0.46043550968170166
101 209 0.9609141945838928
101 210 0.9689761996269226
101 211 0.08508162200450897
101 212 0.3279617130756378
101 213 0.9609141945838928
101 214 0.9488900303840637
101 215 0.9620209336280823
101 216 0.9690768122673035
101 217 0.9620542526245117
101 218 0.9609798192977905
101 219 0.9545083045959473
101 220 0.9582886099815369
101 221 0.9615171551704407
101 222 0.9360051155090332
101 223 0.9706743359565735
101 224 0.13643412292003632
101 225 0.9577158689498901
101 226 0.9690423011779785
101 227 0.9618979692459106
101 228 0.12885445356369019
101 229 0.055698998272418976
101 230 0.9679757356643677
101 231 0.965805172920227
101 232 0.9679420590400696
101 233 0.9534605145454407
101 234 0.1508336067199707
101 235 0.9577494859695435
101 236 0.15193146467208862
101 237 0.9615171551704407
101 238 0.9610141515731812
101 239 0.9669426679611206
101 240 0.9571762681007385
101 241 0.96900874376297
101 242 0.9543784260749817
101 244 0.9567050337791443
101 245 0.07190710306167603
101 246 0.28653982281684875
101 247 0.9572447538375854
101 248 0.9674419164657593
101 249 0.9642333984375
101 250 0.18079954385757446
101 251 0.12032359093427658
101 252 0.9642333984375
101 253 0.9440692663192749
101 254 0.9673755764961243
101 255 0.9572447538375854
102 103 0.9518492817878723
102 104 0.9669085144996643
102 105 0.43863633275032043
102 106 0.9566817879676819
102 107 0.9513070583343506
102 108 0.09690941870212555
102 109 0.9566490650177002
102 110 0.4053165912628174
102 111 0.9174505472183228
102 112 0.9658743143081665
102 113 0.3875616490840912
102 114 0.9634160995483398
102 116 0.9663101434707642
102 117 0.9533751010894775
102 118 0.9594083428382874
102 119 0.956750214099884
102 120 0.9136093854904175
102 121 0.9646168351173401
102 122 0.08503766357898712
102 123 0.35952264070510864
102 124 0.07186995446681976
102 125 0.9696065187454224
102 126 0.9598802328109741
102 127 0.9679425954818726
102 128 0.9551309943199158
102 129 0.963010311126709
102 130 0.9663746953010559
102 131 0.9555378556251526
102 132 0.9614917039871216
102 133 0.9540500640869141
102 134 0.9367661476135254
102 135 0.9453222155570984
102 136 0.9571883082389832
102 138 0.9459035992622375
102 139 0.957695722579956
102 140 0.19605959951877594
102 141 0.07954545319080353
102 142 0.9491705298423767
102 143 0.9678219556808472
102 144 0.9583665728569031
102 145 0.05567022040486336
102 146 0.9689767360687256
102 147 0.1674092561006546
102 148 0.5183595418930054
102 149 0.9517498016357422
102 150 0.26701223850250244
102 151 0.9615238904953003
102 152 0.9536980986595154
102 153 0.9469581842422485
102 154 0.9662495851516724
102 155 0.9527158737182617
102 156 0.13403813540935516
102 157 0.9693163633346558
102 158 0.9684134125709534
102 159 0.9556362628936768
102 161 0.9695091247558594
102 162 0.17604470252990723
102 163 0.9610546827316284
102 164 0.05567022040486336
102 165 0.9567155241966248
102 166 0.9588702917098999
102 167 0.9653400182723999
102 168 0.9620936512947083
102 169 0.9512727856636047
102 170 0.9560778141021729
102 171 0.9658405184745789
102 173 0.9620936512947083
102 174 0.9588368535041809
102 175 0.9604177474975586
102 176 0.15745915472507477
102 177 0.13655290007591248
102 178 0.31218311190605164
102 179 0.4014436602592468
102 180 0.31771767139434814
102 181 0.9583665728569031
102 182 0.963546097278595
102 183 0.1730857491493225
102 184 0.20586258172988892
102 185 0.9458678364753723
102 186 0.961591362953186
102 187 0.9631326198577881
102 188 0.1674092561006546
102 189 0.9722304344177246
102 190 0.9668132662773132
102 191 0.07872957736253738
102 192 0.9580921530723572
102 193 0.653386116027832
102 194 0.12448239326477051
102 195 0.9679751992225647
102 196 0.15792709589004517
102 197 0.957156777381897
102 198 0.9680087566375732
102 199 0.12472623586654663
102 200 0.2499999701976776
102 201 0.9637352228164673
102 202 0.9474682807922363
102 203 0.9576356410980225
102 204 0.956750214099884
102 205 0.9588702917098999
102 206 0.10697244107723236
102 207 0.9562107920646667
102 208 0.4378579258918762
102 209 0.9625033140182495
102 210 0.9674419164657593
102 211 0.08503766357898712
102 212 0.32154861092567444
102 213 0.9645889401435852
102 214 0.9452207684516907
102 215 0.9636051654815674
102 216 0.9716672897338867
102 217 0.9667548537254333
102 218 0.9594427347183228
102 219 0.9602984189987183
102 220 0.9609236121177673
102 221 0.9610204100608826
102 222 0.9365857839584351
102 223 0.9712016582489014
102 224 0.12121211737394333
102 225 0.9561759829521179
102 226 0.9706045985221863
102 227 0.9614009857177734
102 228 0.12121211737394333
102 229 0.05567022040486336
102 230 0.9674755930900574
102 231 0.9673776030540466
102 232 0.9684755206108093
102 233 0.9613456726074219
102 234 0.13019807636737823
102 235 0.960386335849762
102 236 0.1457788497209549
102 237 0.9631005525588989
102 238 0.9625967144966125
102 239 0.9705731868743896
102 240 0.9577273726463318
102 241 0.9716057181358337
102 242 0.9549371004104614
102 244 0.9572546482086182
102 245 0.07186995446681976
102 246 0.29313039779663086
102 247 0.9588368535041809
102 248 0.9679751992225647
102 249 0.9637352228164673
102 250 0.20580419898033142
102 251 0.10308121144771576
102 252 0.9658077955245972
102 253 0.9414587020874023
102 254 0.9668757319450378
102 255 0.9609236121177673
103 104 0.9528341889381409
103 105 0.44328683614730835
103 106 0.9442445039749146
103 107 0.9365334510803223
103 108 0.10829164832830429
103 109 0.9399289488792419
103 110 0.3964025676250458
103 111 0.9087063074111938
103 112 0.9517835974693298
103 113 0.3859907388687134
103 114 0.9361028075218201
103 116 0.9521499276161194
103 117 0.9407380223274231
103 118 0.9460577368736267
103 119 0.9411925077438354
103 120 0.8981296420097351
103 121 0.9524070620536804
103 122 0.07404586672782898
103 123 0.35390180349349976
103 124 0.07301021367311478
103 125 0.9546342492103577
103 126 0.9443721771240234
103 127 0.9528341889381409
103 128 0.9437453150749207
103 129 0.9422523975372314
103 130 0.9522765874862671
103 131 0.9376665949821472
103 132 0.9449995160102844
103 133 0.9415563344955444
103 134 0.9133005738258362
103 135 0.9302768111228943
103 136 0.940493643283844
103 138 0.9352010488510132
103 139 0.9378023743629456
103 140 0.1593361645936966
103 141 0.08080749213695526
103 142 0.93326336145401
103 143 0.9462551474571228
103 144 0.9481741189956665
103 145 0.05655346065759659
103 146 0.9496825337409973
103 147 0.1817939430475235
103 148 0.5246826410293579
103 149 0.93369460105896
103 150 0.259623646736145
103 151 0.9471797347068787
103 152 0.9257699847221375
103 153 0.9405573010444641
103 154 0.9467494487762451
103 155 0.9292038083076477
103 156 0.13616473972797394
103 157 0.9455611705780029
103 158 0.9532648921012878
103 159 0.9442445039749146
103 161 0.9533913135528564
103 162 0.16691523790359497
103 163 0.9478049874305725
103 164 0.05655346065759659
103 165 0.9496129751205444
103 166 0.9423198103904724
103 167 0.9533277153968811
103 168 0.9478049874305725
103 169 0.9353989958763123
103 170 0.9403626322746277
103 171 0.9506672024726868
103 173 0.9541377425193787
103 174 0.9433122873306274
103 175 0.9459937810897827
103 176 0.14662757515907288
103 177 0.13871939480304718
103 178 0.3266501724720001
103 179 0.37121427059173584
103 180 0.3708891272544861
103 181 0.9449995160102844
103 182 0.9449343681335449
103 183 0.15157920122146606
103 184 0.2091287225484848
103 185 0.9372816681861877
103 186 0.9452002048492432
103 187 0.9456940293312073
103 188 0.16420099139213562
103 189 0.9552561640739441
103 190 0.9484304189682007
103 191 0.06664890050888062
103 192 0.9348312616348267
103 193 0.6561406850814819
103 194 0.11802689731121063
103 195 0.950799822807312
103 196 0.16043271124362946
103 197 0.9393637776374817
103 198 0.9519158601760864
103 199 0.1267051100730896
103 200 0.26551035046577454
103 201 0.9484966993331909
103 202 0.9378484487533569
103 203 0.9355355501174927
103 204 0.9433122873306274
103 205 0.9433786273002625
103 206 0.1177254244685173
103 207 0.945930540561676
103 208 0.45161306858062744
103 209 0.9438750147819519
103 210 0.9523413777351379
103 212 0.31079337000846863
103 213 0.9449343681335449
103 214 0.9311524629592896
103 215 0.9450654983520508
103 216 0.9546342492103577
103 217 0.9493565559387207
103 218 0.9492939710617065
103 219 0.936172366142273
103 220 0.9454320669174194
103 221 0.9530231356620789
103 222 0.9265779852867126
103 223 0.9552561640739441
103 224 0.13852712512016296
103 225 0.9394989609718323
103 226 0.9535212516784668
103 227 0.9469299912452698
103 228 0.12313522398471832
103 229 0.05655346065759659
103 230 0.9513580799102783
103 231 0.9543171525001526
103 232 0.9544413089752197
103 233 0.9372361898422241
103 234 0.15314750373363495
103 235 0.9406282901763916
103 236 0.17277368903160095
103 237 0.9530231356620789
103 238 0.9514685273170471
103 239 0.9587003588676453
103 240 0.9463687539100647
103 241 0.9555537104606628
103 242 0.9358996152877808
103 244 0.9438096880912781
103 245 0.07301021367311478
103 246 0.29435834288597107
103 247 0.9422523975372314
103 248 0.9539481997489929
103 249 0.9484966993331909
103 250 0.20397017896175385
103 251 0.12216944247484207
103 252 0.9495494961738586
103 253 0.9294396638870239
103 254 0.9527704119682312
103 255 0.9433122873306274
104 105 0.4163394570350647
104 106 0.9545317888259888
104 107 0.9501891732215881
104 108 0.10671065002679825
104 109 0.9524002075195312
104 110 0.38053497672080994
104 111 0.9140264391899109
104 112 0.9658384919166565
104 113 0.3904983699321747
104 114 0.9507704973220825
104 116 0.962120532989502
104 117 0.9522570967674255
104 118 0.9624865651130676
104 119 0.9587845206260681
104 120 0.9167426228523254
104 121 0.9604009985923767
104 122 0.07296484708786011
104 123 0.36826422810554504
104 124 0.05755544826388359
104 125 0.9685468673706055
104 126 0.9577401280403137
104 127 0.9679089188575745
104 128 0.9582114219665527
104 129 0.9598289132118225
104 130 0.9653031229972839
104 131 0.9502266645431519
104 132 0.9593581557273865
104 133 0.957131564617157
104 134 0.9334191083908081
104 135 0.9431283473968506
104 136 0.9539900422096252
104 138 0.9521604776382446
104 139 0.9544957280158997
104 140 0.21098212897777557
104 141 0.09100314974784851
104 142 0.9512048959732056
104 143 0.9625862836837769
104 144 0.9604009985923767
104 145 0.05572781711816788
104 146 0.9658384919166565
104 147 0.1675824671983719
104 148 0.5376285314559937
104 149 0.9485188722610474
104 150 0.2634701132774353
104 151 0.9604353904724121
104 152 0.9451380372047424
104 153 0.9511048197746277
104 154 0.9620490670204163
104 155 0.9494723081588745
104 156 0.1341768205165863
104 157 0.9651081562042236
104 158 0.9631944894790649
104 159 0.9555783867835999
104 161 0.967408299446106
104 162 0.15860415995121002
104 163 0.9599689245223999
104 164 0.05572781711816788
104 165 0.9671151638031006
104 166 0.9588190913200378
104 167 0.9653031229972839
104 168 0.9599689245223999
104 169 0.9501526951789856
104 170 0.9518199563026428
104 171 0.9678761959075928
104 173 0.9641291499137878
104 174 0.9608733654022217
104 175 0.9593236446380615
104 176 0.13135173916816711
104 177 0.13669419288635254
104 178 0.3218812942504883
104 179 0.39155495166778564
104 180 0.35710471868515015
104 181 0.9604009985923767
104 182 0.9572359323501587
104 183 0.17326484620571136
104 184 0.21098212897777557
104 185 0.94896000623703
104 186 0.9657047986984253
104 187 0.9599689245223999
104 188 0.16180375218391418
104 189 0.9701467752456665
104 190 0.9657368063926697
104 191 0.06567586958408356
104 192 0.947502851486206
104 193 0.6570624709129333
104 194 0.11630378663539886
104 195 0.9669085144996643
104 196 0.15201009809970856
104 197 0.9529055953025818
104 198 0.9679772853851318
104 199 0.10924837738275528
104 200 0.2578422725200653
104 201 0.9647324085235596
104 202 0.953729510307312
104 203 0.9575765132904053
104 204 0.9577401280403137
104 205 0.9577757716178894
104 206 0.11600670963525772
104 207 0.9603350758552551
104 208 0.44949236512184143
104 209 0.9624552726745605
104 210 0.9705122709274292
104 211 0.08512565493583679
104 212 0.31875622272491455
104 213 0.9645430445671082
104 214 0.9419558048248291
104 215 0.9583519697189331
104 216 0.9685468673706055
104 217 0.9615114331245422
104 218 0.9614771008491516
104 219 0.9529055953025818
104 220 0.9608733654022217
104 221 0.9599325060844421
104 222 0.9396857023239136
104 223 0.9701467752456665
104 224 0.13650473952293396
104 225 0.9550731778144836
104 226 0.9685112237930298
104 227 0.9571653008460999
104 228 0.12133754044771194
104 229 0.05572781711816788
104 230 0.9664095044136047
104 231 0.9663049578666687
104 232 0.9767202734947205
104 233 0.9560505151748657
104 234 0.13719241321086884
104 235 0.9561551213264465
104 236 0.17025130987167358
104 237 0.9588913321495056
104 238 0.9635926485061646
104 239 0.9664095044136047
104 240 0.9555783867835999
104 241 0.96744304895401
104 242 0.9527667164802551
104 244 0.9561551213264465
104 246 0.2900609076023102
104 247 0.9556512236595154
104 248 0.9679425954818726
104 249 0.9678444266319275
104 250 0.2060171514749527
104 251 0.12038585543632507
104 252 0.9636949896812439
104 253 0.9445578455924988
104 254 0.9647673964500427
104 255 0.9608733654022217
105 106 0.4278406500816345
105 107 0.438903272151947
105 109 0.45132067799568176
105 110 0.12184673547744751
105 111 0.3796497881412506
105 112 0.42998990416526794
105 113 0.3399397134780884
105 114 0.4335896968841553
105 116 0.4197021424770355
105 117 0.4069976508617401
105 118 0.42626479268074036
105 119 0.4407102167606354
105 120 0.3486140966415405
105 121 0.42626479268074036
105 122 0.133630633354187
105 123 0.14102205634117126
105 125 0.446575403213501
105 126 0.431528776884079
105 127 0.4163394570350647
105 128 0.4253154397010803
105 129 0.44759634137153625
105 130 0.45069897174835205
105 131 0.456896036863327
105 132 0.4423070251941681
105 133 0.4050528407096863
105 134 0.39842209219932556
105 135 0.4252365529537201
105 136 0.4280671775341034
105 138 0.4106297492980957
105 139 0.4282941222190857
105 142 0.4301224946975708
105 143 0.43635067343711853
105 144 0.44918227195739746
105 146 0.44591546058654785
105 147 0.05080005154013634
105 148 0.2140806019306183
105 149 0.37059286236763
105 150 0.08391813933849335
105 151 0.42123907804489136
105 152 0.4149646461009979
105 153 0.45006880164146423
105 154 0.42972129583358765
105 155 0.4484735131263733
105 156 0.08846516907215118
105 157 0.42146003246307373
105 158 0.45116671919822693
105 159 0.4324410855770111
105 161 0.44795870780944824
105 163 0.44343581795692444
105 165 0.41360190510749817
105 166 0.4035593569278717
105 167 0.4256601333618164
105 168 0.4320070445537567
105 169 0.4439973831176758
105 170 0.4382023513317108
105 171 0.4167710840702057
105 173 0.4388642907142639
105 174 0.43611952662467957
105 175 0.424419105052948
105 176 0.11547005921602249
105 178 0.1785687357187271
105 179 0.22079402208328247
105 180 0.2575185298919678
105 181 0.42397305369377136
105 182 0.4335957467556
105 183 0.07878385484218597
105 184 0.12939932942390442
105 185 0.4505540430545807
105 186 0.44548889994621277
105 187 0.42286401987075806
105 188 0.17780017852783203
105 189 0.4390983581542969
105 190 0.4313315153121948
105 192 0.43035268783569336
105 193 0.34947168827056885
105 195 0.4363636076450348
105 196 0.08017837256193161
105 197 0.435433030128479
105 198 0.44272470474243164
105 200 0.07500000298023224
105 201 0.43316271901130676
105 202 0.4131721258163452
105 203 0.4338204860687256
105 204 0.4338241517543793
105 205 0.4379536211490631
105 207 0.42716312408447266
105 208 0.10812409967184067
105 209 0.424419105052948
105 210 0.4229457676410675
105 211 0.053452249616384506
105 212 0.2060408592224121
105 213 0.4290074408054352
105 214 0.41030213236808777
105 215 0.43955379724502563
105 216 0.44204163551330566
105 217 0.41393738985061646
105 218 0.4326857626438141
105 219 0.43312913179397583
105 220 0.4246426522731781
105 221 0.45076435804367065
105 222 0.4331709146499634
105 223 0.4345715641975403
105 224 0.09999999403953552
105 225 0.40922242403030396
105 226 0.45157352089881897
105 227 0.4368104934692383
105 228 0.13333334028720856
105 230 0.436138391494751
105 231 0.4283805191516876
105 232 0.4320414066314697
105 233 0.41930586099624634
105 235 0.4110870957374573
105 236 0.08017837256193161
105 237 0.43017104268074036
105 238 0.4276590347290039
105 239 0.44295307993888855
105 240 0.4416419565677643
105 241 0.44976773858070374
105 242 0.41878408193588257
105 244 0.42486655712127686
105 246 0.14083737134933472
105 247 0.4223473370075226
105 248 0.4431818127632141
105 249 0.44228190183639526
105 250 0.05521576851606369
105 251 0.05669466778635979
105 252 0.41948390007019043
105 253 0.4249831736087799
105 254 0.4441003203392029
105 255 0.4246426522731781
106 107 0.9426227807998657
106 108 0.08827348053455353
106 109 0.9406785368919373
106 110 0.36690428853034973
106 111 0.909756064414978
106 112 0.9545317888259888
106 113 0.37686729431152344
106 114 0.9443003535270691
106 116 0.9538636207580566
106 117 0.9404388666152954
106 118 0.9573075175285339
106 119 0.9461477994918823
106 120 0.9080696702003479
106 121 0.9467644691467285
106 122 0.08606629818677902
106 123 0.3638714849948883
106 124 0.058191437274217606
106 125 0.9604777693748474
106 126 0.9482597708702087
106 127 0.9597649574279785
106 128 0.9465892314910889
106 129 0.9461477994918823
106 130 0.9560733437538147
106 131 0.9405567646026611
106 132 0.9478187561035156
106 133 0.9465327262878418
106 134 0.9197309017181396
106 135 0.9353769421577454
106 136 0.9433563947677612
106 138 0.9370672106742859
106 139 0.945975124835968
106 140 0.19843116402626038
106 141 0.06900654733181
106 142 0.9425665140151978
106 143 0.9501010179519653
106 144 0.9520360231399536
106 145 0.05634361505508423
106 146 0.9576716423034668
106 147 0.14606401324272156
106 148 0.5227357149124146
106 149 0.9398200511932373
106 150 0.23935726284980774
106 151 0.9499843716621399
106 152 0.9330597519874573
106 153 0.9370672106742859
106 154 0.9569065570831299
106 155 0.9407219290733337
106 156 0.1424424648284912
106 157 0.953643798828125
106 158 0.9528725743293762
106 159 0.9513227343559265
106 161 0.9582224488258362
106 162 0.16035673022270203
106 163 0.9505972862243652
106 165 0.9450322389602661
106 166 0.9567558765411377
106 167 0.9539790153503418
106 168 0.9505972862243652
106 169 0.9383111000061035
106 170 0.940056324005127
106 171 0.9565691351890564
106 173 0.9569065570831299
106 174 0.9524836540222168
106 175 0.9519822001457214
106 176 0.11952286213636398
106 177 0.1382046639919281
106 178 0.31279972195625305
106 179 0.3828592300415039
106 180 0.34976792335510254
106 181 0.9467644691467285
106 182 0.9467051029205322
106 183 0.17517942190170288
106 184 0.208352729678154
106 185 0.935940682888031
106 186 0.9522029757499695
106 187 0.9516488313674927
106 188 0.16359169781208038
106 189 0.9600417017936707
106 190 0.9522604942321777
106 191 0.07968190312385559
106 192 0.938813328742981
106 193 0.6582561135292053
106 194 0.10079052299261093
106 195 0.9577273726463318
106 196 0.16598500311374664
106 197 0.9560160636901855
106 198 0.9567395448684692
106 199 0.11834526807069778
106 200 0.23768924176692963
106 201 0.9565141201019287
106 202 0.9397076964378357
106 203 0.9384336471557617
106 204 0.9440358877182007
106 205 0.9493718147277832
106 206 0.11728858947753906
106 207 0.94453364610672
106 208 0.44315433502197266
106 209 0.9498713612556458
106 210 0.9540380239486694
106 211 0.08606629818677902
106 212 0.31595930457115173
106 213 0.9498713612556458
106 214 0.9352046847343445
106 215 0.9478779435157776
106 216 0.9573491811752319
106 217 0.9553026556968689
106 218 0.9489311575889587
106 219 0.9411776661872864
106 220 0.9450918436050415
106 221 0.9515921473503113
106 222 0.9296029210090637
106 223 0.9600417017936707
106 224 0.12267831712961197
106 225 0.949762225151062
106 226 0.9614664316177368
106 227 0.9487044811248779
106 228 0.12267831712961197
106 229 0.05634361505508423
106 230 0.9561880230903625
106 231 0.9528725743293762
106 232 0.9592685103416443
106 233 0.9454171657562256
106 234 0.14564381539821625
106 235 0.954042375087738
106 236 0.17213259637355804
106 237 0.9515921473503113
106 238 0.9542505741119385
106 239 0.9582780599594116
106 240 0.9534391164779663
106 241 0.9561880230903625
106 242 0.937748908996582
106 244 0.9498162865638733
106 246 0.29326605796813965
106 247 0.9524836540222168
106 248 0.9587728977203369
106 249 0.9512701034545898
106 250 0.2082936316728592
106 251 0.10432810336351395
106 252 0.9544165134429932
106 253 0.930287778377533
106 254 0.9586645364761353
106 255 0.9524836540222168
107 108 0.09849946945905685
107 109 0.9414941668510437
107 110 0.38893768191337585
107 111 0.9003100395202637
107 112 0.9543935656547546
107 113 0.3913459777832031
107 114 0.9408642649650574
107 116 0.9526578187942505
107 117 0.93803471326828
107 118 0.9465624690055847
107 119 0.9469969272613525
107 120 0.908605694770813
107 121 0.9423272609710693
107 122 0.08643292635679245
107 123 0.33992698788642883
107 125 0.953048825263977
107 126 0.9459364414215088
107 127 0.9501891732215881
107 128 0.9474351406097412
107 129 0.9416946172714233
107 130 0.9538363218307495
107 131 0.9371007680892944
107 132 0.9433860182762146
107 133 0.9378055334091187
107 134 0.9072138667106628
107 135 0.9350672960281372
107 136 0.9409953951835632
107 138 0.9432027339935303
107 139 0.9383026361465454
107 140 0.1942945271730423
107 141 0.05775042995810509
107 142 0.9391031265258789
107 143 0.9467599391937256
107 144 0.9455036520957947
107 145 0.05658363178372383
107 146 0.9543935656547546
107 147 0.15842114388942719
107 148 0.5154523253440857
107 149 0.9299123287200928
107 150 0.2752703130245209
107 151 0.9466273784637451
107 152 0.9316492080688477
107 153 0.93248450756073
107 154 0.9461984634399414
107 155 0.9339937567710876
107 156 0.12261364609003067
107 157 0.9471238851547241
107 158 0.9506152868270874
107 159 0.937309205532074
107 161 0.9507482647895813
107 162 0.1371820867061615
107 163 0.944086492061615
107 164 0.05658363178372383
107 165 0.9416268467903137
107 166 0.9438818693161011
107 167 0.9527845978736877
107 168 0.9504225850105286
107 169 0.935897946357727
107 170 0.9451263546943665
107 171 0.9543309211730957
107 173 0.9483105540275574
107 174 0.9459364414215088
107 175 0.9433186650276184
107 176 0.15337425470352173
107 177 0.1460983157157898
107 178 0.30144003033638
107 179 0.3897213339805603
107 180 0.35125789046287537
107 181 0.94762122631073
107 182 0.9401388764381409
107 183 0.16985926032066345
107 184 0.20425835251808167
107 185 0.9377816915512085
107 186 0.947815477848053
107 187 0.9483105540275574
107 188 0.17015603184700012
107 189 0.9557657837867737
107 190 0.945773184299469
107 191 0.08002134412527084
107 192 0.9353299140930176
107 193 0.6443052291870117
107 194 0.12652485072612762
107 195 0.9555070996284485
107 196 0.1666920781135559
107 197 0.9398649334907532
107 198 0.9555704593658447
107 199 0.11884939670562744
107 200 0.26565197110176086
107 201 0.9511092901229858
107 202 0.9308419823646545
107 203 0.9392328858375549
107 204 0.9438155293464661
107 205 0.9481192827224731
107 206 0.1087275892496109
107 207 0.9443131685256958
107 208 0.4177946448326111
107 209 0.9433186650276184
107 210 0.9528493881225586
107 211 0.08643292635679245
107 212 0.3141322433948517
107 213 0.9475582838058472
107 214 0.9305720925331116
107 215 0.9423966407775879
107 216 0.9551435112953186
107 217 0.9477497935295105
107 218 0.9445120692253113
107 219 0.9398649334907532
107 220 0.9416946172714233
107 221 0.9461315870285034
107 222 0.919499933719635
107 223 0.9641313552856445
107 224 0.13860101997852325
107 225 0.9410622715950012
107 226 0.9561266303062439
107 227 0.9400001168251038
107 228 0.1232009083032608
107 229 0.05658363178372383
107 230 0.9539644718170166
107 231 0.9474570751190186
107 232 0.9517987966537476
107 233 0.9451870322227478
107 234 0.1462642401456833
107 235 0.9464351534843445
107 236 0.1728658527135849
107 237 0.9461315870285034
107 238 0.9445801377296448
107 239 0.9571129083633423
107 240 0.9383718967437744
107 241 0.9508160352706909
107 242 0.9363988637924194
107 244 0.9432521462440491
107 245 0.0730491578578949
107 246 0.2979399561882019
107 247 0.9469969272613525
107 248 0.9534071087837219
107 249 0.9490026831626892
107 250 0.14795726537704468
107 251 0.10477253049612045
107 252 0.9479494094848633
107 253 0.9277778267860413
107 254 0.9543309211730957
107 255 0.9459364414215088
108 109 0.09818560630083084
108 111 0.10245772451162338
108 112 0.09700968116521835
108 114 0.06883950531482697
108 116 0.09726172685623169
108 117 0.09860475361347198
108 118 0.10749242454767227
108 119 0.10766219347715378
108 120 0.08201353996992111
108 121 0.09772038459777832
108 123 0.05228869989514351
108 124 0.1348399668931961
108 125 0.10632611066102982
108 126 0.0978747233748436
108 127 0.09700968116521835
108 128 0.10783277451992035
108 129 0.0978747233748436
108 130 0.0970599353313446
108 131 0.09839451313018799
108 132 0.10749242454767227
108 133 0.10794694721698761
108 134 0.11123602092266083
108 135 0.10899105668067932
108 136 0.09813358634710312
108 138 0.08903039991855621
108 139 0.07854848355054855
108 141 0.10660035163164139
108 142 0.07888380438089371
108 143 0.08767250180244446
108 144 0.10749242454767227
108 145 0.17407765984535217
108 146 0.09700968116521835
108 147 0.10830607265233994
108 148 0.12288267910480499
108 149 0.08888699114322662
108 151 0.10737969726324081
108 152 0.07952427864074707
108 153 0.06924585998058319
108 154 0.06822534650564194
108 155 0.08917450159788132
108 156 0.06286945939064026
108 157 0.07813528180122375
108 158 0.09716066718101501
108 159 0.09808164834976196
108 160 0.21320070326328278
108 161 0.0581757053732872
108 162 0.05504818633198738
108 163 0.10721126198768616
108 164 0.17407765984535217
108 165 0.10777582228183746
108 166 0.09777174890041351
108 167 0.10676592588424683
108 168 0.10721126198768616
108 169 0.10846523195505142
108 170 0.08850793540477753
108 171 0.10682129114866257
108 173 0.07797182351350784
108 174 0.0978747233748436
108 175 0.09782319515943527
108 178 0.08785610646009445
108 180 0.07843304425477982
108 181 0.09772038459777832
108 182 0.10760551691055298
108 184 0.22990024089813232
108 185 0.08912638574838638
108 186 0.08767250180244446
108 187 0.10721126198768616
108 189 0.10616257041692734
108 190 0.06811865419149399
108 192 0.10852327942848206
108 193 0.08434823155403137
108 195 0.09690941870212555
108 197 0.10806147754192352
108 198 0.0774475634098053
108 199 0.14625447988510132
108 200 0.21320070326328278
108 201 0.10693227499723434
108 202 0.09897594898939133
108 203 0.09839451313018799
108 204 0.0978747233748436
108 205 0.10754892975091934
108 207 0.09792633354663849
108 208 0.08382594585418701
108 209 0.10760551691055298
108 210 0.09695951640605927
108 213 0.08804087340831757
108 214 0.09940534830093384
108 215 0.09761790186166763
108 216 0.09666009992361069
108 217 0.08776416629552841
108 218 0.10737969726324081
108 219 0.05894261971116066
108 220 0.0978747233748436
108 221 0.10732346028089523
108 222 0.10982441902160645
108 223 0.10616257041692734
108 224 0.07106690108776093
108 225 0.09802979230880737
108 226 0.09675959497690201
108 227 0.0882268100976944
108 228 0.07106690108776093
108 230 0.1065453439950943
108 231 0.09716066718101501
108 232 0.10665546357631683
108 233 0.07859016209840775
108 234 0.06428243219852448
108 235 0.10771896690130234
108 236 0.11396057158708572
108 237 0.10732346028089523
108 238 0.10726731270551682
108 239 0.1065453439950943
108 240 0.1078898087143898
108 241 0.1065453439950943
108 242 0.07892601937055588
108 244 0.10771896690130234
108 246 0.12642790377140045
108 247 0.0978747233748436
108 248 0.09690941870212555
108 249 0.09721115976572037
108 251 0.08058229088783264
108 252 0.08749004453420639
108 253 0.09956781566143036
108 254 0.07768820971250534
108 255 0.10766219347715378
109 110 0.41320478916168213
109 111 0.8985479474067688
109 112 0.9534479379653931
109 113 0.40549761056900024
109 114 0.9431770443916321
109 116 0.9517232179641724
109 117 0.9393056035041809
109 118 0.9456571340560913
109 119 0.9503219127655029
109 120 0.9034960269927979
109 121 0.9498788118362427
109 122 0.06154108792543411
109 123 0.33037272095680237
109 124 0.0728163942694664
109 125 0.9604517817497253
109 126 0.9460935592651367
109 127 0.9544957280158997
109 128 0.9444162249565125
109 129 0.9482077360153198
109 130 0.9591832160949707
109 131 0.9383655786514282
109 132 0.9467125535011292
109 133 0.9443562030792236
109 134 0.9130604863166809
109 135 0.9320878386497498
109 136 0.9411765933036804
109 138 0.9337868094444275
109 139 0.9437963962554932
109 140 0.20360751450061798
109 141 0.09210626035928726
109 142 0.9361107349395752
109 143 0.952160120010376
109 144 0.9456571340560913
109 145 0.05640333145856857
109 146 0.9607821702957153
109 147 0.1579163372516632
109 148 0.5289777517318726
109 149 0.9354827404022217
109 150 0.2589344084262848
109 151 0.9478282332420349
109 152 0.9319013953208923
109 153 0.938060462474823
109 154 0.9505521655082703
109 155 0.9459996223449707
109 156 0.14259344339370728
109 157 0.9504351615905762
109 158 0.9559813141822815
109 159 0.9427971243858337
109 161 0.9550492167472839
109 162 0.15458126366138458
109 163 0.9516047835350037
109 164 0.05640333145856857
109 165 0.943917453289032
109 166 0.9450982213020325
109 167 0.9528934955596924
109 168 0.9494994878768921
109 169 0.9488903880119324
109 170 0.9453012943267822
109 171 0.9523388147354126
109 173 0.9494994878768921
109 174 0.9439794421195984
109 175 0.9477085471153259
109 176 0.15953271090984344
109 177 0.13835114240646362
109 178 0.30996832251548767
109 179 0.37283605337142944
109 180 0.35296231508255005
109 181 0.9498788118362427
109 182 0.9466519951820374
109 183 0.12698853015899658
109 184 0.20360751450061798
109 185 0.9390718340873718
109 186 0.9542643427848816
109 187 0.9526574611663818
109 188 0.18131135404109955
109 189 0.9589744806289673
109 190 0.950116753578186
109 191 0.07976635545492172
109 192 0.9387428164482117
109 193 0.6665454506874084
109 194 0.10930546373128891
109 195 0.9545558094978333
109 196 0.14154450595378876
109 197 0.9411141872406006
109 198 0.9587991237640381
109 199 0.13426679372787476
109 200 0.24945446848869324
109 201 0.9512283802032471
109 202 0.9342897534370422
109 203 0.9404910206794739
109 204 0.9460935592651367
109 205 0.9482661485671997
109 206 0.11741290241479874
109 207 0.9508230090141296
109 208 0.43004366755485535
109 209 0.944538950920105
109 210 0.9540020823478699
109 211 0.08615751564502716
109 212 0.32578304409980774
109 213 0.9466519951820374
109 214 0.9286805987358093
109 215 0.9499368667602539
109 216 0.9583638310432434
109 217 0.947889506816864
109 218 0.9467739462852478
109 219 0.9464192390441895
109 220 0.9439794421195984
109 221 0.9462780952453613
109 222 0.9284315705299377
109 223 0.9600169062614441
109 224 0.13048386573791504
109 225 0.9412399530410767
109 226 0.9562151432037354
109 227 0.9422987103462219
109 228 0.13048386573791504
109 229 0.05640333145856857
109 230 0.9540631175041199
109 231 0.9528331756591797
109 232 0.9560964107513428
109 233 0.9411141872406006
109 234 0.11802709847688675
109 235 0.9455347657203674
109 236 0.12923628091812134
109 237 0.9483855962753296
109 238 0.9489427208900452
109 239 0.9561553597450256
109 240 0.943856418132782
109 241 0.9551092386245728
109 242 0.9398083090782166
109 244 0.9423618316650391
109 245 0.0728163942694664
109 246 0.2833358645439148
109 247 0.9471506476402283
109 248 0.9556024670600891
109 249 0.9543781876564026
109 250 0.19325725734233856
109 251 0.11314190924167633
109 252 0.9501785039901733
109 253 0.9301984310150146
109 254 0.9533876776695251
109 255 0.9439794421195984
110 111 0.3752894401550293
110 112 0.40069580078125
110 113 0.17284280061721802
110 114 0.3908712565898895
110 116 0.4067901372909546
110 117 0.4047226309776306
110 118 0.35032153129577637
110 119 0.4042688012123108
110 120 0.3861590027809143
110 121 0.4061698913574219
110 123 0.06791729480028152
110 125 0.38167470693588257
110 126 0.4042688012123108
110 127 0.3956555724143982
110 128 0.39472290873527527
110 129 0.3890133798122406
110 130 0.39586055278778076
110 131 0.37318679690361023
110 132 0.39601564407348633
110 133 0.39514079689979553
110 134 0.36252206563949585
110 135 0.35520559549331665
110 136 0.390042245388031
110 138 0.38289934396743774
110 139 0.38514769077301025
110 140 0.11944609880447388
110 142 0.4047226309776306
110 143 0.40489596128463745
110 144 0.3858613967895508
110 146 0.3981756865978241
110 147 0.14067773520946503
110 148 0.255377858877182
110 149 0.392545223236084
110 150 0.3067544996738434
110 151 0.40320801734924316
110 152 0.3925146758556366
110 153 0.3443524241447449
110 154 0.4000435769557953
110 155 0.37579721212387085
110 156 0.0653284415602684
110 157 0.37550994753837585
110 158 0.3861753046512604
110 159 0.3847399055957794
110 161 0.4030073583126068
110 163 0.39751166105270386
110 165 0.39451444149017334
110 166 0.396223783493042
110 167 0.4109889566898346
110 168 0.3949797451496124
110 169 0.379107266664505
110 170 0.39342597126960754
110 171 0.39102035760879517
110 173 0.36966055631637573
110 174 0.3712153732776642
110 175 0.37356114387512207
110 176 0.07994119077920914
110 177 0.12259964644908905
110 178 0.08368468284606934
110 179 0.15677756071090698
110 180 0.1154593974351883
110 181 0.3782457113265991
110 182 0.39389100670814514
110 183 0.05817912891507149
110 185 0.34729623794555664
110 186 0.38718175888061523
110 187 0.3924477994441986
110 188 0.1969488114118576
110 189 0.3986377418041229
110 190 0.39436209201812744
110 192 0.38699889183044434
110 193 0.29946157336235046
110 194 0.12134218215942383
110 195 0.37510666251182556
110 197 0.35217610001564026
110 198 0.39986875653266907
110 199 0.05699056759476662
110 200 0.07384650409221649
110 201 0.3585972785949707
110 202 0.37539204955101013
110 203 0.380854994058609
110 204 0.4042688012123108
110 205 0.38860413432121277
110 207 0.41211366653442383
110 208 0.21776147186756134
110 209 0.3481488525867462
110 210 0.4080449044704437
110 212 0.13693857192993164
110 213 0.40405595302581787
110 214 0.3873499929904938
110 215 0.40574392676353455
110 216 0.4092958867549896
110 217 0.40785253047943115
110 218 0.38799262046813965
110 219 0.38280007243156433
110 220 0.3890133798122406
110 221 0.36751285195350647
110 222 0.3968260884284973
110 223 0.3986377418041229
110 225 0.3921763598918915
110 226 0.38206759095191956
110 227 0.35652393102645874
110 228 0.07384650409221649
110 230 0.4000750482082367
110 231 0.39879539608955383
110 232 0.36774420738220215
110 233 0.40576809644699097
110 235 0.39685019850730896
110 237 0.39539310336112976
110 238 0.38252004981040955
110 239 0.39252644777297974
110 240 0.3618083894252777
110 241 0.4025912284851074
110 242 0.3972505033016205
110 244 0.37395498156547546
110 245 0.17514236271381378
110 246 0.12316200882196426
110 247 0.3966410458087921
110 248 0.3650366961956024
110 249 0.40405330061912537
110 250 0.2324170023202896
110 251 0.06280054897069931
110 252 0.4015279710292816
110 253 0.3957427442073822
110 254 0.39858850836753845
110 255 0.35087481141090393
111 112 0.9096530675888062
111 113 0.38564756512641907
111 114 0.8977639079093933
111 116 0.9142088294029236
111 117 0.896827220916748
111 118 0.9064052700996399
111 119 0.9078367948532104
111 120 0.887348473072052
111 121 0.9064052700996399
111 122 0.08990629017353058
111 123 0.34180089831352234
111 125 0.9150902032852173
111 126 0.9067336916923523
111 127 0.9162131547927856
111 128 0.9103800058364868
111 129 0.9067336916923523
111 130 0.9101243019104004
111 131 0.9048954844474792
111 132 0.9053038954734802
111 133 0.8969658017158508
111 134 0.8673109412193298
111 135 0.9011749029159546
111 136 0.9069198369979858
111 138 0.904178261756897
111 139 0.9173599481582642
111 140 0.16582760214805603
111 142 0.8946046233177185
111 143 0.909051775932312
111 144 0.9042025804519653
111 146 0.9129331111907959
111 147 0.17089062929153442
111 148 0.47879040241241455
111 149 0.8982694745063782
111 150 0.2661679685115814
111 151 0.9065548181533813
111 152 0.8850630521774292
111 153 0.8986037969589233
111 154 0.9062312841415405
111 155 0.8955914378166199
111 156 0.134626567363739
111 157 0.9070303440093994
111 158 0.9099738597869873
111 159 0.907545268535614
111 161 0.9168319702148438
111 162 0.1613072007894516
111 163 0.9117236137390137
111 164 0.05885748192667961
111 165 0.9032737016677856
111 166 0.9068816900253296
111 167 0.918875515460968
111 168 0.917215883731842
111 169 0.8990498185157776
111 170 0.908847451210022
111 171 0.9193519353866577
111 173 0.9128220677375793
111 174 0.9100430011749268
111 175 0.9084613919258118
111 176 0.14566484093666077
111 177 0.09118161350488663
111 178 0.2805478870868683
111 179 0.3645721971988678
111 180 0.3565337061882019
111 181 0.9064052700996399
111 182 0.9117688536643982
111 183 0.15775460004806519
111 184 0.1606454998254776
111 185 0.896224319934845
111 186 0.9112475514411926
111 187 0.913920521736145
111 188 0.11596149951219559
111 189 0.9191213250160217
111 190 0.9092011451721191
111 191 0.08323705196380615
111 192 0.9150975942611694
111 193 0.6068214178085327
111 194 0.10528746247291565
111 195 0.9163583517074585
111 196 0.15412506461143494
111 197 0.8990247249603271
111 198 0.9143221378326416
111 199 0.13186714053153992
111 200 0.23227517306804657
111 201 0.9115422964096069
111 202 0.891279399394989
111 203 0.894914984703064
111 204 0.9045275449752808
111 205 0.9101874828338623
111 206 0.10367214679718018
111 207 0.9105228185653687
111 208 0.3826228380203247
111 209 0.9073588848114014
111 210 0.9157392382621765
111 211 0.07706253230571747
111 212 0.28384846448898315
111 213 0.8996413946151733
111 214 0.8873037695884705
111 215 0.9098553657531738
111 216 0.9248947501182556
111 217 0.9067051410675049
111 218 0.9142560958862305
111 219 0.9012390375137329
111 220 0.9100430011749268
111 221 0.9181758165359497
111 222 0.8945626020431519
111 223 0.9191213250160217
111 224 0.10412335395812988
111 225 0.9125896096229553
111 226 0.9149416089057922
111 227 0.9125896096229553
111 228 0.10412335395812988
111 230 0.9158853888511658
111 231 0.920924186706543
111 232 0.9146464467048645
111 233 0.8968104124069214
111 234 0.15938681364059448
111 235 0.9027971029281616
111 236 0.14128132164478302
111 237 0.9192754626274109
111 238 0.9100022912025452
111 239 0.9147937893867493
111 240 0.9119669198989868
111 241 0.9147937893867493
111 242 0.9106500744819641
111 244 0.9138337969779968
111 245 0.07598468661308289
111 246 0.26716625690460205
111 247 0.9100430011749268
111 248 0.922911524772644
111 249 0.909351110458374
111 250 0.20697301626205444
111 251 0.08173716068267822
111 252 0.9181159734725952
111 253 0.8943648338317871
111 254 0.9138796329498291
111 255 0.9067336916923523
112 113 0.3981054723262787
112 114 0.9528693556785583
112 116 0.9662720561027527
112 117 0.9501526951789856
112 118 0.9583154320716858
112 119 0.9619178175926208
112 120 0.9145546555519104
112 121 0.9583154320716858
112 122 0.08512565493583679
112 123 0.35989460349082947
112 124 0.07194431126117706
112 125 0.9706097841262817
112 126 0.9556512236595154
112 127 0.9699792861938477
112 128 0.9571653008460999
112 129 0.9556512236595154
112 130 0.968410313129425
112 131 0.9512766003608704
112 132 0.9572726488113403
112 133 0.9539900422096252
112 134 0.9247862696647644
112 135 0.9463003277778625
112 136 0.9539900422096252
112 138 0.9479380249977112
112 139 0.9534479379653931
112 140 0.20607557892799377
112 141 0.09100314974784851
112 142 0.9533092975616455
112 143 0.9605072736740112
112 144 0.9572726488113403
112 145 0.05572781711816788
112 146 0.9648033380508423
112 147 0.1733611673116684
112 148 0.5413751006126404
112 149 0.9474650025367737
112 150 0.2672885060310364
112 151 0.9646021723747253
112 152 0.9408950209617615
112 153 0.9511048197746277
112 154 0.963089108467102
112 155 0.9431283473968506
112 156 0.15430335700511932
112 157 0.9588547348976135
112 158 0.9642313718795776
112 159 0.9534851908683777
112 161 0.96637362241745
112 162 0.17035260796546936
112 163 0.9610089659690857
112 164 0.05572781711816788
112 165 0.9577054381370544
112 166 0.9619491100311279
112 167 0.9653031229972839
112 168 0.9610089659690857
112 169 0.9512048959732056
112 170 0.9507704973220825
112 171 0.9647673964500427
112 173 0.9599689245223999
112 174 0.9608733654022217
112 175 0.9561920166015625
112 176 0.12478414922952652
112 177 0.14388862252235413
112 178 0.3250063359737396
112 179 0.3709467947483063
112 180 0.3654743731021881
112 181 0.9593581557273865
112 182 0.9561920166015625
112 183 0.14936624467372894
112 184 0.20607557892799377
112 185 0.9457897543907166
112 186 0.9657047986984253
112 187 0.9599689245223999
112 188 0.1733611673116684
112 189 0.9701467752456665
112 190 0.9626215100288391
112 191 0.07881103456020355
112 192 0.947502851486206
112 193 0.6675634384155273
112 194 0.107996366918087
112 195 0.9658743143081665
112 196 0.17025130987167358
112 197 0.9529055953025818
112 198 0.9669442176818848
112 199 0.13265874981880188
112 200 0.26921766996383667
112 201 0.9688817262649536
112 202 0.9495047926902771
112 203 0.9502266645431519
112 204 0.9566956758499146
112 205 0.9577757716178894
112 206 0.11600670963525772
112 207 0.9551101922988892
112 208 0.4539649486541748
112 209 0.9572359323501587
112 210 0.968442976474762
112 211 0.08512565493583679
112 212 0.30938103795051575
112 213 0.9572359323501587
112 214 0.943016529083252
112 215 0.9583519697189331
112 216 0.9685468673706055
112 217 0.9625520706176758
112 218 0.9604353904724121
112 219 0.9529055953025818
112 220 0.9566956758499146
112 221 0.9588913321495056
112 222 0.9354240894317627
112 223 0.9742662906646729
112 224 0.13650473952293396
112 225 0.9571653008460999
112 226 0.9695438146591187
112 227 0.9550731778144836
112 228 0.12892113626003265
112 229 0.05572781711816788
112 230 0.96744304895401
112 231 0.9642313718795776
112 232 0.96637362241745
112 233 0.951857328414917
112 234 0.15091165900230408
112 235 0.9561551213264465
112 236 0.17025130987167358
112 237 0.9620147347450256
112 238 0.9625520706176758
112 239 0.9684766530990601
112 240 0.9534851908683777
112 241 0.96744304895401
112 242 0.9496084451675415
112 244 0.9582451581954956
112 245 0.07194431126117706
112 246 0.3069249093532562
112 247 0.9598289132118225
112 248 0.9679425954818726
112 249 0.9626576900482178
112 250 0.19094273447990417
112 251 0.12038585543632507
112 252 0.9636949896812439
112 253 0.9424328207969666
112 254 0.9647673964500427
112 255 0.9566956758499146
113 114 0.37272724509239197
113 115 0.07881104201078415
113 116 0.3813437521457672
113 117 0.37372252345085144
113 118 0.3422735929489136
113 119 0.40421369671821594
113 120 0.37783142924308777
113 121 0.37803348898887634
113 122 0.05957554653286934
113 123 0.17084459960460663
113 125 0.3840380311012268
113 126 0.3939804434776306
113 127 0.3981054723262787
113 128 0.3920423090457916
113 129 0.38886380195617676
113 130 0.4059227406978607
113 131 0.3986446261405945
113 132 0.3933592140674591
113 133 0.3616763949394226
113 134 0.34890732169151306
113 135 0.3755342662334442
113 136 0.37963196635246277
113 138 0.3775131404399872
113 139 0.3977982699871063
113 140 0.08412998914718628
113 142 0.3917642831802368
113 143 0.3946716785430908
113 144 0.3908049166202545
113 146 0.38796266913414
113 147 0.08492927998304367
113 148 0.18813079595565796
113 149 0.3407634496688843
113 150 0.16835670173168182
113 151 0.3597758114337921
113 152 0.3637652099132538
113 153 0.4033701717853546
113 154 0.3872350752353668
113 155 0.40661293268203735
113 157 0.39315277338027954
113 158 0.38602685928344727
113 159 0.3743036091327667
113 161 0.4055027663707733
113 163 0.38468748331069946
113 165 0.402079313993454
113 166 0.3782322108745575
113 167 0.39070063829421997
113 168 0.3948778510093689
113 169 0.3917642831802368
113 170 0.4035736322402954
113 171 0.38836491107940674
113 173 0.3948778510093689
113 174 0.3914221227169037
113 175 0.37587425112724304
113 176 0.19304682314395905
113 177 0.05286804959177971
113 178 0.14544129371643066
113 179 0.23977747559547424
113 180 0.19817973673343658
113 181 0.3882506489753723
113 182 0.38865911960601807
113 183 0.05853936821222305
113 184 0.08412998914718628
113 185 0.41415905952453613
113 186 0.3946716785430908
113 187 0.3821398615837097
113 189 0.3784019947052002
113 190 0.38662955164909363
113 192 0.38939517736434937
113 193 0.24619708955287933
113 195 0.37489622831344604
113 197 0.3620601296424866
113 198 0.39981427788734436
113 199 0.05734345316886902
113 200 0.09287970513105392
113 201 0.3786045014858246
113 202 0.3803035616874695
113 203 0.39350083470344543
113 204 0.401655375957489
113 205 0.38845470547676086
113 207 0.40186718106269836
113 208 0.08764393627643585
113 209 0.3835451602935791
113 210 0.3750900328159332
113 211 0.08936331421136856
113 212 0.14544129371643066
113 213 0.3784312307834625
113 214 0.3637652099132538
113 215 0.3699822425842285
113 216 0.3966708481311798
113 217 0.3619482219219208
113 218 0.3725338578224182
113 219 0.37746691703796387
113 220 0.39653873443603516
113 221 0.39019060134887695
113 222 0.35752812027931213
113 223 0.4011061191558838
113 224 0.05572781711816788
113 225 0.3946046829223633
113 226 0.3945499658584595
113 227 0.3946046829223633
113 228 0.05572781711816788
113 230 0.38989341259002686
113 231 0.4012647569179535
113 232 0.3928307890892029
113 233 0.3877381682395935
113 234 0.08401285111904144
113 235 0.38394954800605774
113 236 0.10425720363855362
113 237 0.3927408456802368
113 238 0.39253541827201843
113 239 0.3848298490047455
113 240 0.36917614936828613
113 241 0.39748871326446533
113 242 0.3661862015724182
113 244 0.3762705326080322
113 246 0.09087806195020676
113 247 0.38118883967399597
113 248 0.3976939618587494
113 249 0.3684406280517578
113 250 0.12308217585086823
113 251 0.12637881934642792
113 252 0.38368645310401917
113 253 0.37477004528045654
113 254 0.4035949110984802
113 255 0.38630548119544983
114 116 0.9532406330108643
114 117 0.9397366642951965
114 118 0.9429364800453186
114 119 0.9423081874847412
114 120 0.9049366116523743
114 121 0.9450507164001465
114 122 0.08629488945007324
114 123 0.3591814935207367
114 124 0.05834599956870079
114 125 0.9546637535095215
114 126 0.9423081874847412
114 127 0.9539187550544739
114 128 0.9406198263168335
114 129 0.9454845190048218
114 130 0.959662675857544
114 131 0.940926194190979
114 132 0.946107804775238
114 133 0.9405540823936462
114 134 0.9167041778564453
114 135 0.9292865991592407
114 136 0.9458619952201843
114 138 0.933135449886322
114 139 0.9453012943267822
114 140 0.19895820319652557
114 141 0.08072147518396378
114 142 0.9408033490180969
114 143 0.9600010514259338
114 144 0.9429364800453186
114 146 0.9560176134109497
114 147 0.15816813707351685
114 148 0.4747500717639923
114 149 0.9401795268058777
114 150 0.27483069896698
114 151 0.9472275376319885
114 152 0.9376885890960693
114 153 0.9363458156585693
114 154 0.9573394656181335
114 155 0.9346457719802856
114 156 0.14962178468704224
114 157 0.9572332501411438
114 158 0.9490971565246582
114 159 0.940056324005127
114 161 0.9555231928825378
114 162 0.17269249260425568
114 163 0.9499590396881104
114 164 0.05649326741695404
114 165 0.9401230216026306
114 166 0.9434321522712708
114 167 0.9502130150794983
114 168 0.9489047527313232
114 169 0.9365366101264954
114 170 0.9414893388748169
114 171 0.9528067708015442
114 173 0.9499590396881104
114 174 0.9518371224403381
114 175 0.9492195844650269
114 176 0.15312929451465607
114 177 0.13857175409793854
114 178 0.31363052129745483
114 179 0.40476730465888977
114 180 0.3393841087818146
114 181 0.9450507164001465
114 182 0.9418120980262756
114 183 0.16958799958229065
114 184 0.20393215119838715
114 185 0.9352127909660339
114 186 0.9484093189239502
114 187 0.9478504061698914
114 188 0.1816004514694214
114 189 0.956327497959137
114 190 0.9547897577285767
114 191 0.07989354431629181
114 192 0.9413068294525146
114 193 0.6539214849472046
114 194 0.12632279098033905
114 195 0.9529328346252441
114 196 0.17258977890014648
114 197 0.9394267201423645
114 198 0.9613751173019409
114 199 0.1186595931649208
114 200 0.22678890824317932
114 201 0.950641930103302
114 202 0.9336380958557129
114 203 0.9483768939971924
114 204 0.941249430179596
114 205 0.9476627707481384
114 206 0.11760011315345764
114 207 0.9428050518035889
114 208 0.43526333570480347
114 209 0.9428703188896179
114 210 0.953425407409668
114 211 0.08629488945007324
114 212 0.31996649503707886
114 213 0.9513360857963562
114 214 0.9301612973213196
114 215 0.9472275376319885
114 216 0.9578006863594055
114 217 0.9515107274055481
114 218 0.9451155662536621
114 219 0.9500536918640137
114 220 0.9433669447898865
114 221 0.9456760287284851
114 222 0.9201915264129639
114 223 0.9584155082702637
114 224 0.11531639099121094
114 225 0.9427407383918762
114 226 0.9545996785163879
114 227 0.9416803121566772
114 228 0.13069191575050354
114 229 0.05649326741695404
114 230 0.9545365571975708
114 231 0.9501482248306274
114 232 0.953425407409668
114 233 0.9458028674125671
114 234 0.12516912817955017
114 235 0.9449236989021301
114 236 0.1540980190038681
114 237 0.946731448173523
114 238 0.9451813101768494
114 239 0.9555843472480774
114 240 0.940056324005127
114 241 0.9545365571975708
114 242 0.9413068294525146
114 244 0.9417456984519958
114 245 0.07293249666690826
114 246 0.28036850690841675
114 247 0.946543276309967
114 248 0.958174467086792
114 249 0.9516935348510742
114 250 0.19356541335582733
114 251 0.06101970002055168
114 252 0.9516935348510742
114 253 0.9295274019241333
114 254 0.9517562389373779
114 255 0.9444257020950317
115 122 0.37796446681022644
115 123 0.08671099692583084
115 179 0.0800640806555748
115 191 0.40824827551841736
116 117 0.9526212215423584
116 118 0.954532265663147
116 119 0.952898383140564
116 120 0.921317994594574
116 121 0.9566232562065125
116 122 0.08534681797027588
116 123 0.3524382412433624
116 124 0.07213123142719269
116 125 0.966926634311676
116 126 0.9549926519393921
116 127 0.9641962647438049
116 128 0.9554569721221924
116 129 0.952898383140564
116 130 0.9615805149078369
116 131 0.9484845995903015
116 132 0.9555777311325073
116 133 0.9512190222740173
116 134 0.921779453754425
116 135 0.9455786347389221
116 136 0.9533188343048096
116 138 0.944050669670105
116 139 0.9517232179641724
116 140 0.1721758097410202
116 141 0.0912395790219307
116 142 0.9473465085029602
116 143 0.96196049451828
116 144 0.9555777311325073
116 145 0.055872607976198196
116 146 0.963158369064331
116 147 0.17381158471107483
116 148 0.5352690815925598
116 149 0.9456999897956848
116 150 0.2641546428203583
116 151 0.9566643834114075
116 152 0.9380218982696533
116 153 0.9472257494926453
116 154 0.9614202976226807
116 155 0.9434585571289062
116 156 0.1547042578458786
116 157 0.9571661949157715
116 158 0.9625784754753113
116 159 0.9507155418395996
116 161 0.9626602530479431
116 162 0.15312674641609192
116 163 0.9582920074462891
116 164 0.055872607976198196
116 165 0.9528558850288391
116 166 0.9571260213851929
116 167 0.962618887424469
116 168 0.9614202976226807
116 169 0.9462915062904358
116 170 0.9532406330108643
116 171 0.9651960134506226
116 173 0.9582920074462891
116 174 0.9581340551376343
116 175 0.9555364847183228
116 176 0.14486229419708252
116 177 0.14426246285438538
116 178 0.3258507251739502
116 179 0.38482409715652466
116 180 0.3692210018634796
116 181 0.9566232562065125
116 182 0.9534433484077454
116 183 0.1737149953842163
116 184 0.2016916573047638
116 185 0.9429495334625244
116 186 0.9577916860580444
116 187 0.9593347311019897
116 188 0.17960530519485474
116 189 0.9675045013427734
116 190 0.959916889667511
116 191 0.07901579141616821
116 192 0.9478535056114197
116 193 0.6723059415817261
116 194 0.12493494898080826
116 195 0.9631996750831604
116 196 0.17069363594055176
116 197 0.9543302655220032
116 198 0.9642777442932129
116 199 0.13300341367721558
116 200 0.2661154568195343
116 201 0.9630786776542664
116 202 0.9456181526184082
116 203 0.9484845995903015
116 204 0.9539455771446228
116 205 0.9571260213851929
116 206 0.11630810797214508
116 207 0.9544485807418823
116 208 0.44617602229118347
116 209 0.9534433484077454
116 210 0.9647349715232849
116 211 0.07315441220998764
116 212 0.31645119190216064
116 213 0.9555364847183228
116 214 0.9465301036834717
116 215 0.9577087163925171
116 216 0.966926634311676
116 217 0.9640095829963684
116 218 0.9566643834114075
116 219 0.9501261711120605
116 220 0.9570869207382202
116 221 0.9613826274871826
116 222 0.9325134754180908
116 223 0.9706021547317505
116 224 0.11404947936534882
116 225 0.9533593654632568
116 226 0.9658514261245728
116 227 0.9575545787811279
116 228 0.12925608456134796
116 229 0.055872607976198196
116 230 0.9637388586997986
116 231 0.9615389704704285
116 232 0.9626602530479431
116 233 0.9490751624107361
116 234 0.1306714117527008
116 235 0.9554962515830994
116 236 0.15850122272968292
116 237 0.959294855594635
116 238 0.9577497839927673
116 239 0.9668476581573486
116 240 0.9591103792190552
116 241 0.9637388586997986
116 242 0.9457424283027649
116 244 0.9523531198501587
116 245 0.07213123142719269
116 246 0.29081448912620544
116 247 0.9570869207382202
116 248 0.9631996750831604
116 249 0.96099853515625
116 250 0.18640093505382538
116 251 0.09483464062213898
116 252 0.96099853515625
116 253 0.9395550489425659
116 254 0.9631180763244629
116 255 0.9539455771446228
117 118 0.9422745704650879
117 119 0.9405779838562012
117 120 0.9073530435562134
117 121 0.9465143084526062
117 122 0.061803802847862244
117 123 0.3573048412799835
117 124 0.07312723994255066
117 125 0.9540676474571228
117 126 0.9437627792358398
117 127 0.9491004347801208
117 128 0.9410049319267273
117 129 0.9427012205123901
117 130 0.9474865198135376
117 131 0.9327661991119385
117 132 0.9433345198631287
117 133 0.9388079643249512
117 134 0.9180551171302795
117 135 0.9285438656806946
117 136 0.9430655837059021
117 138 0.9302623271942139
117 139 0.9393056035041809
117 140 0.18452773988246918
117 141 0.09249944984912872
117 142 0.936898410320282
117 143 0.9446021914482117
117 144 0.9443944096565247
117 145 0.05664411932229996
117 146 0.9501526951789856
117 147 0.17033793032169342
117 148 0.5274277329444885
117 149 0.9373338222503662
117 150 0.24451503157615662
117 151 0.942345142364502
117 152 0.9337232708930969
117 153 0.9291893839836121
117 154 0.9514385461807251
117 155 0.9339174032211304
117 156 0.14320215582847595
117 157 0.9449581503868103
117 158 0.9495237469673157
117 159 0.9393749237060547
117 161 0.9496612548828125
117 162 0.1671828031539917
117 163 0.9461527466773987
117 164 0.05664411932229996
117 165 0.943696141242981
117 166 0.9448908567428589
117 167 0.9485392570495605
117 168 0.9461527466773987
117 169 0.9347593188285828
117 170 0.9354699850082397
117 171 0.9500844478607178
117 173 0.9482670426368713
117 174 0.9437627792358398
117 175 0.943265974521637
117 176 0.15353819727897644
117 177 0.14625447988510132
117 178 0.3081150949001312
117 179 0.39275628328323364
117 180 0.3629763722419739
117 181 0.9401547312736511
117 182 0.9411438703536987
117 183 0.16396793723106384
117 184 0.2094639390707016
117 185 0.9280428886413574
117 186 0.9435456395149231
117 187 0.9493242502212524
117 188 0.1762116402387619
117 189 0.9536470770835876
117 190 0.9467841982841492
117 191 0.0667557343840599
117 192 0.9331194162368774
117 193 0.6648164391517639
117 194 0.11821608990430832
117 195 0.9523239135742188
117 196 0.1730506420135498
117 197 0.9440662264823914
117 198 0.9523917436599731
117 199 0.1348399668931961
117 200 0.26979005336761475
117 201 0.9521259069442749
117 202 0.9372046589851379
117 203 0.9338334798812866
117 204 0.938454806804657
117 205 0.9427698850631714
117 206 0.11791413277387619
117 207 0.940011739730835
117 208 0.4546099901199341
117 209 0.9411438703536987
117 210 0.9528161883354187
117 211 0.07416456192731857
117 212 0.3239973187446594
117 213 0.9453880190849304
117 214 0.9455834627151489
117 215 0.9455216526985168
117 216 0.9551160931587219
117 217 0.9519360065460205
117 218 0.9455216526985168
117 219 0.9387385249137878
117 220 0.9427012205123901
117 221 0.9450265169143677
117 222 0.9215657114982605
117 223 0.9546938538551331
117 224 0.1156243085861206
117 225 0.9410049319267273
117 226 0.9540001749992371
117 227 0.9399416446685791
117 228 0.12333259731531143
117 229 0.05664411932229996
117 230 0.9518324136734009
117 231 0.9484699368476868
117 232 0.9580746293067932
117 233 0.9376729726791382
117 234 0.13247577846050262
117 235 0.9410738945007324
117 236 0.14214874804019928
117 237 0.9513760209083557
117 238 0.9487628936767578
117 239 0.9581359624862671
117 240 0.9436303377151489
117 241 0.9518324136734009
117 242 0.93632972240448
117 244 0.9389495849609375
117 245 0.05850179120898247
117 246 0.28797367215156555
117 247 0.948009192943573
117 248 0.9502216577529907
117 249 0.947908341884613
117 250 0.17875997722148895
117 251 0.10488452017307281
117 252 0.9500170946121216
117 253 0.9276896119117737
117 254 0.9490311145782471
117 255 0.948009192943573
118 119 0.9479233026504517
118 120 0.9014191627502441
118 121 0.9537815451622009
118 122 0.08574929088354111
118 123 0.359720915555954
118 124 0.07247138023376465
118 125 0.9673303365707397
118 126 0.9521316289901733
118 127 0.9604009985923767
118 128 0.9504789710044861
118 129 0.9521316289901733
118 130 0.9567252397537231
118 131 0.9444961547851562
118 132 0.9558823704719543
118 133 0.953594982624054
118 134 0.9326483607292175
118 135 0.942582368850708
118 136 0.9462109208106995
118 138 0.9431858658790588
118 139 0.9446017146110535
118 140 0.20758530497550964
118 141 0.08021111786365509
118 142 0.9433345198631287
118 143 0.9528842568397522
118 144 0.9569328427314758
118 145 0.05613608658313751
118 146 0.9604009985923767
118 147 0.1513470709323883
118 148 0.5434542894363403
118 149 0.9427282810211182
118 150 0.2307828962802887
118 151 0.9559292197227478
118 152 0.9349657297134399
118 153 0.937869131565094
118 154 0.9544297456741333
118 155 0.9383220672607422
118 156 0.13515982031822205
118 157 0.9553806781768799
118 158 0.9556293487548828
118 159 0.9541445970535278
118 161 0.9578197598457336
118 162 0.17160063982009888
118 163 0.9544297456741333
118 164 0.05613608658313751
118 165 0.9510301947593689
118 166 0.9605886936187744
118 167 0.9577685594558716
118 168 0.9544297456741333
118 169 0.9443944096565247
118 170 0.9429364800453186
118 171 0.9593090415000916
118 173 0.9554774165153503
118 174 0.9542357921600342
118 175 0.953733503818512
118 176 0.1323140412569046
118 177 0.13769562542438507
118 178 0.30849966406822205
118 179 0.35809507966041565
118 180 0.3400487005710602
118 181 0.9600840210914612
118 182 0.9526818990707397
118 183 0.15046051144599915
118 184 0.212527796626091
118 185 0.9378158450126648
118 186 0.9560256600379944
118 187 0.9544297456741333
118 188 0.15716812014579773
118 189 0.9679173231124878
118 190 0.9571213722229004
118 191 0.07938841730356216
118 192 0.9459604024887085
118 193 0.6633872389793396
118 194 0.10878756642341614
118 195 0.9677419066429138
118 196 0.17149858176708221
118 197 0.955662727355957
118 198 0.9605000019073486
118 199 0.13363061845302582
118 200 0.2597312331199646
118 201 0.9655303359031677
118 202 0.9415661096572876
118 203 0.9444961547851562
118 204 0.9510795474052429
118 205 0.9563847780227661
118 206 0.08988969027996063
118 207 0.9473704695701599
118 208 0.4505327045917511
118 209 0.9526818990707397
118 210 0.9599042534828186
118 211 0.08574929088354111
118 212 0.30535170435905457
118 213 0.953733503818512
118 214 0.9349657297134399
118 215 0.9559292197227478
118 216 0.9610961675643921
118 217 0.9549288153648376
118 218 0.9580277800559998
118 219 0.9451029300689697
118 220 0.9489754438400269
118 221 0.9543797969818115
118 222 0.9326182007789612
118 223 0.9637675881385803
118 224 0.1298656165599823
118 225 0.9473177194595337
118 226 0.9641656279563904
118 227 0.9546939134597778
118 228 0.1298656165599823
118 229 0.05613608658313751
118 230 0.9599543213844299
118 231 0.9556293487548828
118 232 0.9619887471199036
118 233 0.948270857334137
118 234 0.13128761947155
118 235 0.9536862969398499
118 236 0.16537363827228546
118 237 0.9533310532569885
118 238 0.9580734372138977
118 239 0.964119017124176
118 240 0.9551988840103149
118 241 0.9599543213844299
118 242 0.9417184591293335
118 244 0.9536862969398499
118 246 0.29558342695236206
118 247 0.9500274658203125
118 248 0.9614917039871216
118 249 0.9603056311607361
118 250 0.1974032074213028
118 251 0.11260582506656647
118 252 0.9582157731056213
118 253 0.9354235529899597
118 254 0.9582651853561401
118 255 0.9573919773101807
119 120 0.9149836897850037
119 121 0.9500274658203125
119 122 0.07361546903848648
119 123 0.33495619893074036
119 124 0.07258584350347519
119 125 0.9594920873641968
119 126 0.9483667016029358
119 127 0.9566956758499146
119 128 0.955146312713623
119 129 0.950474202632904
119 130 0.961371123790741
119 131 0.9417504668235779
119 132 0.9479233026504517
119 133 0.9466487765312195
119 134 0.913435697555542
119 135 0.9355369806289673
119 136 0.9455922842025757
119 138 0.9414804577827454
119 139 0.9482077360153198
119 140 0.20791314542293549
119 141 0.09181462973356247
119 142 0.9448243975639343
119 143 0.9512428641319275
119 144 0.9479233026504517
119 145 0.056224748492240906
119 146 0.9556512236595154
119 147 0.16324657201766968
119 148 0.5291928052902222
119 149 0.9389006495475769
119 150 0.2696719467639923
119 151 0.9500820636749268
119 152 0.9321614503860474
119 153 0.9372203946113586
119 154 0.9517398476600647
119 155 0.9366037249565125
119 156 0.14214195311069489
119 157 0.9505804181098938
119 158 0.9560925364494324
119 159 0.9472037553787231
119 161 0.9603763222694397
119 162 0.15409183502197266
119 163 0.9517398476600647
119 164 0.056224748492240906
119 165 0.9493675827980042
119 166 0.9494742751121521
119 167 0.9582362174987793
119 168 0.9580357670783997
119 169 0.9395163655281067
119 170 0.9486607909202576
119 171 0.9576875567436218
119 173 0.9506904482841492
119 174 0.954689085483551
119 175 0.9478674530982971
119 176 0.14577530324459076
119 177 0.14517168700695038
119 178 0.29637518525123596
119 179 0.39244747161865234
119 180 0.3602890372276306
119 181 0.9521316289901733
119 182 0.9499738216400146
119 183 0.16878192126750946
119 184 0.20296283066272736
119 185 0.9435617327690125
119 186 0.9554380178451538
119 187 0.9569864869117737
119 188 0.16324657201766968
119 189 0.9611335396766663
119 190 0.9533945918083191
119 191 0.05300920084118843
119 192 0.9389570951461792
119 193 0.6523268222808838
119 194 0.11734087020158768
119 195 0.9588368535041809
119 196 0.15950019657611847
119 197 0.9434226155281067
119 198 0.9609746932983398
119 199 0.13384167850017548
119 200 0.267792671918869
119 201 0.9534496068954468
119 202 0.9409219026565552
119 203 0.9438691139221191
119 204 0.9483667016029358
119 205 0.9505268931388855
119 206 0.10803797841072083
119 207 0.9478124976158142
119 208 0.446731835603714
119 209 0.9478674530982971
119 210 0.9614202976226807
119 211 0.08588472008705139
119 212 0.3184456527233124
119 213 0.9499738216400146
119 214 0.938582718372345
119 215 0.9521840214729309
119 216 0.9636547565460205
119 217 0.9522374272346497
119 218 0.9500820636749268
119 219 0.9434226155281067
119 220 0.9483667016029358
119 221 0.9506349563598633
119 222 0.9297915101051331
119 223 0.9642506837844849
119 224 0.1300707310438156
119 225 0.9456475973129272
119 226 0.960479736328125
119 227 0.9456475973129272
119 228 0.1300707310438156
119 229 0.056224748492240906
119 230 0.9593847990036011
119 231 0.9560925364494324
119 232 0.9582886099815369
119 233 0.944480299949646
119 234 0.15225733816623688
119 235 0.9499210119247437
119 236 0.16563481092453003
119 237 0.9537862539291382
119 238 0.9543371796607971
119 239 0.9572991728782654
119 240 0.9440358877182007
119 241 0.9583419561386108
119 242 0.9400192499160767
119 244 0.9478124976158142
119 245 0.07258584350347519
119 246 0.3028559982776642
119 247 0.9483667016029358
119 248 0.9588368535041809
119 249 0.9544962048530579
119 250 0.1926453709602356
119 251 0.12145934253931046
119 252 0.9555427432060242
119 253 0.9326130151748657
119 254 0.9576875567436218
119 255 0.9462592005729675
120 121 0.9091330170631409
120 122 0.08995824307203293
120 123 0.3361019194126129
120 124 0.06082287058234215
120 125 0.9156190156936646
120 126 0.9083613157272339
120 127 0.9156486392021179
120 128 0.9186443090438843
120 129 0.8995316028594971
120 130 0.9150283336639404
120 131 0.8954321146011353
120 132 0.9014191627502441
120 133 0.9030173420906067
120 134 0.8723735809326172
120 135 0.899461030960083
120 136 0.91408371925354
120 138 0.9058162569999695
120 139 0.9123538136482239
120 140 0.202219158411026
120 141 0.08414822816848755
120 142 0.9062411189079285
120 143 0.9073800444602966
120 144 0.9102349877357483
120 146 0.9112728238105774
120 147 0.14045555889606476
120 148 0.500842809677124
120 149 0.898788571357727
120 150 0.27439215779304504
120 151 0.902675449848175
120 152 0.8911794424057007
120 153 0.8980075716972351
120 154 0.9144485592842102
120 155 0.9005783796310425
120 156 0.12761464715003967
120 157 0.9119600653648376
120 158 0.9104997515678406
120 159 0.9091757535934448
120 161 0.9173617959022522
120 162 0.14898499846458435
120 163 0.9067549109458923
120 165 0.9049006104469299
120 166 0.9140211343765259
120 167 0.9128392934799194
120 168 0.9100522398948669
120 169 0.898457407951355
120 170 0.9071545600891113
120 171 0.924263596534729
120 173 0.9111512899398804
120 174 0.9182947874069214
120 175 0.9056769013404846
120 176 0.1457490175962448
120 177 0.1216457411646843
120 178 0.2873149812221527
120 179 0.375671923160553
120 180 0.35673975944519043
120 181 0.9080310463905334
120 182 0.9056769013404846
120 183 0.17678725719451904
120 184 0.18666385114192963
120 185 0.8933919668197632
120 186 0.9095771312713623
120 187 0.9221422672271729
120 188 0.12824203073978424
120 189 0.9174758195877075
120 190 0.9130186438560486
120 191 0.0832851454615593
120 192 0.8978257179260254
120 193 0.6087573766708374
120 194 0.10534830391407013
120 195 0.9201664328575134
120 196 0.1349373608827591
120 197 0.9072989821434021
120 198 0.9192172884941101
120 199 0.14018979668617249
120 200 0.24443058669567108
120 201 0.9142615795135498
120 202 0.8940266966819763
120 203 0.9020895957946777
120 204 0.900635302066803
120 205 0.9085083603858948
120 206 0.12259241193532944
120 207 0.9055274128913879
120 208 0.4348350763320923
120 209 0.9056769013404846
120 210 0.9151749610900879
120 211 0.08995824307203293
120 212 0.30382734537124634
120 213 0.9023674726486206
120 214 0.9169619679450989
120 215 0.9048770666122437
120 216 0.9199791550636292
120 217 0.9204250574111938
120 218 0.9092803597450256
120 219 0.9039754867553711
120 220 0.907257616519928
120 221 0.9099043607711792
120 222 0.8815689086914062
120 223 0.9240058660507202
120 224 0.09616940468549728
120 225 0.9197497963905334
120 226 0.9176526069641113
120 227 0.9109060764312744
120 228 0.07212705910205841
120 229 0.05889149382710457
120 230 0.9196915030479431
120 231 0.9159780740737915
120 232 0.9162684082984924
120 233 0.8995442390441895
120 234 0.13773179054260254
120 235 0.9121532440185547
120 236 0.15421412885189056
120 237 0.9143053889274597
120 238 0.9116277098655701
120 239 0.9175069332122803
120 240 0.9069636464118958
120 241 0.9142300486564636
120 242 0.9100637435913086
120 244 0.911048948764801
120 245 0.07602858543395996
120 246 0.29227057099342346
120 247 0.9160873889923096
120 248 0.9168878793716431
120 249 0.9109728336334229
120 250 0.1752322018146515
120 251 0.09087155014276505
120 252 0.9142615795135498
120 253 0.8926360011100769
120 254 0.920978307723999
120 255 0.9171910881996155
121 122 0.0612494982779026
121 123 0.3512899577617645
121 124 0.07247138023376465
121 125 0.9631742238998413
121 126 0.9510795474052429
121 127 0.9645721316337585
121 128 0.9473177194595337
121 129 0.9542357921600342
121 130 0.9577685594558716
121 131 0.9434384107589722
121 132 0.950630247592926
121 133 0.9493755102157593
121 134 0.9293873310089111
121 135 0.9351268410682678
121 136 0.954649806022644
121 138 0.938932478427887
121 139 0.9498788118362427
121 140 0.17793025076389313
121 141 0.09166985005140305
121 142 0.9422745704650879
121 143 0.953931450843811
121 144 0.9527311325073242
121 146 0.9572726488113403
121 147 0.1513470709323883
121 148 0.5340193510055542
121 149 0.9406049847602844
121 150 0.2577075660228729
121 151 0.9538305401802063
121 152 0.9403083920478821
121 153 0.9410591721534729
121 154 0.9575726985931396
121 155 0.9447124600410461
121 156 0.12164383381605148
121 157 0.9564306139945984
121 158 0.9556293487548828
121 159 0.9457101225852966
121 161 0.9619887471199036
121 162 0.16568337380886078
121 163 0.9533820152282715
121 164 0.05613608658313751
121 165 0.9499769806861877
121 166 0.9553338289260864
121 167 0.9588118195533752
121 168 0.9586203694343567
121 169 0.9433345198631287
121 170 0.9450507164001465
121 171 0.9582651853561401
121 173 0.9554774165153503
121 174 0.9489754438400269
121 175 0.9516304135322571
121 176 0.15877683460712433
121 177 0.13769562542438507
121 178 0.3147955536842346
121 179 0.38404396176338196
121 180 0.3400487005710602
121 181 0.9558823704719543
121 182 0.9526818990707397
121 183 0.15647892653942108
121 184 0.20758530497550964
121 185 0.9410093426704407
121 186 0.9549785256385803
121 187 0.9544297456741333
121 188 0.18045228719711304
121 189 0.9668799042701721
121 190 0.9623515605926514
121 191 0.0661570206284523
121 192 0.9417184591293335
121 193 0.6528093218803406
121 194 0.11715584248304367
121 195 0.9635751247406006
121 196 0.16537363827228546
121 197 0.9493268728256226
121 198 0.9615405797958374
121 199 0.13363061845302582
121 200 0.255911648273468
121 201 0.9561258554458618
121 202 0.9436939358711243
121 203 0.9434384107589722
121 204 0.9510795474052429
121 205 0.9500789642333984
121 206 0.08988969027996063
121 207 0.9473704695701599
121 208 0.4617960453033447
121 209 0.9547849893569946
121 210 0.9609465003013611
121 211 0.07349938899278641
121 212 0.3210914731025696
121 213 0.9568880200386047
121 214 0.9392398595809937
121 215 0.9548798203468323
121 216 0.9621351957321167
121 217 0.9591216444969177
121 218 0.9548798203468323
121 219 0.9461588859558105
121 220 0.953183650970459
121 221 0.9512335062026978
121 222 0.9283254146575928
121 223 0.9627301692962646
121 224 0.12222646176815033
121 225 0.9515327215194702
121 226 0.9631255269050598
121 227 0.9568014144897461
121 228 0.11458730697631836
121 229 0.05613608658313751
121 230 0.9599543213844299
121 231 0.956673800945282
121 232 0.9619887471199036
121 233 0.9472148418426514
121 234 0.13819749653339386
121 235 0.9515810608863831
121 236 0.14699877798557281
121 237 0.9575261473655701
121 238 0.9538805484771729
121 239 0.9630778431892395
121 240 0.9478187561035156
121 241 0.9609954953193665
121 242 0.9533838629722595
121 244 0.9484230875968933
121 245 0.07247138023376465
121 246 0.28199338912963867
121 247 0.9521316289901733
121 248 0.9614917039871216
121 249 0.957170844078064
121 250 0.20246483385562897
121 251 0.11260582506656647
121 252 0.9550809264183044
121 253 0.9343532919883728
121 254 0.9603528380393982
121 255 0.9510795474052429
122 123 0.13109470903873444
122 125 0.08481889218091965
122 126 0.07361546903848648
122 127 0.07296484708786011
122 128 0.08602079749107361
122 129 0.061346229165792465
122 130 0.08516974747180939
122 131 0.08634082973003387
122 132 0.07349938899278641
122 133 0.08611186593770981
122 134 0.07605912536382675
122 135 0.06210342049598694
122 136 0.08611186593770981
122 138 0.08680428564548492
122 139 0.08615751564502716
122 142 0.07416456192731857
122 143 0.08548034727573395
122 144 0.08574929088354111
122 146 0.08512565493583679
122 149 0.06190319359302521
122 151 0.08565936237573624
122 152 0.07476671785116196
122 153 0.08680428564548492
122 154 0.08552499115467072
122 155 0.07452409714460373
122 157 0.07346081733703613
122 158 0.08525814861059189
122 159 0.07377111166715622
122 161 0.07292710244655609
122 162 0.0690065547823906
122 163 0.08552499115467072
122 165 0.0736931711435318
122 166 0.06128169223666191
122 167 0.0730026438832283
122 168 0.08552499115467072
122 169 0.0865253210067749
122 170 0.07396704703569412
122 171 0.060867082327604294
122 173 0.08552499115467072
122 174 0.08588472008705139
122 175 0.08583950251340866
122 180 0.13109470903873444
122 181 0.08574929088354111
122 182 0.07357671856880188
122 184 0.05763904005289078
122 185 0.08689787238836288
122 186 0.08548034727573395
122 187 0.06108928471803665
122 189 0.060491736978292465
122 190 0.08539125323295593
122 191 0.15430335700511932
122 192 0.08657162636518478
122 195 0.08503766357898712
122 196 0.1428571492433548
122 197 0.08620323240756989
122 198 0.08494995534420013
122 201 0.0853024423122406
122 202 0.0744437426328659
122 203 0.07400642335414886
122 204 0.07361546903848648
122 205 0.0857943668961525
122 207 0.06137857586145401
122 209 0.07357671856880188
122 210 0.06077259033918381
122 212 0.07342231273651123
122 213 0.07357671856880188
122 214 0.07476671785116196
122 215 0.08565936237573624
122 216 0.08481889218091965
122 217 0.07334546744823456
122 218 0.07342230528593063
122 219 0.08620323240756989
122 221 0.08561450242996216
122 222 0.08760957419872284
122 223 0.08468843251466751
122 225 0.08602079749107361
122 226 0.0849061980843544
122 227 0.08602079749107361
122 230 0.08499377965927124
122 231 0.06089867651462555
122 232 0.08508162200450897
122 233 0.08620323240756989
122 234 0.08058229088783264
122 235 0.06137857586145401
122 236 0.0714285746216774
122 237 0.0733838602900505
122 238 0.08556970953941345
122 239 0.08499377965927124
122 240 0.08606629818677902
122 241 0.08499377965927124
122 242 0.08657162636518478
122 244 0.0859300047159195
122 247 0.08588472008705139
122 248 0.08503766357898712
122 249 0.060930319130420685
122 252 0.07311637699604034
122 254 0.08521391451358795
122 255 0.08588472008705139
123 125 0.3502581715583801
123 126 0.35184475779533386
123 127 0.36826422810554504
123 128 0.36085987091064453
123 129 0.3546595275402069
123 130 0.36566367745399475
123 131 0.348053902387619
123 132 0.3512899577617645
123 133 0.3471309244632721
123 134 0.3664323687553406
123 135 0.3134450316429138
123 136 0.35277530550956726
123 138 0.3613017201423645
123 139 0.3642571270465851
123 140 0.14545634388923645
123 142 0.3431260883808136
123 143 0.3445851504802704
123 144 0.3681519031524658
123 145 0.050062619149684906
123 146 0.3626844882965088
123 147 0.06229501962661743
123 148 0.22213442623615265
123 149 0.3408375680446625
123 150 0.18523265421390533
123 151 0.3677658140659332
123 152 0.3516295552253723
123 153 0.3641466200351715
123 154 0.35597699880599976
123 155 0.35618752241134644
123 157 0.35953211784362793
123 158 0.3408952057361603
123 159 0.3695129156112671
123 161 0.3569200336933136
123 162 0.07915595173835754
123 163 0.3587799668312073
123 165 0.355033814907074
123 166 0.348662793636322
123 167 0.33216774463653564
123 168 0.3363562226295471
123 169 0.3573048412799835
123 170 0.3280712962150574
123 171 0.3574749827384949
123 173 0.3643859028816223
123 174 0.36310380697250366
123 175 0.362912654876709
123 176 0.05309942364692688
123 178 0.14317598938941956
123 179 0.2152155339717865
123 180 0.08270677179098129
123 181 0.3512899577617645
123 182 0.35165953636169434
123 183 0.06440731137990952
123 184 0.11900973320007324
123 185 0.34175553917884827
123 186 0.36419570446014404
123 187 0.3363562226295471
123 189 0.3413928151130676
123 190 0.3610175549983978
123 192 0.35749608278274536
123 193 0.2142748236656189
123 194 0.0671660527586937
123 195 0.3511616289615631
123 196 0.09832102805376053
123 197 0.3672756254673004
123 198 0.36472007632255554
123 200 0.09197090566158295
123 201 0.3550507128238678
123 202 0.35011065006256104
123 203 0.34239450097084045
123 204 0.3377709686756134
123 205 0.3402274250984192
123 207 0.32950034737586975
123 208 0.12656345963478088
123 209 0.354472815990448
123 210 0.33740097284317017
123 211 0.06554735451936722
123 212 0.13475386798381805
123 213 0.354472815990448
123 214 0.33447688817977905
123 215 0.3256551921367645
123 216 0.3446985185146332
123 217 0.34774985909461975
123 218 0.34811416268348694
123 219 0.34184885025024414
123 220 0.3490300178527832
123 221 0.36196136474609375
123 222 0.35029712319374084
123 223 0.36359724402427673
123 224 0.0613139308989048
123 225 0.36085987091064453
123 226 0.3645321726799011
123 227 0.36367908120155334
123 230 0.35933706164360046
123 231 0.3492778539657593
123 232 0.3708621859550476
123 233 0.35032445192337036
123 234 0.09243423491716385
123 235 0.3182353675365448
123 236 0.11470786482095718
123 237 0.3507377505302429
123 238 0.34774985909461975
123 239 0.35933706164360046
123 240 0.3666921854019165
123 241 0.35376593470573425
123 242 0.366007924079895
123 244 0.33794906735420227
123 246 0.15452629327774048
123 247 0.326511949300766
123 248 0.3539486229419708
123 249 0.3466636836528778
123 250 0.10833586007356644
123 251 0.09269795566797256
123 252 0.35784637928009033
123 253 0.32929667830467224
123 254 0.3602677583694458
123 255 0.35747426748275757
124 125 0.07168504595756531
124 126 0.07258584350347519
124 127 0.07194431126117706
124 129 0.07258584350347519
124 130 0.05758525803685188
124 131 0.07297132164239883
124 132 0.07247138023376465
124 133 0.07277781516313553
124 134 0.07499531656503677
124 135 0.07348175346851349
124 136 0.07277781516313553
124 139 0.05825311318039894
124 141 0.3162277638912201
124 142 0.05850179120898247
124 143 0.05779526010155678
124 144 0.07247138023376465
124 146 0.07194431126117706
124 147 0.08032193034887314
124 149 0.0732448473572731
124 150 0.053074490278959274
124 151 0.057916298508644104
124 152 0.07372097671031952
124 153 0.05869041010737419
124 154 0.05782545357942581
124 156 0.09325047582387924
124 157 0.05794667825102806
124 158 0.05764502286911011
124 159 0.07273929566144943
124 161 0.05752567946910858
124 162 0.3265986144542694
124 163 0.07228181511163712
124 165 0.05812995508313179
124 166 0.07250947505235672
124 167 0.05758525803685188
124 168 0.07228181511163712
124 170 0.05834599956870079
124 171 0.07201889902353287
124 173 0.05782545357942581
124 174 0.05806867033243179
124 175 0.07254762947559357
124 181 0.0579771026968956
124 182 0.07254762947559357
124 183 0.08304548263549805
124 184 0.06819943338632584
124 185 0.058753687888383865
124 187 0.07228181511163712
124 189 0.07157479226589203
124 190 0.07216878235340118
124 192 0.05853310227394104
124 195 0.07186995446681976
124 197 0.07285503298044205
124 198 0.07179581373929977
124 199 0.10846523195505142
124 200 0.05270462855696678
124 201 0.07209372520446777
124 202 0.0734025239944458
124 203 0.07297132164239883
124 204 0.07258584350347519
124 205 0.07250947505235672
124 208 0.09325046837329865
124 209 0.07254762947559357
124 210 0.07190710306167603
124 213 0.07254762947559357
124 214 0.07372097671031952
124 215 0.07239537686109543
124 216 0.07168504595756531
124 217 0.07231960445642471
124 218 0.057916298508644104
124 219 0.05828402563929558
124 220 0.07258584350347519
124 221 0.05788596719503403
124 223 0.057259831577539444
124 225 0.05816067382693291
124 226 0.057407066226005554
124 227 0.07270084321498871
124 230 0.07183285802602768
124 231 0.07205627858638763
124 232 0.07190710306167603
124 235 0.07262410968542099
124 237 0.07235746085643768
124 238 0.07231960445642471
124 239 0.07183285802602768
124 240 0.07273929566144943
124 241 0.07183285802602768
124 242 0.05853310227394104
124 244 0.07262410968542099
124 246 0.09376144409179688
124 247 0.07258584350347519
124 248 0.07186995446681976
124 249 0.05767497792840004
124 251 0.11952286213636398
124 252 0.05767497792840004
124 254 0.057615119963884354
124 255 0.07258584350347519
125 126 0.9615734219551086
125 127 0.9695783257484436
125 128 0.9578853249549866
125 129 0.9605327844619751
125 130 0.9690485596656799
125 131 0.9593567252159119
125 132 0.9621351957321167
125 133 0.9672468304634094
125 134 0.9300553798675537
125 135 0.9544787406921387
125 136 0.9578561186790466
125 138 0.9487292170524597
125 139 0.9573199152946472
125 140 0.2004440724849701
125 141 0.09067521244287491
125 142 0.9540676474571228
125 143 0.9642963409423828
125 144 0.9621351957321167
125 145 0.05552699789404869
125 146 0.9706097841262817
125 147 0.17273645102977753
125 148 0.5431572198867798
125 149 0.9524515867233276
125 150 0.2396927773952484
125 151 0.966315746307373
125 152 0.9459598064422607
125 153 0.9529364109039307
125 154 0.9637637734413147
125 155 0.9481577277183533
125 156 0.1403779685497284
125 157 0.9626687169075012
125 158 0.9700543284416199
125 159 0.9615206122398376
125 161 0.9690768122673035
125 162 0.17559179663658142
125 163 0.9658363461494446
125 164 0.05552699789404869
125 165 0.9594630002975464
125 166 0.9667991995811462
125 167 0.968016505241394
125 168 0.9658363461494446
125 169 0.956164538860321
125 170 0.9546637535095215
125 171 0.9674859046936035
125 173 0.9668726325035095
125 174 0.9594920873641968
125 175 0.9600270390510559
125 176 0.13087840378284454
125 177 0.13620159029960632
125 178 0.33006274700164795
125 179 0.36447659134864807
125 180 0.35859766602516174
125 181 0.9642132520675659
125 182 0.9610671997070312
125 183 0.1369217485189438
125 184 0.21022182703018188
125 185 0.9486991167068481
125 186 0.9653320908546448
125 187 0.9648000597953796
125 188 0.17849433422088623
125 189 0.9789646863937378
125 190 0.966395378112793
125 191 0.07852703332901001
125 192 0.9535292983055115
125 193 0.671136736869812
125 194 0.09932971745729446
125 195 0.974758505821228
125 196 0.1696377843618393
125 197 0.9578278660774231
125 198 0.9706650376319885
125 199 0.13218069076538086
125 200 0.2720256447792053
125 201 0.974692702293396
125 202 0.9481878280639648
125 203 0.9551719427108765
125 204 0.9636547565460205
125 205 0.9657595753669739
125 206 0.10669723153114319
125 207 0.9599980115890503
125 208 0.4567854404449463
125 209 0.9621073603630066
125 210 0.9711386561393738
125 211 0.08481889218091965
125 212 0.3207213580608368
125 213 0.9600270390510559
125 214 0.94807368516922
125 215 0.9632019400596619
125 216 0.972250759601593
125 217 0.9632307291030884
125 218 0.966315746307373
125 219 0.9578278660774231
125 220 0.9594920873641968
125 221 0.9647723436355591
125 222 0.943730354309082
125 223 0.9748600125312805
125 224 0.13601282238960266
125 225 0.9610123038291931
125 226 0.9753091335296631
125 227 0.9610123038291931
125 228 0.13601282238960266
125 229 0.05552699789404869
125 230 0.9711657762527466
125 231 0.9669550657272339
125 232 0.9711386561393738
125 233 0.9557387828826904
125 234 0.14353293180465698
125 235 0.9610392451286316
125 236 0.1696377843618393
125 237 0.9626975655555725
125 238 0.9653044939041138
125 239 0.9701359272003174
125 240 0.9594348669052124
125 241 0.9701359272003174
125 242 0.9514313340187073
125 244 0.9641628861427307
125 245 0.07168504595756531
125 246 0.2957369089126587
125 247 0.962614119052887
125 248 0.9706369042396545
125 249 0.9684910774230957
125 250 0.18524794280529022
125 251 0.11995202302932739
125 252 0.9664239287376404
125 253 0.9464473128318787
125 254 0.9685184359550476
125 255 0.9615734219551086
126 127 0.9556512236595154
126 128 0.9530355334281921
126 129 0.9494203925132751
126 130 0.956146240234375
126 131 0.9449284672737122
126 132 0.9489754438400269
126 133 0.9487618803977966
126 134 0.9177905917167664
126 135 0.9387372732162476
126 136 0.9445357322692871
126 138 0.9393503665924072
126 139 0.9439794421195984
126 140 0.20296283066272736
126 141 0.09181462973356247
126 142 0.9416395425796509
126 143 0.9522916078567505
126 144 0.9573919773101807
126 145 0.056224748492240906
126 146 0.9640066623687744
126 147 0.18073728680610657
126 148 0.544312596321106
126 149 0.9431538581848145
126 150 0.2581145763397217
126 151 0.9511330723762512
126 152 0.9375125169754028
126 153 0.9350903034210205
126 154 0.9538384675979614
126 155 0.9366037249565125
126 156 0.14214195311069489
126 157 0.9484773874282837
126 158 0.9540004730224609
126 159 0.9524836540222168
126 161 0.9562008380889893
126 162 0.1600184440612793
126 163 0.9517398476600647
126 164 0.056224748492240906
126 165 0.952532172203064
126 166 0.9515795111656189
126 167 0.9571912884712219
126 168 0.9538384675979614
126 169 0.9405779838562012
126 170 0.9486607909202576
126 171 0.9597785472869873
126 173 0.9527891278266907
126 174 0.9483667016029358
126 175 0.9499738216400146
126 176 0.14577530324459076
126 177 0.14517168700695038
126 178 0.3184456527233124
126 179 0.3976454734802246
126 180 0.32932671904563904
126 181 0.9489754438400269
126 182 0.9478674530982971
126 183 0.17480984330177307
126 184 0.20296283066272736
126 185 0.9392970204353333
126 186 0.9512428641319275
126 187 0.9559371471405029
126 188 0.17490704357624054
126 189 0.9621725678443909
126 190 0.9533945918083191
126 191 0.0795137956738472
126 192 0.9389570951461792
126 193 0.658380925655365
126 194 0.12572236359119415
126 195 0.9577935338020325
126 196 0.16563481092453003
126 197 0.9455379247665405
126 198 0.9599323868751526
126 199 0.12596863508224487
126 200 0.2601414620876312
126 201 0.9534496068954468
126 202 0.936659574508667
126 203 0.9406911730766296
126 204 0.9494203925132751
126 205 0.9547374248504639
126 206 0.11704114079475403
126 207 0.9488667249679565
126 208 0.44447562098503113
126 209 0.9552397727966309
126 210 0.9593324661254883
126 211 0.07361546903848648
126 212 0.3121398091316223
126 213 0.9531333446502686
126 214 0.9364423155784607
126 215 0.9500820636749268
126 216 0.962614119052887
126 217 0.9511874914169312
126 218 0.9521840214729309
126 219 0.9434226155281067
126 220 0.9483667016029358
126 221 0.95168536901474
126 222 0.9287165403366089
126 223 0.9632115960121155
126 224 0.1300707310438156
126 225 0.9477584362030029
126 226 0.9615214467048645
126 227 0.9498692750930786
126 228 0.11476828902959824
126 230 0.9635560512542725
126 231 0.9560925364494324
126 232 0.9624641537666321
126 233 0.9539991617202759
126 234 0.1453365534543991
126 235 0.9520296454429626
126 236 0.16563481092453003
126 237 0.95168536901474
126 238 0.9522374272346497
126 239 0.9614704251289368
126 240 0.9493157267570496
126 241 0.9572991728782654
126 242 0.937894880771637
126 244 0.9488667249679565
126 245 0.07258584350347519
126 246 0.28584161400794983
126 247 0.950474202632904
126 248 0.956750214099884
126 249 0.9565893411636353
126 250 0.1926453709602356
126 251 0.12145934253931046
126 252 0.9555427432060242
126 253 0.9347569346427917
126 254 0.9566420316696167
126 255 0.950474202632904
127 128 0.9540271162986755
127 129 0.9566956758499146
127 130 0.9653031229972839
127 131 0.9512766003608704
127 132 0.9572726488113403
127 133 0.957131564617157
127 134 0.9323399066925049
127 135 0.944185733795166
127 136 0.9560843706130981
127 138 0.9447711706161499
127 139 0.9576389193534851
127 140 0.20607557892799377
127 141 0.09100314974784851
127 142 0.9491004347801208
127 143 0.9605072736740112
127 144 0.9593581557273865
127 145 0.05572781711816788
127 146 0.9648033380508423
127 147 0.1733611673116684
127 148 0.5376285314559937
127 149 0.9495728015899658
127 150 0.2634701132774353
127 151 0.9625187516212463
127 152 0.9440773129463196
127 153 0.9511048197746277
127 154 0.963089108467102
127 155 0.9505296349525452
127 156 0.14088566601276398
127 157 0.9661503434181213
127 158 0.9631944894790649
127 159 0.9545317888259888
127 161 0.968442976474762
127 162 0.1644783765077591
127 163 0.9610089659690857
127 164 0.05572781711816788
127 165 0.9556143283843994
127 166 0.9588190913200378
127 167 0.964267373085022
127 168 0.9599689245223999
127 169 0.9491004347801208
127 170 0.9518199563026428
127 171 0.9637311697006226
127 173 0.96724933385849
127 174 0.9587845206260681
127 175 0.9561920166015625
127 176 0.1510545015335083
127 177 0.13669419288635254
127 178 0.31875622272491455
127 179 0.38382688164711
127 180 0.35710471868515015
127 181 0.9604009985923767
127 182 0.9572359323501587
127 183 0.16729019582271576
127 184 0.20607557892799377
127 185 0.9457897543907166
127 186 0.9625862836837769
127 187 0.9599689245223999
127 188 0.1791398823261261
127 189 0.9701467752456665
127 190 0.9678136706352234
127 191 0.07881103456020355
127 192 0.9538195133209229
127 193 0.6630630493164062
127 194 0.107996366918087
127 195 0.9689767360687256
127 196 0.16417090594768524
127 197 0.9591953754425049
127 198 0.970043420791626
127 199 0.12485528737306595
127 200 0.26921766996383667
127 201 0.9657697081565857
127 202 0.9495047926902771
127 203 0.9554765224456787
127 204 0.9566956758499146
127 205 0.9567325115203857
127 206 0.11600670963525772
127 207 0.9561551213264465
127 208 0.4562012255191803
127 209 0.9603675007820129
127 210 0.967408299446106
127 211 0.08512565493583679
127 212 0.3312564790248871
127 213 0.9593236446380615
127 214 0.9408950209617615
127 215 0.9614771008491516
127 216 0.9685468673706055
127 217 0.9646332263946533
127 218 0.9593937397003174
127 219 0.9550022482872009
127 220 0.9587845206260681
127 221 0.9599325060844421
127 222 0.9364895224571228
127 223 0.9711766242980957
127 224 0.12892113626003265
127 225 0.9592574834823608
127 226 0.9674786925315857
127 227 0.9561192393302917
127 228 0.13650473952293396
127 229 0.05572781711816788
127 230 0.96744304895401
127 231 0.9642313718795776
127 232 0.96637362241745
127 233 0.9529055953025818
127 234 0.15091165900230408
127 235 0.9572001695632935
127 236 0.16417090594768524
127 237 0.9620147347450256
127 238 0.9615114331245422
127 239 0.96744304895401
127 240 0.9597649574279785
127 241 0.9664095044136047
127 242 0.9538195133209229
127 244 0.9551101922988892
127 246 0.30017930269241333
127 247 0.9577401280403137
127 248 0.9669085144996643
127 249 0.9626576900482178
127 250 0.2060171514749527
127 251 0.12038585543632507
127 252 0.9636949896812439
127 253 0.9381828308105469
127 254 0.9699487686157227
127 255 0.9608733654022217
128 129 0.9477584362030029
128 130 0.9555678963661194
128 131 0.9400595426559448
128 132 0.9462639689445496
128 133 0.9449741244316101
128 134 0.9116114974021912
128 135 0.9359508156776428
128 136 0.9460322856903076
128 138 0.9472389817237854
128 139 0.9422987103462219
128 140 0.1983262449502945
128 141 0.08046507835388184
128 142 0.9388782978057861
128 143 0.9495987296104431
128 144 0.9557477235794067
128 145 0.05631382763385773
128 146 0.9571653008460999
128 147 0.1693446934223175
128 148 0.5357101559638977
128 149 0.9393231868743896
128 150 0.25852349400520325
128 151 0.9515873789787292
128 152 0.9325664043426514
128 153 0.9376385807991028
128 154 0.9490437507629395
128 155 0.934882402420044
128 156 0.14914654195308685
128 157 0.9468205571174622
128 158 0.9523687958717346
128 159 0.9434162974357605
128 161 0.9566702842712402
128 162 0.12465598434209824
128 163 0.9500946998596191
128 164 0.05631382763385773
128 165 0.9540413618087769
128 166 0.9488699436187744
128 167 0.9566145539283752
128 168 0.9511456489562988
128 169 0.9410049319267273
128 170 0.9469825625419617
128 171 0.96339350938797
128 173 0.9542986750602722
128 174 0.9509246349334717
128 175 0.9462046027183533
128 176 0.15264292061328888
128 177 0.14540168642997742
128 178 0.3063185214996338
128 179 0.39567238092422485
128 180 0.36931753158569336
128 181 0.9494251608848572
128 182 0.9451497793197632
128 183 0.17508681118488312
128 184 0.20824256539344788
128 185 0.9397173523902893
128 186 0.9516995549201965
128 187 0.9542986750602722
128 188 0.18102364242076874
128 189 0.9595341682434082
128 190 0.9528064131736755
128 191 0.06636648625135422
128 192 0.9425724148750305
128 193 0.6670036315917969
128 194 0.12592154741287231
128 195 0.9572210311889648
128 196 0.16589725017547607
128 197 0.9449173808097839
128 198 0.9562336802482605
128 199 0.13405373692512512
128 200 0.27588027715682983
128 201 0.9528636932373047
128 202 0.9381436109542847
128 203 0.9411205053329468
128 204 0.9477584362030029
128 205 0.9467613697052002
128 206 0.11722658574581146
128 207 0.9482582211494446
128 208 0.4406602382659912
128 209 0.9504240155220032
128 210 0.9566702842712402
128 211 0.08602079749107361
128 212 0.3252660632133484
128 213 0.9504240155220032
128 214 0.9389979243278503
128 215 0.9494820833206177
128 216 0.9589276313781738
128 217 0.9516429901123047
128 218 0.9505347609519958
128 219 0.9406800866127014
128 220 0.9467030167579651
128 221 0.9521411061286926
128 222 0.9269582033157349
128 223 0.9689005613327026
128 224 0.13794013857841492
128 225 0.948202908039093
128 226 0.9609581232070923
128 227 0.948202908039093
128 228 0.13027679920196533
128 230 0.9598603844642639
128 231 0.9534164667129517
128 232 0.9587613940238953
128 233 0.9438580274581909
128 234 0.14556682109832764
128 235 0.9493141770362854
128 236 0.17204159498214722
128 237 0.9574015736579895
128 238 0.954797625541687
128 239 0.961949348449707
128 240 0.949762225151062
128 241 0.9567270278930664
128 242 0.9415085911750793
128 244 0.947202205657959
128 245 0.07270084321498871
128 246 0.272661417722702
128 247 0.9530355334281921
128 248 0.9551309943199158
128 249 0.9539119601249695
128 250 0.18279530107975006
128 251 0.11296235769987106
128 252 0.9539119601249695
128 253 0.9330169558525085
128 254 0.9539690613746643
128 255 0.9498692750930786
129 130 0.956146240234375
129 131 0.9428098201751709
129 132 0.9500274658203125
129 133 0.9445357322692871
129 134 0.9210566878318787
129 135 0.9344702959060669
129 136 0.9477052688598633
129 138 0.9393503665924072
129 139 0.9492648243904114
129 140 0.21286344528198242
129 141 0.09181462973356247
129 142 0.9405779838562012
129 143 0.9617306590080261
129 144 0.9500274658203125
129 146 0.9608733654022217
129 147 0.17490704357624054
129 148 0.5386427044868469
129 149 0.9389006495475769
129 150 0.2619670331478119
129 151 0.9511330723762512
129 152 0.938582718372345
129 153 0.936155378818512
129 154 0.9517398476600647
129 155 0.9462044835090637
129 156 0.12860462069511414
129 157 0.9526834487915039
129 158 0.9581846594810486
129 159 0.9503716826438904
129 161 0.9603763222694397
129 162 0.16594505310058594
129 163 0.9506904482841492
129 164 0.056224748492240906
129 165 0.9493675827980042
129 166 0.9505268931388855
129 167 0.956146240234375
129 168 0.9559371471405029
129 169 0.9437627792358398
129 170 0.9433669447898865
129 171 0.9618695378303528
129 173 0.9527891278266907
129 174 0.9462592005729675
129 175 0.9520801901817322
129 176 0.15240146219730377
129 177 0.11613734066486359
129 178 0.32790443301200867
129 179 0.40024447441101074
129 180 0.3321414589881897
129 181 0.9521316289901733
129 182 0.9531333446502686
129 183 0.15672606229782104
129 184 0.1930622011423111
129 185 0.9403631687164307
129 186 0.9533404111862183
129 187 0.9548877477645874
129 188 0.16324657201766968
129 189 0.9673678874969482
129 190 0.9544423222541809
129 191 0.06626150012016296
129 192 0.9410814046859741
129 193 0.6538403630256653
129 194 0.12572236359119415
129 195 0.9577935338020325
129 196 0.14723093807697296
129 197 0.944480299949646
129 198 0.9630591869354248
129 199 0.08660344034433365
129 200 0.23718780279159546
129 201 0.9534496068954468
129 202 0.9355939626693726
129 203 0.9438691139221191
129 204 0.9483667016029358
129 205 0.9494742751121521
129 206 0.09903481602668762
129 207 0.9488667249679565
129 208 0.41514474153518677
129 209 0.9562929272651672
129 210 0.9572447538375854
129 211 0.061346229165792465
129 212 0.29322224855422974
129 213 0.9541864991188049
129 214 0.9321614503860474
129 215 0.9511330723762512
129 216 0.962614119052887
129 217 0.9511874914169312
129 218 0.9490311145782471
129 219 0.9476532340049744
129 220 0.950474202632904
129 221 0.9495845437049866
129 222 0.937315821647644
129 223 0.9621725678443909
129 224 0.1377219557762146
129 225 0.9445922374725342
129 226 0.960479736328125
129 227 0.9456475973129272
129 228 0.12241950631141663
129 229 0.056224748492240906
129 230 0.9593847990036011
129 231 0.96027672290802
129 232 0.9572447538375854
129 233 0.9487108588218689
129 234 0.13149496912956238
129 235 0.9499210119247437
129 236 0.12269245833158493
129 237 0.95168536901474
129 238 0.9511874914169312
129 239 0.9635560512542725
129 240 0.9472037553787231
129 241 0.9593847990036011
129 242 0.9474543929100037
129 244 0.9499210119247437
129 245 0.05806867033243179
129 246 0.28924447298049927
129 247 0.9483667016029358
129 248 0.956750214099884
129 249 0.9607757329940796
129 250 0.20278461277484894
129 251 0.10410800576210022
129 252 0.9555427432060242
129 253 0.9347569346427917
129 254 0.9545510411262512
129 255 0.950474202632904
130 131 0.9538704752922058
130 132 0.9577685594558716
130 133 0.9523887038230896
130 134 0.9231060147285461
130 135 0.9436168074607849
130 136 0.9565796256065369
130 138 0.9505413174629211
130 139 0.9549901485443115
130 140 0.19145500659942627
130 141 0.07966900616884232
130 142 0.949592113494873
130 143 0.962044894695282
130 144 0.9577685594558716
130 146 0.9663388133049011
130 147 0.14454248547554016
130 148 0.5116676092147827
130 149 0.9469013810157776
130 150 0.26360660791397095
130 151 0.9588484764099121
130 152 0.9435049891471863
130 153 0.9558221101760864
130 154 0.9625473618507385
130 155 0.9520797729492188
130 156 0.14095865190029144
130 157 0.9603942036628723
130 158 0.9678428173065186
130 159 0.9539790153503418
130 161 0.9668741822242737
130 162 0.1586863100528717
130 163 0.9646285176277161
130 164 0.05575668811798096
130 165 0.9550632834434509
130 166 0.9561842679977417
130 167 0.9647668600082397
130 168 0.9625473618507385
130 169 0.9548559188842773
130 170 0.9544128775596619
130 171 0.9631934762001038
130 173 0.9646285176277161
130 174 0.9592812061309814
130 175 0.9577317833900452
130 176 0.1577037274837494
130 177 0.1367649883031845
130 178 0.32204803824424744
130 179 0.3994898498058319
130 180 0.3600810170173645
130 181 0.9608985185623169
130 182 0.956687331199646
130 183 0.16139909625053406
130 184 0.2061823159456253
130 185 0.9568526148796082
130 186 0.9662050008773804
130 187 0.9604661464691162
130 188 0.17345097661018372
130 189 0.9696188569068909
130 190 0.9641591310501099
130 191 0.0788518637418747
130 192 0.9532603025436401
130 193 0.6694101691246033
130 194 0.09974059462547302
130 195 0.9653400182723999
130 196 0.16425594687461853
130 197 0.9513015151023865
130 198 0.9695122838020325
130 199 0.1327274739742279
130 200 0.23141948878765106
130 201 0.9631562829017639
130 202 0.9521100521087646
130 203 0.950718879699707
130 204 0.9551013112068176
130 205 0.965579092502594
130 206 0.09821037948131561
130 207 0.9576959609985352
130 208 0.44077545404434204
130 209 0.956687331199646
130 210 0.9658389687538147
130 211 0.08516974747180939
130 212 0.3251746892929077
130 213 0.959820568561554
130 214 0.9403210282325745
130 215 0.9578062295913696
130 216 0.9690485596656799
130 217 0.9599272608757019
130 218 0.9598907232284546
130 219 0.95864337682724
130 220 0.9551013112068176
130 221 0.9583463072776794
130 222 0.9359085559844971
130 223 0.9737405180931091
130 224 0.13657543063163757
130 225 0.9534747004508972
130 226 0.9679798483848572
130 227 0.9545212984085083
130 228 0.12898790836334229
130 229 0.05575668811798096
130 230 0.9658758640289307
130 231 0.9636934399604797
130 232 0.9699797630310059
130 233 0.9513015151023865
130 234 0.150989830493927
130 235 0.95665043592453
130 236 0.17033949494361877
130 237 0.9583463072776794
130 238 0.9599272608757019
130 239 0.970012366771698
130 240 0.9529317617416382
130 241 0.9689782857894897
130 242 0.9469403624534607
130 244 0.9576959609985352
130 245 0.07198157161474228
130 246 0.2834620773792267
130 247 0.9571912884712219
130 248 0.9663746953010559
130 249 0.9621184468269348
130 250 0.19606903195381165
130 251 0.11184477061033249
130 252 0.9621184468269348
130 253 0.9439840316772461
130 254 0.9642303586006165
130 255 0.9571912884712219
131 132 0.9508421421051025
131 133 0.9431791305541992
131 134 0.9150031805038452
131 135 0.9372881054878235
131 136 0.9399927258491516
131 138 0.9304201602935791
131 139 0.9415537118911743
131 140 0.19408749043941498
131 141 0.06922666728496552
131 142 0.9391696453094482
131 143 0.9499685764312744
131 144 0.9444961547851562
131 145 0.056523337960243225
131 146 0.9512766003608704
131 147 0.16997472941875458
131 148 0.518703043460846
131 149 0.9331973195075989
131 150 0.24399366974830627
131 151 0.9487883448600769
131 152 0.9274287223815918
131 153 0.9368442893028259
131 154 0.9504647254943848
131 155 0.9308536648750305
131 156 0.14970144629478455
131 157 0.9461146593093872
131 158 0.9538088440895081
131 159 0.9405567646026611
131 161 0.956031858921051
131 162 0.17278441786766052
131 163 0.9462451338768005
131 164 0.056523337960243225
131 165 0.9395630955696106
131 166 0.9449926614761353
131 167 0.950718879699707
131 168 0.948354959487915
131 169 0.9381024241447449
131 170 0.9366685748100281
131 171 0.9491097331047058
131 173 0.948354959487915
131 174 0.9417504668235779
131 175 0.9444310069084167
131 176 0.13988813757896423
131 177 0.11675410717725754
131 178 0.32013681530952454
131 179 0.3919188678264618
131 180 0.35654300451278687
131 181 0.9434384107589722
131 182 0.9497249126434326
131 183 0.16361834108829498
131 184 0.19408749043941498
131 185 0.9346387982368469
131 186 0.9478598833084106
131 187 0.9473000764846802
131 188 0.16997472941875458
131 189 0.9578811526298523
131 190 0.9489784836769104
131 191 0.07993607223033905
131 192 0.932197630405426
131 193 0.6390540599822998
131 194 0.10953802615404129
131 195 0.9523911476135254
131 196 0.16651445627212524
131 197 0.9388634562492371
131 198 0.9597913026809692
131 199 0.11872276663780212
131 200 0.2538311183452606
131 201 0.9522001147270203
131 202 0.9309213161468506
131 203 0.9499467015266418
131 204 0.9438691139221191
131 205 0.9460508227348328
131 206 0.08145880699157715
131 207 0.9454267621040344
131 208 0.43095868825912476
131 209 0.946548581123352
131 210 0.9518341422080994
131 211 0.08634082973003387
131 212 0.3137974739074707
131 213 0.9497249126434326
131 214 0.9274287223815918
131 215 0.9477317333221436
131 216 0.9541257619857788
131 217 0.9456844925880432
131 218 0.946675181388855
131 219 0.9473695755004883
131 220 0.9417504668235779
131 221 0.951459527015686
131 222 0.9260844588279724
131 223 0.9568365812301636
131 224 0.13076148927211761
131 225 0.9411205053329468
131 226 0.9592969417572021
131 227 0.9411205053329468
131 228 0.13076148927211761
131 230 0.955044686794281
131 231 0.9538088440895081
131 232 0.9539329409599304
131 233 0.9463063478469849
131 234 0.15306593477725983
131 235 0.9475465416908264
131 236 0.16034725308418274
131 237 0.9451234936714172
131 238 0.9456844925880432
131 239 0.9529479146003723
131 240 0.9394952058792114
131 241 0.9634314179420471
131 242 0.9332653880119324
131 244 0.9443668723106384
131 245 0.07297132164239883
131 246 0.3078853487968445
131 247 0.9470471739768982
131 248 0.9544889330863953
131 249 0.9479914903640747
131 250 0.2038615196943283
131 251 0.12210436910390854
131 252 0.9479914903640747
131 253 0.9289445281028748
131 254 0.9522628784179688
131 255 0.9428098201751709
132 133 0.9483206868171692
132 134 0.9261263608932495
132 135 0.9393871426582336
132 136 0.9472658038139343
132 138 0.937869131565094
132 139 0.9446017146110535
132 140 0.20758530497550964
132 141 0.08021111786365509
132 142 0.9433345198631287
132 143 0.9549785256385803
132 144 0.9516806602478027
132 145 0.05613608658313751
132 146 0.9572726488113403
132 147 0.16881020367145538
132 148 0.5472282767295837
132 149 0.9406049847602844
132 150 0.2307828962802887
132 151 0.9527812004089355
132 152 0.9360342621803284
132 153 0.937869131565094
132 154 0.9523343443870544
132 155 0.9372570514678955
132 156 0.148675799369812
132 157 0.951181173324585
132 158 0.956673800945282
132 159 0.9488730430603027
132 161 0.9609465003013611
132 162 0.17751790583133698
132 163 0.9544297456741333
132 164 0.05613608658313751
132 165 0.9499769806861877
132 166 0.953231930732727
132 167 0.9577685594558716
132 168 0.9523343443870544
132 169 0.9465143084526062
132 170 0.9429364800453186
132 171 0.9561774730682373
132 173 0.9544297456741333
132 174 0.9479233026504517
132 175 0.949527382850647
132 176 0.14554545283317566
132 177 0.12320134788751602
132 178 0.330535352230072
132 179 0.3632848262786865
132 180 0.34847965836524963
132 181 0.9516806602478027
132 182 0.9568880200386047
132 183 0.15647892653942108
132 184 0.2026427835226059
132 185 0.9367513656616211
132 186 0.9560256600379944
132 187 0.9523343443870544
132 188 0.16298915445804596
132 189 0.9648050665855408
132 190 0.9560753703117371
132 191 0.07938841730356216
132 192 0.940657913684845
132 193 0.6800097227096558
132 194 0.10878756642341614
132 195 0.9594083428382874
132 196 0.15312373638153076
132 197 0.9503828287124634
132 198 0.9594593644142151
132 199 0.12577000260353088
132 200 0.25209206342697144
132 201 0.9582157731056213
132 202 0.9447579383850098
132 203 0.9434384107589722
132 204 0.9521316289901733
132 205 0.953231930732727
132 206 0.08988969027996063
132 207 0.9505284428596497
132 208 0.45503804087638855
132 209 0.9516304135322571
132 210 0.9578197598457336
132 211 0.08574929088354111
132 212 0.2990557849407196
132 213 0.9526818990707397
132 214 0.9360342621803284
132 215 0.9517319202423096
132 216 0.9610961675643921
132 217 0.9528323411941528
132 218 0.9559292197227478
132 219 0.9451029300689697
132 220 0.9500274658203125
132 221 0.9533310532569885
132 222 0.9336914420127869
132 223 0.9627301692962646
132 224 0.1298656165599823
132 225 0.9473177194595337
132 226 0.9620854258537292
132 227 0.9473177194595337
132 228 0.13750477135181427
132 229 0.05613608658313751
132 230 0.9609954953193665
132 231 0.9577181935310364
132 232 0.9599042534828186
132 233 0.9472148418426514
132 234 0.14510737359523773
132 235 0.9484230875968933
132 236 0.14699877798557281
132 237 0.9533310532569885
132 238 0.9570252299308777
132 239 0.9589132070541382
132 240 0.9457101225852966
132 241 0.962036669254303
132 242 0.9395974278450012
132 244 0.9484230875968933
132 245 0.07247138023376465
132 246 0.30917346477508545
132 247 0.953183650970459
132 248 0.9614917039871216
132 249 0.9582157731056213
132 250 0.20246483385562897
132 251 0.12126781046390533
132 252 0.957170844078064
132 253 0.9343532919883728
132 254 0.9593090415000916
132 255 0.9489754438400269
133 134 0.9202179312705994
133 135 0.9305244088172913
133 136 0.943855881690979
133 138 0.9364955425262451
133 139 0.9422364830970764
133 140 0.20349963009357452
133 141 0.09205746650695801
133 142 0.9377435445785522
133 143 0.9485009908676147
133 144 0.9483206868171692
133 145 0.05637345090508461
133 146 0.9560843706130981
133 147 0.1812152862548828
133 148 0.545752227306366
133 149 0.946714460849762
133 150 0.251071959733963
133 151 0.9525948762893677
133 152 0.9303346276283264
133 153 0.939699113368988
133 154 0.950048565864563
133 155 0.9305244088172913
133 156 0.15609101951122284
133 157 0.9488772749900818
133 158 0.9533771872520447
133 159 0.9465327262878418
133 161 0.9534965753555298
133 162 0.17826850712299347
133 163 0.9489964842796326
133 164 0.05637345090508461
133 165 0.9497632384300232
133 166 0.9530407786369324
133 167 0.954484224319458
133 168 0.9489964842796326
133 169 0.9398723244667053
133 170 0.9384309649467468
133 171 0.9539307951927185
133 173 0.9511006474494934
133 174 0.9455922842025757
133 175 0.9472063779830933
133 176 0.12622983753681183
133 177 0.14555563032627106
133 178 0.3256104588508606
133 179 0.3335505723953247
133 180 0.33019769191741943
133 181 0.9483206868171692
133 182 0.9461504220962524
133 183 0.14505283534526825
133 184 0.21342644095420837
133 185 0.9332292675971985
133 186 0.9495525360107422
133 187 0.950048565864563
133 188 0.1812152862548828
133 189 0.9626336693763733
133 190 0.9548656344413757
133 191 0.07972410321235657
133 192 0.9393104314804077
133 193 0.6434294581413269
133 194 0.12605486810207367
133 195 0.9582344889640808
133 196 0.1599220335483551
133 197 0.9459178447723389
133 198 0.9572461247444153
133 199 0.13419567048549652
133 200 0.2685009241104126
133 201 0.9538725018501282
133 202 0.9402052760124207
133 203 0.9399927258491516
133 204 0.9529879689216614
133 205 0.948819100856781
133 206 0.10832372307777405
133 207 0.9460908770561218
133 208 0.45696210861206055
133 209 0.9450944662094116
133 210 0.9587298035621643
133 211 0.0738101676106453
133 212 0.3224491775035858
133 213 0.9461504220962524
133 214 0.9303346276283264
133 215 0.9483798146247864
133 216 0.9568126797676086
133 217 0.9515979290008545
133 218 0.9515411257743835
133 219 0.9395551681518555
133 220 0.9434792399406433
133 221 0.9510428309440613
133 222 0.9300951361656189
133 223 0.9584664106369019
133 224 0.13808618485927582
133 225 0.9449741244316101
133 226 0.9567530751228333
133 227 0.9460322856903076
133 228 0.13041473925113678
133 229 0.05637345090508461
133 230 0.9556487202644348
133 231 0.9523283839225769
133 232 0.9576831459999084
133 233 0.9406155943870544
133 234 0.1457209289073944
133 235 0.9524333477020264
133 236 0.17222373187541962
133 237 0.9468300342559814
133 238 0.9537032246589661
133 239 0.9566943049430847
133 240 0.9444151520729065
133 241 0.9566943049430847
133 242 0.9371805191040039
133 244 0.9513763189315796
133 245 0.05822225287556648
133 246 0.3104807734489441
133 247 0.9487618803977966
133 248 0.9571883082389832
133 249 0.9517738223075867
133 250 0.19823789596557617
133 251 0.12178057432174683
133 252 0.9517738223075867
133 253 0.9286307692527771
133 254 0.9518342614173889
133 255 0.9466487765312195
134 135 0.9015647172927856
134 136 0.9191263318061829
134 138 0.9045093655586243
134 139 0.9163370132446289
134 140 0.20458552241325378
134 141 0.09486240893602371
134 142 0.9136678576469421
134 143 0.922137975692749
134 144 0.9217783212661743
134 145 0.058091118931770325
134 146 0.9280235171318054
134 147 0.14457044005393982
134 148 0.521373987197876
134 149 0.9140384793281555
134 150 0.23085957765579224
134 151 0.9229832887649536
134 152 0.9166631102561951
134 153 0.9078105688095093
134 154 0.9302088022232056
134 155 0.9103819727897644
134 156 0.11888693273067474
134 157 0.9343317151069641
134 158 0.9251449108123779
134 159 0.9164578318595886
134 161 0.9275435209274292
134 162 0.18370024859905243
134 163 0.9204513430595398
134 164 0.058091118931770325
134 165 0.9176693558692932
134 166 0.9309635162353516
134 167 0.9231060147285461
134 168 0.917198896408081
134 169 0.9114741086959839
134 170 0.9101406335830688
134 171 0.9246649146080017
134 173 0.9258721470832825
134 174 0.9232341647148132
134 175 0.9216600060462952
134 176 0.13692209124565125
134 177 0.1274920403957367
134 178 0.32575878500938416
134 179 0.3410283923149109
134 180 0.27918654680252075
134 181 0.9239523410797119
134 182 0.9271007180213928
134 183 0.13701649010181427
134 184 0.20970015227794647
134 185 0.9065861105918884
134 186 0.9243052005767822
134 187 0.922619640827179
134 188 0.14457044005393982
134 189 0.9339926838874817
134 190 0.9233418703079224
134 191 0.06846104562282562
134 192 0.9086697101593018
134 193 0.6364504098892212
134 194 0.07793741673231125
134 195 0.9313762187957764
134 196 0.13944174349308014
134 197 0.9299363493919373
134 198 0.9261081218719482
134 199 0.13015013933181763
134 200 0.23715601861476898
134 201 0.9353576898574829
134 202 0.9138043522834778
134 203 0.9237591624259949
134 204 0.9167018532752991
134 205 0.916824996471405
134 206 0.07441619038581848
134 207 0.9128280282020569
134 208 0.4568988084793091
134 209 0.9271007180213928
134 210 0.9275435209274292
134 211 0.0887356549501419
134 212 0.30621325969696045
134 213 0.9271007180213928
134 214 0.905605673789978
134 215 0.919725775718689
134 216 0.9268297553062439
134 217 0.9241868257522583
134 218 0.9208115935325623
134 219 0.9190087914466858
134 220 0.9177905917167664
134 221 0.9159882068634033
134 222 0.8962418437004089
134 223 0.9296984672546387
134 224 0.12648320198059082
134 225 0.918154239654541
134 226 0.9320890307426453
134 227 0.9246968626976013
134 228 0.12648320198059082
134 229 0.058091118931770325
134 230 0.926585853099823
134 231 0.9229832887649536
134 232 0.93617182970047
134 233 0.9190087914466858
134 234 0.12155888229608536
134 235 0.9237209558486938
134 236 0.14578001201152802
134 237 0.9246705770492554
134 238 0.923102080821991
134 239 0.9276633262634277
134 240 0.9251859784126282
134 241 0.9384375810623169
134 242 0.9130593538284302
134 244 0.9171851873397827
134 246 0.2847825884819031
134 247 0.9177905917167664
134 248 0.9270642995834351
134 249 0.9267069101333618
134 250 0.20427808165550232
134 251 0.1165275052189827
134 252 0.9234629273414612
134 253 0.8960102200508118
134 254 0.9268252849578857
134 255 0.9286777377128601
135 136 0.9337331056594849
135 138 0.9293813109397888
135 139 0.9320878386497498
135 140 0.18542231619358063
135 141 0.09294787794351578
135 142 0.9274691939353943
135 143 0.9385643005371094
135 144 0.9393871426582336
135 145 0.05691872164607048
135 146 0.9431283473968506
135 147 0.17116370797157288
135 148 0.5280713438987732
135 149 0.9332664608955383
135 150 0.21840034425258636
135 151 0.9384019374847412
135 152 0.9209149479866028
135 153 0.9261467456817627
135 154 0.9379922151565552
135 155 0.9211663007736206
135 156 0.1507485955953598
135 157 0.9357006549835205
135 158 0.9467141628265381
135 159 0.936445951461792
135 161 0.9447541236877441
135 162 0.17999280989170074
135 163 0.9401167631149292
135 164 0.05691872164607048
135 165 0.9375922679901123
135 166 0.9388152956962585
135 167 0.945732593536377
135 168 0.9411790370941162
135 169 0.9360668063163757
135 170 0.9346457719802856
135 171 0.9483398199081421
135 173 0.9411790370941162
135 174 0.9355369806289673
135 175 0.9361106753349304
135 176 0.13415871560573578
135 177 0.12491897493600845
135 178 0.3287598490715027
135 179 0.34730106592178345
135 180 0.35903704166412354
135 181 0.9404521584510803
135 182 0.9382430911064148
135 183 0.15866050124168396
135 184 0.20546796917915344
135 185 0.9271453022956848
135 186 0.9417494535446167
135 187 0.945428192615509
135 188 0.13575053215026855
135 189 0.9519588351249695
135 190 0.939707338809967
135 191 0.08049523085355759
135 192 0.9279655814170837
135 193 0.6665072441101074
135 194 0.10181929916143417
135 195 0.947434663772583
135 196 0.17388956248760223
135 197 0.9325823783874512
135 198 0.9464573860168457
135 199 0.11955322325229645
135 200 0.27884364128112793
135 201 0.9567417502403259
135 202 0.9244881272315979
135 203 0.9308536648750305
135 204 0.9376705288887024
135 205 0.9388152956962585
135 206 0.10937147587537766
135 207 0.934963047504425
135 208 0.4362572729587555
135 209 0.942507803440094
135 210 0.9479243755340576
135 211 0.08694478124380112
135 212 0.30641692876815796
135 213 0.9339783191680908
135 214 0.9284989833831787
135 215 0.9426577091217041
135 216 0.9481577277183533
135 217 0.9384826421737671
135 218 0.9437216520309448
135 219 0.9336530566215515
135 220 0.9376705288887024
135 221 0.9411007165908813
135 222 0.921680748462677
135 223 0.9540626406669617
135 224 0.12393051385879517
135 225 0.939156174659729
135 226 0.9512428641319275
135 227 0.9370192885398865
135 228 0.12393051385879517
135 229 0.05691872164607048
135 230 0.9469456076622009
135 231 0.9435372352600098
135 232 0.9447541236877441
135 233 0.9347237348556519
135 234 0.12611177563667297
135 235 0.938165009021759
135 236 0.16146887838840485
135 237 0.9389739036560059
135 238 0.9491110444068909
135 239 0.945889949798584
135 240 0.9396529793739319
135 241 0.9490570425987244
135 242 0.9247397184371948
135 244 0.9424341917037964
135 245 0.07348175346851349
135 246 0.29625949263572693
135 247 0.9440709948539734
135 248 0.947434663772583
135 249 0.9461466073989868
135 250 0.1744944155216217
135 251 0.11417574435472488
135 252 0.9461466073989868
135 253 0.9289313554763794
135 254 0.9441061615943909
135 255 0.9462044835090637
136 138 0.9407669305801392
136 139 0.9485957622528076
136 140 0.18860942125320435
136 141 0.09205746650695801
136 142 0.9377435445785522
136 143 0.9495525360107422
136 144 0.9493755102157593
136 146 0.9529427886009216
136 147 0.16952398419380188
136 148 0.519222617149353
136 149 0.9371193647384644
136 150 0.27038517594337463
136 151 0.947326123714447
136 152 0.9335538148880005
136 153 0.939699113368988
136 154 0.9532048106193542
136 155 0.9401505589485168
136 156 0.14930444955825806
136 157 0.953094482421875
136 158 0.9575724601745605
136 159 0.942297637462616
136 161 0.9555898308753967
136 162 0.1723262220621109
136 163 0.9542570114135742
136 164 0.05637345090508461
136 165 0.9455326199531555
136 166 0.948819100856781
136 167 0.954484224319458
136 168 0.950048565864563
136 169 0.9398723244667053
136 170 0.9448004364967346
136 171 0.9539307951927185
136 173 0.9511006474494934
136 174 0.9498183727264404
136 175 0.9472063779830933
136 176 0.15280453860759735
136 177 0.1310000717639923
136 178 0.3256104588508606
136 179 0.3960913121700287
136 180 0.35559752583503723
136 181 0.9462109208106995
136 182 0.9472063779830933
136 183 0.16318444907665253
136 184 0.20846304297447205
136 185 0.9364362955093384
136 186 0.9516556262969971
136 187 0.9532048106193542
136 188 0.15783266723155975
136 189 0.96055006980896
136 190 0.9527647495269775
136 191 0.07972410321235657
136 192 0.942505419254303
136 193 0.6692273020744324
136 194 0.12605486810207367
136 195 0.9571883082389832
136 196 0.1476203352212906
136 197 0.9416760802268982
136 198 0.9572461247444153
136 199 0.11840793490409851
136 200 0.2646652162075043
136 201 0.9549218416213989
136 202 0.9369999766349792
136 203 0.9410548210144043
136 204 0.9455922842025757
136 205 0.9467082619667053
136 206 0.0902697741985321
136 207 0.9429196119308472
136 208 0.4388645887374878
136 209 0.9493183493614197
136 210 0.9545432329177856
136 211 0.0738101676106453
136 212 0.3256104588508606
136 213 0.9482623934745789
136 214 0.9389190673828125
136 215 0.9483798146247864
136 216 0.9578561186790466
136 217 0.9494926333427429
136 218 0.9504873752593994
136 219 0.9437969326972961
136 220 0.9455922842025757
136 221 0.9510428309440613
136 222 0.9236286878585815
136 223 0.9595082998275757
136 224 0.13808618485927582
136 225 0.9460322856903076
136 226 0.9577975273132324
136 227 0.9460322856903076
136 228 0.12274327874183655
136 229 0.05637345090508461
136 230 0.9566943049430847
136 231 0.9523283839225769
136 232 0.9566364884376526
136 233 0.9406155943870544
136 234 0.1457209289073944
136 235 0.9450337886810303
136 236 0.15377119183540344
136 237 0.9510428309440613
136 238 0.9494926333427429
136 239 0.9577398896217346
136 240 0.9444151520729065
136 241 0.9587854743003845
136 242 0.9435703754425049
136 244 0.9439767599105835
136 245 0.07277781516313553
136 246 0.29683324694633484
136 247 0.9498183727264404
136 248 0.9550961256027222
136 249 0.9538725018501282
136 250 0.19315488636493683
136 251 0.11308196187019348
136 252 0.9507244229316711
136 253 0.9286307692527771
136 254 0.9549790620803833
136 255 0.9519314169883728
138 139 0.9391288757324219
138 140 0.20513595640659332
138 141 0.0695982575416565
138 142 0.9356271624565125
138 143 0.9455276131629944
138 144 0.9431858658790588
138 146 0.9500492215156555
138 147 0.15910179913043976
138 148 0.5233975648880005
138 149 0.928534209728241
138 150 0.2647719085216522
138 151 0.9421967267990112
138 152 0.9248351454734802
138 153 0.9300323128700256
138 154 0.943900465965271
138 155 0.9304594397544861
138 156 0.14366385340690613
138 157 0.943753719329834
138 158 0.9483560919761658
138 159 0.9349327087402344
138 161 0.9506128430366516
138 162 0.15574169158935547
138 163 0.9407187700271606
138 164 0.056826744228601456
138 165 0.9392756223678589
138 166 0.9404899477958679
138 167 0.9473727941513062
138 168 0.9470821619033813
138 169 0.9377730488777161
138 170 0.9352756142616272
138 171 0.9478640556335449
138 173 0.9449610114097595
138 174 0.9446755051612854
138 175 0.9420492649078369
138 176 0.12724483013153076
138 177 0.14672602713108063
138 178 0.3027351200580597
138 179 0.3782616853713989
138 180 0.34707728028297424
138 181 0.9442492127418518
138 182 0.9431136846542358
138 183 0.16449660062789917
138 184 0.18512268364429474
138 185 0.9299574494361877
138 186 0.9465876817703247
138 187 0.9407187700271606
138 188 0.16499444842338562
138 189 0.9504205584526062
138 190 0.9456011652946472
138 191 0.06697095930576324
138 192 0.9339808821678162
138 193 0.6531923413276672
138 194 0.12706845998764038
138 195 0.9469581842422485
138 196 0.14260704815387726
138 197 0.9385582208633423
138 198 0.9512485861778259
138 199 0.10344535857439041
138 200 0.2667933702468872
138 201 0.9425020217895508
138 202 0.9262252449989319
138 203 0.9304201602935791
138 204 0.9393503665924072
138 205 0.9415538311004639
138 206 0.10009518265724182
138 207 0.9398456811904907
138 208 0.43327194452285767
138 209 0.9399203062057495
138 210 0.9495577812194824
138 211 0.07440367341041565
138 212 0.29317507147789
138 213 0.9420492649078369
138 214 0.9248351454734802
138 215 0.9390100240707397
138 216 0.9487292170524597
138 217 0.9433329105377197
138 218 0.946445643901825
138 219 0.9374892711639404
138 220 0.9393503665924072
138 221 0.939579963684082
138 222 0.926709771156311
138 223 0.957771897315979
138 224 0.13919652998447418
138 225 0.9365718364715576
138 226 0.950758695602417
138 227 0.9344384074211121
138 228 0.10826396942138672
138 229 0.056826744228601456
138 230 0.9517393112182617
138 231 0.9462416172027588
138 232 0.9516679644584656
138 233 0.9406961798667908
138 234 0.14689265191555023
138 235 0.9419769048690796
138 236 0.15500766038894653
138 237 0.9417032599449158
138 238 0.9401495456695557
138 239 0.9580631256103516
138 240 0.9349327087402344
138 241 0.9464694261550903
138 242 0.9372014403343201
138 244 0.9441080689430237
138 245 0.07336301356554031
138 246 0.28546279668807983
138 247 0.9404153823852539
138 248 0.9469581842422485
138 249 0.9456754922866821
138 250 0.19470801949501038
138 251 0.09645412862300873
138 252 0.9477910399436951
138 253 0.9230964183807373
138 254 0.9457507133483887
138 255 0.9436104893684387
139 140 0.18374335765838623
139 141 0.08059297502040863
139 142 0.9393056035041809
139 143 0.9532122015953064
139 144 0.9446017146110535
139 146 0.9534479379653931
139 147 0.15206758677959442
139 148 0.49864208698272705
139 149 0.9408161640167236
139 150 0.27052849531173706
139 151 0.9457195997238159
139 152 0.9286805987358093
139 153 0.9391288757324219
139 154 0.9537100791931152
139 155 0.9438592791557312
139 156 0.13580328226089478
139 157 0.9525449275970459
139 158 0.9528331756591797
139 159 0.9480937123298645
139 161 0.9613324403762817
139 162 0.16052670776844025
139 163 0.9516047835350037
139 164 0.05640333145856857
139 165 0.9428592920303345
139 166 0.9450982213020325
139 167 0.9528934955596924
139 168 0.9537100791931152
139 169 0.9403705596923828
139 170 0.9431770443916321
139 171 0.9533876776695251
139 173 0.9526574611663818
139 174 0.9492648243904114
139 175 0.9519346356391907
139 176 0.1528855264186859
139 177 0.1092245876789093
139 178 0.32262009382247925
139 179 0.4067302346229553
139 180 0.3614334166049957
139 181 0.9509342312812805
139 182 0.9508781433105469
139 183 0.1451297253370285
139 184 0.18374335765838623
139 185 0.9369327425956726
139 186 0.9574206471443176
139 187 0.9505521655082703
139 188 0.14621883630752563
139 189 0.95793217420578
139 190 0.9532697796821594
139 191 0.07976635545492172
139 192 0.9430049657821655
139 193 0.6559171676635742
139 194 0.10089734941720963
139 195 0.9535091519355774
139 196 0.1661609262228012
139 197 0.9453582763671875
139 198 0.9608902931213379
139 199 0.1184707060456276
139 200 0.24561668932437897
139 201 0.9522783756256104
139 202 0.9396346807479858
139 203 0.9415537118911743
139 204 0.9439794421195984
139 205 0.9461541771888733
139 206 0.10838113725185394
139 207 0.9444771409034729
139 208 0.41419997811317444
139 209 0.9498215913772583
139 210 0.9550492167472839
139 211 0.08615751564502716
139 212 0.31945714354515076
139 213 0.9487650990486145
139 214 0.930827796459198
139 215 0.9478282332420349
139 216 0.9594078063964844
139 217 0.947889506816864
139 218 0.9457195997238159
139 219 0.9485412836074829
139 220 0.9460935592651367
139 221 0.9526006579399109
139 222 0.9262748956680298
139 223 0.95793217420578
139 224 0.11513282358646393
139 225 0.9486512541770935
139 226 0.9583052396774292
139 227 0.9528863430023193
139 228 0.09978178143501282
139 229 0.05640333145856857
139 230 0.9551092386245728
139 231 0.957030713558197
139 232 0.9571436047554016
139 233 0.9464192390441895
139 234 0.14579817652702332
139 235 0.946592390537262
139 236 0.14769859611988068
139 237 0.9494393467903137
139 238 0.9489427208900452
139 239 0.9551092386245728
139 240 0.944915771484375
139 241 0.9572014808654785
139 242 0.9462016224861145
139 244 0.9476500749588013
139 245 0.0728163942694664
139 246 0.2730948328971863
139 247 0.9450364708900452
139 248 0.9566490650177002
139 249 0.9501785039901733
139 250 0.2034287005662918
139 251 0.07832901924848557
139 252 0.9585778713226318
139 253 0.9323491454124451
139 254 0.9607294797897339
139 255 0.952436089515686
140 142 0.2144511640071869
140 143 0.2020072191953659
140 144 0.19770029187202454
140 145 0.17609018087387085
140 146 0.21098212897777557
140 147 0.16433730721473694
140 148 0.20421265065670013
140 149 0.20980079472064972
140 150 0.10858950018882751
140 151 0.20243026316165924
140 152 0.2011091709136963
140 153 0.170112743973732
140 154 0.18732400238513947
140 155 0.19544513523578644
140 157 0.19759652018547058
140 158 0.18673951923847198
140 159 0.19843116402626038
140 161 0.20106495916843414
140 163 0.19718316197395325
140 165 0.2081325799226761
140 166 0.207694411277771
140 167 0.18654590845108032
140 168 0.18239441514015198
140 169 0.19948945939540863
140 170 0.15916655957698822
140 171 0.21120087802410126
140 173 0.17746484279632568
140 174 0.20791314542293549
140 175 0.19296057522296906
140 178 0.0740598514676094
140 181 0.20758530497550964
140 182 0.20780369639396667
140 185 0.16528742015361786
140 186 0.2020072191953659
140 187 0.20704232156276703
140 189 0.20989848673343658
140 190 0.19687482714653015
140 192 0.179636612534523
140 193 0.1706467717885971
140 194 0.07874992489814758
140 195 0.20096108317375183
140 197 0.20371554791927338
140 198 0.2056502252817154
140 201 0.21142031252384186
140 202 0.15518634021282196
140 203 0.2090173065662384
140 204 0.19801251590251923
140 205 0.21263951063156128
140 207 0.20306985080242157
140 208 0.1377919763326645
140 209 0.21275140345096588
140 210 0.1863528937101364
140 211 0.05763904005289078
140 213 0.19296057522296906
140 214 0.19105371832847595
140 215 0.20243026316165924
140 216 0.2004440724849701
140 217 0.18742194771766663
140 218 0.19255562126636505
140 219 0.19874688982963562
140 220 0.21286344528198242
140 221 0.16284634172916412
140 222 0.21208876371383667
140 223 0.20013576745986938
140 224 0.10783276706933975
140 225 0.20824256539344788
140 226 0.19086255133152008
140 227 0.18345177173614502
140 228 0.10783276706933975
140 230 0.21065527200698853
140 231 0.19656790792942047
140 232 0.1961609423160553
140 233 0.20868423581123352
140 234 0.06502561271190643
140 235 0.20306985080242157
140 236 0.05763904005289078
140 237 0.18258529901504517
140 238 0.18742194771766663
140 239 0.17146359384059906
140 240 0.17362725734710693
140 241 0.1910594254732132
140 242 0.19460631906986237
140 244 0.20802278816699982
140 246 0.07993096858263016
140 247 0.1782112717628479
140 248 0.20096108317375183
140 249 0.20650357007980347
140 252 0.21142031252384186
140 253 0.1762581169605255
140 254 0.19646593928337097
140 255 0.20791314542293549
141 142 0.08093702048063278
141 143 0.09138233214616776
141 144 0.09166985005140305
141 146 0.09100314974784851
141 147 0.0635000616312027
141 148 0.0617540180683136
141 149 0.0926482081413269
141 151 0.09157370775938034
141 152 0.09325047582387924
141 153 0.08119796961545944
141 154 0.08000130206346512
141 156 0.07372097671031952
141 157 0.06871630251407623
141 158 0.07975169271230698
141 159 0.09200873970985413
141 161 0.07958657294511795
141 162 0.19364915788173676
141 163 0.09143006801605225
141 165 0.09191153198480606
141 166 0.09171804040670395
141 167 0.07966900616884232
141 168 0.09143006801605225
141 169 0.06937458366155624
141 170 0.05765819922089577
141 171 0.09109750390052795
141 173 0.06857254356145859
141 174 0.08033780008554459
141 175 0.08029550313949585
141 177 0.07905694097280502
141 178 0.1373605579137802
141 181 0.08021111786365509
141 182 0.08029550313949585
141 183 0.06565321981906891
141 185 0.06967329978942871
141 186 0.05711396038532257
141 187 0.09143006801605225
141 188 0.0635000616312027
141 189 0.09053574502468109
141 190 0.09128709137439728
141 192 0.0809803381562233
141 193 0.06593804806470871
141 195 0.09090908616781235
141 197 0.09215513616800308
141 198 0.09081532061100006
141 200 0.1249999925494194
141 201 0.06839410960674286
141 202 0.09284766763448715
141 203 0.08076445013284683
141 204 0.09181462973356247
141 205 0.09171804040670395
141 206 0.0980580747127533
141 207 0.06889727711677551
141 208 0.17201560735702515
141 209 0.09176629036664963
141 210 0.09095608443021774
141 212 0.0686802789568901
141 213 0.08029550313949585
141 214 0.09325047582387924
141 215 0.09157370775938034
141 216 0.07934080809354782
141 217 0.0914778783917427
141 218 0.09157370775938034
141 219 0.08063574135303497
141 220 0.09181462973356247
141 221 0.09152575582265854
141 222 0.08195126056671143
141 223 0.0792187750339508
141 225 0.08046507835388184
141 226 0.0794224739074707
141 227 0.09196009486913681
141 229 0.20412413775920868
141 230 0.09086216986179352
141 231 0.09114479273557663
141 232 0.09095608443021774
141 233 0.08063574135303497
141 235 0.09186303615570068
141 237 0.08008503168821335
141 238 0.08004313707351685
141 239 0.09086216986179352
141 240 0.09200873970985413
141 241 0.07950439304113388
141 242 0.057843104004859924
141 244 0.09186303615570068
141 246 0.07412493228912354
141 247 0.09181462973356247
141 248 0.09090908616781235
141 249 0.09119214862585068
141 251 0.09449111670255661
141 252 0.07979313284158707
141 254 0.07971031218767166
141 255 0.09181462973356247
142 143 0.9488286375999451
142 144 0.9401547312736511
142 145 0.05664411932229996
142 146 0.9512048959732056
142 147 0.15859048068523407
142 148 0.5140992403030396
142 149 0.9330488443374634
142 150 0.2755645513534546
142 151 0.9412863850593567
142 152 0.9337232708930969
142 153 0.9313352704048157
142 154 0.9546099901199341
142 155 0.9296185970306396
142 156 0.13638301193714142
142 157 0.9460175633430481
142 158 0.9495237469673157
142 159 0.9415026903152466
142 161 0.9559712409973145
142 162 0.1671828031539917
142 163 0.9440385103225708
142 164 0.05664411932229996
142 165 0.9383825063705444
142 166 0.9448908567428589
142 167 0.949592113494873
142 168 0.9461527466773987
142 169 0.9304813146591187
142 170 0.9344033002853394
142 171 0.9479778409004211
142 173 0.947209894657135
142 174 0.948009192943573
142 175 0.9453880190849304
142 176 0.14686262607574463
142 177 0.14625447988510132
142 178 0.31446799635887146
142 179 0.3953746557235718
142 180 0.3573048412799835
142 181 0.9433345198631287
142 182 0.9453880190849304
142 183 0.17004083096981049
142 184 0.1795405149459839
142 185 0.9269688129425049
142 186 0.945658802986145
142 187 0.947209894657135
142 188 0.17033793032169342
142 189 0.9567874670028687
142 190 0.9457287192344666
142 191 0.0667557343840599
142 192 0.930979311466217
142 193 0.6510931849479675
142 194 0.12666009366512299
142 195 0.9491705298423767
142 196 0.1730506420135498
142 197 0.9366074800491333
142 198 0.9555418491363525
142 199 0.11897643655538559
142 200 0.2620817720890045
142 201 0.9521259069442749
142 202 0.9286163449287415
142 203 0.9370351433753967
142 204 0.9405779838562012
142 205 0.9427698850631714
142 206 0.11791413277387619
142 207 0.9431982636451721
142 208 0.44551780819892883
142 209 0.943265974521637
142 210 0.9538679122924805
142 211 0.07416456192731857
142 212 0.28270354866981506
142 213 0.943265974521637
142 214 0.9283322691917419
142 215 0.942345142364502
142 216 0.9530192017555237
142 217 0.9466475248336792
142 218 0.942345142364502
142 219 0.9408695697784424
142 220 0.9469475746154785
142 221 0.9418516755104065
142 222 0.9237315654754639
142 223 0.9546938538551331
142 224 0.12333259731531143
142 225 0.9473845958709717
142 226 0.9550496339797974
142 227 0.9420681595802307
142 228 0.13874918222427368
142 229 0.05664411932229996
142 230 0.953933596611023
142 231 0.9484699368476868
142 232 0.9507129192352295
142 233 0.941935122013092
142 234 0.14642059803009033
142 235 0.9463846683502197
142 236 0.1730506420135498
142 237 0.9429099559783936
142 238 0.9434743523597717
142 239 0.9497312307357788
142 240 0.9361834526062012
142 241 0.9507818222045898
142 242 0.930979311466217
142 244 0.9410738945007324
142 245 0.07312723994255066
142 246 0.28797367215156555
142 247 0.9395163655281067
142 248 0.9502216577529907
142 249 0.9457994699478149
142 250 0.199189692735672
142 251 0.10488452017307281
142 252 0.951071560382843
142 253 0.9287695288658142
142 254 0.9532443881034851
142 255 0.9448243975639343
143 144 0.9528842568397522
143 146 0.9636257886886597
143 147 0.17408351600170135
143 148 0.5154147148132324
143 149 0.9461212754249573
143 150 0.26840221881866455
143 151 0.9550230503082275
143 152 0.9426850080490112
143 153 0.941287636756897
143 154 0.9597912430763245
143 155 0.9438729286193848
143 156 0.15494629740715027
143 157 0.9597102403640747
143 158 0.9588788151741028
143 159 0.9501010179519653
143 161 0.9631273746490479
143 162 0.15926501154899597
143 163 0.9577024579048157
143 164 0.05596001818776131
143 165 0.9501470327377319
143 166 0.9523374438285828
143 167 0.962044894695282
143 168 0.9597912430763245
143 169 0.9467153549194336
143 170 0.9515706896781921
143 171 0.9625437259674072
143 173 0.9577024579048157
143 174 0.9522916078567505
143 175 0.9591279029846191
143 176 0.14508895576000214
143 177 0.11559052020311356
143 178 0.3138082027435303
143 179 0.4035334587097168
143 180 0.35298967361450195
143 181 0.9560256600379944
143 182 0.9549350738525391
143 183 0.1739867776632309
143 184 0.18722620606422424
143 185 0.9401801824569702
143 186 0.9572024941444397
143 187 0.9587468504905701
143 188 0.16247795522212982
143 189 0.9669498801231384
143 190 0.9614186882972717
143 191 0.06594952195882797
143 192 0.9482792615890503
143 193 0.6507617831230164
143 194 0.12513041496276855
143 195 0.961591362953186
143 196 0.16485494375228882
143 197 0.9495073556900024
143 198 0.9637115597724915
143 199 0.10186760127544403
143 200 0.2398786097764969
143 201 0.9583353996276855
143 202 0.9396734833717346
143 203 0.9499685764312744
143 204 0.9522916078567505
143 205 0.9565281867980957
143 206 0.11649007350206375
143 207 0.9611884355545044
143 208 0.4086988866329193
143 209 0.9528385400772095
143 210 0.9631273746490479
143 211 0.08548034727573395
143 212 0.2949797213077545
143 213 0.9601761698722839
143 214 0.9373591542243958
143 215 0.9571150541305542
143 216 0.9694751501083374
143 217 0.9582032561302185
143 218 0.9539769887924194
143 219 0.9558233618736267
143 220 0.9522916078567505
143 221 0.9545229077339172
143 222 0.9318327903747559
143 223 0.9669498801231384
143 224 0.12184310704469681
143 225 0.9495987296104431
143 226 0.963215172290802
143 227 0.9495987296104431
143 228 0.12184310704469681
143 229 0.05596001818776131
143 230 0.9621329307556152
143 231 0.9609610438346863
143 232 0.962088406085968
143 233 0.9600340723991394
143 234 0.12398763746023178
143 235 0.9569911360740662
143 236 0.14653773605823517
143 237 0.9555683732032776
143 238 0.9550684094429016
143 239 0.964208722114563
143 240 0.9501010179519653
143 241 0.9631708264350891
143 242 0.9472220540046692
143 244 0.9506950974464417
143 245 0.0722440779209137
143 246 0.28788262605667114
143 247 0.9522916078567505
143 248 0.9626297950744629
143 249 0.9625020623207092
143 250 0.20687554776668549
143 251 0.07771337032318115
143 252 0.9625020623207092
143 253 0.9388911724090576
143 254 0.9594219326972961
143 255 0.9522916078567505
144 145 0.05613608658313751
144 146 0.9604009985923767
144 147 0.18045228719711304
144 148 0.5528892278671265
144 149 0.9406049847602844
144 150 0.22309012711048126
144 151 0.9527812004089355
144 152 0.9317600727081299
144 153 0.9399958252906799
144 154 0.9523343443870544
144 155 0.9372570514678955
144 156 0.155433788895607
144 157 0.950131356716156
144 158 0.9577181935310364
144 159 0.9530903100967407
144 161 0.9578197598457336
144 162 0.1420143097639084
144 163 0.9544297456741333
144 164 0.05613608658313751
144 165 0.9562961459159851
144 166 0.9553338289260864
144 167 0.9598551392555237
144 168 0.9523343443870544
144 169 0.9433345198631287
144 170 0.946107804775238
144 171 0.9613967537879944
144 173 0.9554774165153503
144 174 0.9479233026504517
144 175 0.949527382850647
144 176 0.13892973959445953
144 177 0.13769562542438507
144 178 0.32423943281173706
144 179 0.38404396176338196
144 180 0.3541002869606018
144 181 0.9537815451622009
144 182 0.9568880200386047
144 183 0.16851577162742615
144 184 0.20758530497550964
144 185 0.9399448037147522
144 186 0.9549785256385803
144 187 0.9533820152282715
144 188 0.18045228719711304
144 189 0.9637675881385803
144 190 0.9560753703117371
144 191 0.07938841730356216
144 192 0.9395974278450012
144 193 0.6648983955383301
144 194 0.11715584248304367
144 195 0.9604499936103821
144 196 0.16537363827228546
144 197 0.9503828287124634
144 198 0.9594593644142151
144 199 0.13363061845302582
144 200 0.27500954270362854
144 201 0.957170844078064
144 202 0.9373104572296143
144 203 0.9423807859420776
144 204 0.9510795474052429
144 205 0.9500789642333984
144 206 0.10786762088537216
144 207 0.9494757652282715
144 208 0.4572907090187073
144 209 0.953733503818512
144 210 0.9588619470596313
144 211 0.08574929088354111
144 212 0.32423943281173706
144 213 0.949527382850647
144 214 0.9424453973770142
144 215 0.9527812004089355
144 216 0.9642132520675659
144 217 0.9549288153648376
144 218 0.9559292197227478
144 219 0.9451029300689697
144 220 0.9489754438400269
144 221 0.9564773440361023
144 222 0.9347646236419678
144 223 0.9637675881385803
144 224 0.1298656165599823
144 225 0.9483714699745178
144 226 0.9662457704544067
144 227 0.9483714699745178
144 228 0.12222646176815033
144 230 0.964119017124176
144 231 0.956673800945282
144 232 0.9609465003013611
144 233 0.9472148418426514
144 234 0.12437774240970612
144 235 0.9484230875968933
144 236 0.16537363827228546
144 237 0.9554286003112793
144 238 0.9549288153648376
144 239 0.9630778431892395
144 240 0.9520360231399536
144 241 0.9599543213844299
144 242 0.9395974278450012
144 244 0.9515810608863831
144 245 0.0579771026968956
144 246 0.30237844586372375
144 247 0.9521316289901733
144 248 0.9583665728569031
144 249 0.957170844078064
144 250 0.20246483385562897
144 251 0.11260582506656647
144 252 0.9550809264183044
144 253 0.9332830309867859
144 254 0.9561774730682373
144 255 0.9542357921600342
145 147 0.10369517654180527
145 148 0.1008438989520073
145 151 0.05607721582055092
145 152 0.05710402503609657
145 158 0.055814556777477264
145 163 0.05598925054073334
145 165 0.056284088641405106
145 166 0.05616559833288193
145 167 0.05575668811798096
145 169 0.05664411932229996
145 171 0.05578560009598732
145 173 0.05598925054073334
145 174 0.056224748492240906
145 177 0.12909944355487823
145 178 0.05607721582055092
145 182 0.05619514361023903
145 184 0.08804509043693542
145 187 0.05598925054073334
145 189 0.05544159188866615
145 195 0.05567022040486336
145 197 0.05643326789140701
145 200 0.06804138422012329
145 201 0.05584355816245079
145 203 0.056523337960243225
145 204 0.056224748492240906
145 205 0.05616559833288193
145 207 0.05625439062714577
145 208 0.12038584798574448
145 209 0.05619514361023903
145 210 0.055698998272418976
145 214 0.05710402503609657
145 215 0.05607721582055092
145 217 0.05601852759718895
145 218 0.05607721582055092
145 220 0.056224748492240906
145 221 0.056047845631837845
145 222 0.05735393241047859
145 223 0.05544159188866615
145 225 0.05631382763385773
145 226 0.055584151297807693
145 228 0.13608276844024658
145 230 0.05564148724079132
145 231 0.055814556777477264
145 232 0.055698998272418976
145 233 0.05643326789140701
145 237 0.056047845631837845
145 238 0.05601852759718895
145 239 0.05564148724079132
145 240 0.05634361505508423
145 241 0.05564148724079132
145 244 0.05625439062714577
145 246 0.12104551494121552
145 247 0.056224748492240906
145 249 0.05584355816245079
145 251 0.15430335700511932
145 254 0.05578560009598732
145 255 0.056224748492240906
146 147 0.1675824671983719
146 148 0.5338820815086365
146 149 0.9495728015899658
146 150 0.2634701132774353
146 151 0.9614771008491516
146 152 0.9483203291893005
146 153 0.9447711706161499
146 154 0.9651691913604736
146 155 0.9494723081588745
146 156 0.14759451150894165
146 157 0.9640659093856812
146 158 0.9652681350708008
146 159 0.9555783867835999
146 161 0.96637362241745
146 162 0.1644783765077591
146 163 0.9599689245223999
146 164 0.05572781711816788
146 165 0.9545688033103943
146 166 0.9588190913200378
146 167 0.964267373085022
146 168 0.9610089659690857
146 169 0.9480481743812561
146 170 0.9507704973220825
146 171 0.9668399095535278
146 173 0.9610089659690857
146 174 0.9598289132118225
146 175 0.9582797884941101
146 176 0.1510545015335083
146 177 0.13669419288635254
146 178 0.31875622272491455
146 179 0.39413100481033325
146 180 0.3487350642681122
146 181 0.9583154320716858
146 182 0.9561920166015625
146 183 0.17326484620571136
146 184 0.21098212897777557
146 185 0.9457897543907166
146 186 0.9605072736740112
146 187 0.9599689245223999
146 188 0.1791398823261261
146 189 0.9701467752456665
146 190 0.9626215100288391
146 191 0.07881103456020355
146 192 0.9496084451675415
146 193 0.6660633087158203
146 194 0.11630378663539886
146 195 0.9669085144996643
146 196 0.17025130987167358
146 197 0.9550022482872009
146 198 0.9721094965934753
146 199 0.12485528737306595
146 200 0.2502586543560028
146 201 0.9626576900482178
146 202 0.9463362097740173
146 203 0.9533765912055969
146 204 0.9556512236595154
146 205 0.9619491100311279
146 206 0.11600670963525772
146 207 0.959290087223053
146 208 0.44949236512184143
146 209 0.9582797884941101
146 210 0.967408299446106
146 211 0.08512565493583679
146 212 0.32813140749931335
146 213 0.9582797884941101
146 214 0.943016529083252
146 215 0.9593937397003174
146 216 0.9706097841262817
146 217 0.9604708552360535
146 218 0.9604353904724121
146 219 0.9560505151748657
146 220 0.9566956758499146
146 221 0.9599325060844421
146 222 0.9354240894317627
146 223 0.9711766242980957
146 224 0.13650473952293396
146 225 0.9550731778144836
146 226 0.9685112237930298
146 227 0.9540271162986755
146 228 0.12892113626003265
146 229 0.05572781711816788
146 230 0.96744304895401
146 231 0.9642313718795776
146 232 0.967408299446106
146 233 0.9570988416671753
146 234 0.13719241321086884
146 235 0.959290087223053
146 236 0.15201009809970856
146 237 0.9588913321495056
146 238 0.9594302773475647
146 239 0.9695102572441101
146 240 0.9597649574279785
146 241 0.9664095044136047
146 242 0.9517139792442322
146 244 0.9572001695632935
146 245 0.07194431126117706
146 246 0.27994248270988464
146 247 0.9566956758499146
146 248 0.9669085144996643
146 249 0.9657697081565857
146 250 0.17084349691867828
146 251 0.1117868646979332
146 252 0.9636949896812439
146 253 0.939245343208313
146 254 0.9647673964500427
146 255 0.9598289132118225
147 148 0.17776942253112793
147 149 0.1764950156211853
147 151 0.18026302754878998
147 152 0.15987810492515564
147 153 0.12963850796222687
147 154 0.1335337609052658
147 155 0.0885329470038414
147 156 0.187251478433609
147 157 0.13963167369365692
147 158 0.1736309975385666
147 159 0.17527681589126587
147 161 0.16172008216381073
147 162 0.09837387502193451
147 163 0.1741744577884674
147 165 0.18092802166938782
147 166 0.18054713308811188
147 167 0.17923268675804138
147 168 0.1741744577884674
147 169 0.12922188639640808
147 170 0.14645197987556458
147 171 0.17932561039924622
147 173 0.15095119178295135
147 174 0.16324657201766968
147 175 0.16316063702106476
147 178 0.22678251564502716
147 179 0.05751973018050194
147 180 0.07786877453327179
147 181 0.14552603662014008
147 182 0.17481496930122375
147 185 0.12387926131486893
147 186 0.13926681876182556
147 187 0.15675701200962067
147 188 0.06451612710952759
147 189 0.17247077822685242
147 190 0.168105348944664
147 192 0.15867535769939423
147 193 0.09211555123329163
147 194 0.1391216665506363
147 195 0.16163651645183563
147 197 0.1345927119255066
147 198 0.1672365814447403
147 200 0.1270001232624054
147 201 0.16213980317115784
147 202 0.12970831990242004
147 203 0.15825232863426208
147 204 0.18073728680610657
147 205 0.17472302913665771
147 206 0.09962709248065948
147 207 0.17499926686286926
147 208 0.08738401532173157
147 209 0.15733346343040466
147 210 0.16749580204486847
147 213 0.13985197246074677
147 214 0.16579952836036682
147 215 0.16281822323799133
147 216 0.17849433422088623
147 217 0.16845667362213135
147 218 0.16863314807415009
147 219 0.1521482765674591
147 220 0.17490704357624054
147 221 0.17435672879219055
147 222 0.1843670904636383
147 223 0.16672174632549286
147 225 0.16350522637367249
147 226 0.16715043783187866
147 227 0.12846839427947998
147 228 0.08466675132513046
147 230 0.17886234819889069
147 231 0.17941869795322418
147 232 0.15016864240169525
147 233 0.16385199129581451
147 235 0.14583271741867065
147 237 0.16854484379291534
147 238 0.16845667362213135
147 239 0.16732284426689148
147 240 0.17527681589126587
147 241 0.16732284426689148
147 242 0.1351678967475891
147 244 0.18083257973194122
147 246 0.1317942589521408
147 247 0.17490704357624054
147 248 0.16163651645183563
147 249 0.1679305136203766
147 251 0.09600307792425156
147 252 0.1679305136203766
147 253 0.15420833230018616
147 254 0.14461742341518402
147 255 0.15741634368896484
148 149 0.5130188465118408
148 151 0.5315741896629333
148 152 0.5086756348609924
148 153 0.4947443902492523
148 154 0.5081556439399719
148 155 0.5108516216278076
148 156 0.12140178680419922
148 157 0.5054489374160767
148 158 0.5422176718711853
148 159 0.5359934568405151
148 161 0.5279889702796936
148 162 0.07440915703773499
148 163 0.5100377798080444
148 165 0.5429950952529907
148 166 0.5456278920173645
148 167 0.5304100513458252
148 168 0.5175659656524658
148 169 0.5255236625671387
148 170 0.4994371235370636
148 171 0.5363107919692993
148 173 0.5232121348381042
148 174 0.5329727530479431
148 175 0.5119134187698364
148 177 0.06509445607662201
148 178 0.2318568229675293
148 179 0.11653776466846466
148 180 0.13630975782871246
148 181 0.530245304107666
148 182 0.5402480959892273
148 183 0.07568120956420898
148 184 0.18645502626895905
148 185 0.481891930103302
148 186 0.5285822153091431
148 187 0.5288583040237427
148 188 0.1150272786617279
148 189 0.5404581427574158
148 190 0.5317896008491516
148 192 0.48579809069633484
148 193 0.3936208486557007
148 194 0.10523044317960739
148 195 0.5352015495300293
148 196 0.05501485988497734
148 197 0.5330523252487183
148 198 0.532780110836029
148 199 0.11296775192022324
148 200 0.30190855264663696
148 201 0.5331135988235474
148 202 0.5064783096313477
148 203 0.47880280017852783
148 204 0.546202540397644
148 205 0.5305240750312805
148 206 0.08073973655700684
148 207 0.5200169682502747
148 208 0.38848569989204407
148 209 0.5289141535758972
148 210 0.5298612713813782
148 212 0.07917062193155289
148 213 0.523247241973877
148 214 0.5317100286483765
148 215 0.5259191393852234
148 216 0.5338246822357178
148 217 0.5366670489311218
148 218 0.5466543436050415
148 219 0.4818337559700012
148 220 0.5386427044868469
148 221 0.5256437659263611
148 222 0.5398207306861877
148 223 0.5385944843292236
148 224 0.13723115622997284
148 225 0.5148875117301941
148 226 0.5399793982505798
148 227 0.5224593877792358
148 228 0.1235080361366272
148 230 0.5424067378044128
148 231 0.5328367352485657
148 232 0.5317335724830627
148 233 0.5197734236717224
148 235 0.5332537293434143
148 237 0.5350638628005981
148 238 0.5347839593887329
148 239 0.5349252820014954
148 240 0.5435693264007568
148 241 0.5124808549880981
148 242 0.5143744349479675
148 244 0.5332537293434143
148 246 0.3417876064777374
148 247 0.534862756729126
148 248 0.531458854675293
148 249 0.5537623763084412
148 250 0.14548461139202118
148 251 0.1400449573993683
148 252 0.5162191390991211
148 253 0.5248883366584778
148 254 0.5288099050521851
148 255 0.5291928052902222
149 150 0.2410208284854889
149 151 0.9417396187782288
149 152 0.9276652932167053
149 153 0.9274595379829407
149 154 0.9434388875961304
149 155 0.9257314205169678
149 156 0.14343245327472687
149 157 0.9411724209785461
149 158 0.9457729458808899
149 159 0.9515411853790283
149 161 0.9490816593170166
149 162 0.17941249907016754
149 163 0.9444977641105652
149 165 0.9420204162597656
149 166 0.9485347270965576
149 167 0.9490102529525757
149 168 0.9444977641105652
149 169 0.9341201186180115
149 170 0.935905933380127
149 171 0.9495023488998413
149 173 0.9434388875961304
149 174 0.9367740154266357
149 175 0.9469083547592163
149 176 0.14709880948066711
149 177 0.13184072077274323
149 178 0.3213368356227875
149 179 0.38814273476600647
149 180 0.3266359865665436
149 181 0.9448515176773071
149 182 0.9426573514938354
149 183 0.17031428217887878
149 184 0.17982923984527588
149 185 0.9241560697555542
149 186 0.9450629949569702
149 187 0.9519097805023193
149 188 0.17061185836791992
149 189 0.9530836939811707
149 190 0.9472495913505554
149 191 0.08023570477962494
149 192 0.9346200823783875
149 193 0.650613009929657
149 194 0.11840619891881943
149 195 0.9485912919044495
149 196 0.14856766164302826
149 197 0.9359791874885559
149 198 0.9497164487838745
149 199 0.12711229920387268
149 200 0.25864291191101074
149 201 0.9483766555786133
149 202 0.9311850070953369
149 203 0.9331973195075989
149 204 0.9389006495475769
149 205 0.943223774433136
149 206 0.1181037575006485
149 207 0.9393956661224365
149 208 0.4416808485984802
149 209 0.9394691586494446
149 210 0.9522417783737183
149 211 0.06190319359302521
149 212 0.31497374176979065
149 213 0.9384063482284546
149 214 0.9255054593086243
149 215 0.9481027126312256
149 216 0.9545517563819885
149 217 0.9481698274612427
149 218 0.9428001046180725
149 219 0.944517195224762
149 220 0.9442172050476074
149 221 0.9433663487434387
149 222 0.921963095664978
149 223 0.9541321396827698
149 224 0.11581026017665863
149 225 0.9393231868743896
149 226 0.9502783417701721
149 227 0.9361282587051392
149 228 0.11581026017665863
149 229 0.05673521012067795
149 230 0.9512585401535034
149 231 0.9499951601028442
149 232 0.9501350522041321
149 233 0.9370464086532593
149 234 0.13268880546092987
149 235 0.9415234327316284
149 236 0.15475797653198242
149 237 0.9412464499473572
149 238 0.9471104145050049
149 239 0.9523108005523682
149 240 0.9387544989585876
149 241 0.9502062797546387
149 242 0.9367636442184448
149 244 0.9404596090316772
149 245 0.05859587714076042
149 246 0.2815692126750946
149 247 0.9410272836685181
149 248 0.949644148349762
149 249 0.9462644457817078
149 250 0.20974130928516388
149 251 0.10505319386720657
149 252 0.9547132253646851
149 253 0.9237729907035828
149 254 0.9452823400497437
149 255 0.9431538581848145
150 151 0.2651219964027405
150 152 0.2660638391971588
150 153 0.2569844722747803
150 154 0.27237874269485474
150 155 0.25350043177604675
150 157 0.2691054046154022
150 158 0.2371097207069397
150 159 0.2354966700077057
150 161 0.26333385705947876
150 163 0.2608698010444641
150 165 0.24681740999221802
150 166 0.2116621732711792
150 167 0.2674269676208496
150 168 0.26854240894317627
150 169 0.23287145793437958
150 170 0.26321813464164734
150 171 0.2637432813644409
150 173 0.2531971335411072
150 174 0.2696719467639923
150 175 0.25412824749946594
150 176 0.14535047113895416
150 177 0.10614898055791855
150 179 0.15202972292900085
150 180 0.11319772899150848
150 181 0.23847566545009613
150 182 0.2502778470516205
150 183 0.11018991470336914
150 184 0.05429475009441376
150 185 0.2572615444660187
150 186 0.24923063814640045
150 187 0.2647061049938202
150 188 0.06394568085670471
150 189 0.2621169090270996
150 190 0.26046183705329895
150 192 0.2718287706375122
150 193 0.11066796630620956
150 194 0.09192770719528198
150 195 0.25938332080841064
150 196 0.11214032769203186
150 197 0.22813788056373596
150 198 0.27054736018180847
150 201 0.23723293840885162
150 202 0.24153970181941986
150 203 0.2711040675640106
150 204 0.2658195197582245
150 205 0.24629779160022736
150 207 0.269814133644104
150 208 0.09073573350906372
150 209 0.24642740190029144
150 210 0.26333385705947876
150 212 0.05763521417975426
150 213 0.26567956805229187
150 214 0.2308495044708252
150 215 0.2574372887611389
150 216 0.26632529497146606
150 217 0.2610061764717102
150 218 0.24591024219989777
150 219 0.25520506501197815
150 220 0.2658195197582245
150 221 0.24962179362773895
150 222 0.2397194504737854
150 223 0.2621169090270996
150 224 0.05594542622566223
150 225 0.2739577293395996
150 226 0.24374808371067047
150 227 0.25466492772102356
150 230 0.2630619704723358
150 231 0.2562314569950104
150 232 0.24043524265289307
150 233 0.2668053209781647
150 234 0.05060453712940216
150 235 0.24668721854686737
150 236 0.13456837832927704
150 237 0.2611427903175354
150 238 0.2341379076242447
150 239 0.26687443256378174
150 240 0.2277754694223404
150 241 0.2630619704723358
150 242 0.2757120430469513
150 244 0.26595965027809143
150 245 0.053074490278959274
150 246 0.062204260379076004
150 247 0.24270474910736084
150 248 0.25938332080841064
150 249 0.2563646137714386
150 250 0.09267207980155945
150 252 0.267843633890152
150 253 0.2429840862751007
150 254 0.2637432813644409
150 255 0.25040969252586365
151 152 0.9329177141189575
151 153 0.9379477500915527
151 154 0.9534287452697754
151 155 0.9373379945755005
151 156 0.1552707850933075
151 157 0.9522812366485596
151 158 0.9567137360572815
151 159 0.9499843716621399
151 161 0.9588975310325623
151 162 0.17142066359519958
151 163 0.9565684199333191
151 164 0.05607721582055092
151 165 0.9510847926139832
151 166 0.9532820582389832
151 167 0.9598907232284546
151 168 0.9544752836227417
151 169 0.9455216526985168
151 170 0.9440596103668213
151 171 0.958302915096283
151 173 0.9544752836227417
151 174 0.9500820636749268
151 175 0.9516826868057251
151 176 0.1255665123462677
151 177 0.14479075372219086
151 178 0.32389938831329346
151 179 0.37327253818511963
151 180 0.34811416268348694
151 181 0.9517319202423096
151 182 0.9506322741508484
151 183 0.16232691705226898
151 184 0.21230490505695343
151 185 0.9400224089622498
151 186 0.9550230503082275
151 187 0.9534287452697754
151 188 0.18026302754878998
151 189 0.9679384827613831
151 190 0.9602972865104675
151 191 0.07930515706539154
151 192 0.9460276961326599
151 193 0.6642010807991028
151 194 0.12539246678352356
151 195 0.9604833126068115
151 196 0.17131872475147247
151 197 0.9483312368392944
151 198 0.9605321288108826
151 199 0.13349047303199768
151 200 0.2747211158275604
151 201 0.9572108387947083
151 202 0.9395158290863037
151 203 0.9498448967933655
151 204 0.9521840214729309
151 205 0.9532820582389832
151 206 0.11673403531312943
151 207 0.9537376761436462
151 208 0.4635620415210724
151 209 0.9516826868057251
151 210 0.9599387049674988
151 211 0.08565936237573624
151 212 0.32389938831329346
151 213 0.9527331590652466
151 214 0.9350525736808777
151 215 0.9538784027099609
151 216 0.9632019400596619
151 217 0.9570686221122742
151 218 0.9601677060127258
151 219 0.9451665878295898
151 220 0.9500820636749268
151 221 0.9596649408340454
151 222 0.9337842464447021
151 223 0.9658657908439636
151 224 0.12972941994667053
151 225 0.9473767876625061
151 226 0.9610764384269714
151 227 0.9484294056892395
151 228 0.1373605579137802
151 229 0.05607721582055092
151 230 0.9620677828788757
151 231 0.9577570557594299
151 232 0.9609798192977905
151 233 0.9483312368392944
151 234 0.15185782313346863
151 235 0.9484800100326538
151 236 0.15908166766166687
151 237 0.9533788561820984
151 238 0.9539272785186768
151 239 0.9631078243255615
151 240 0.9489311575889587
151 241 0.9631078243255615
151 242 0.9428495168685913
151 244 0.9516345858573914
151 245 0.07239537686109543
151 246 0.3088492155075073
151 247 0.9521840214729309
151 248 0.9594427347183228
151 249 0.9582546949386597
151 250 0.20225249230861664
151 251 0.12114062905311584
151 252 0.9572108387947083
151 253 0.9387190937995911
151 254 0.9572601318359375
151 255 0.9490311145782471
152 153 0.9291619062423706
152 154 0.9463746547698975
152 155 0.9274155497550964
152 156 0.10999226570129395
152 157 0.9451547265052795
152 158 0.9412969946861267
152 159 0.9341322183609009
152 161 0.9435889720916748
152 162 0.1805787831544876
152 163 0.9389144778251648
152 164 0.05710402503609657
152 165 0.9320740103721619
152 166 0.9375953078269958
152 167 0.9435049891471863
152 168 0.9367830157279968
152 169 0.925097644329071
152 170 0.9258599877357483
152 171 0.9418705105781555
152 173 0.9453088641166687
152 174 0.940723180770874
152 175 0.932740330696106
152 176 0.16151456534862518
152 177 0.1400698572397232
152 178 0.3138189911842346
152 179 0.409143328666687
152 180 0.32018300890922546
152 181 0.9349657297134399
152 182 0.9348796606063843
152 183 0.17754362523555756
152 184 0.21116463840007782
152 185 0.9193352460861206
152 186 0.9373591542243958
152 187 0.9410459399223328
152 188 0.18356375396251678
152 189 0.9487261772155762
152 190 0.9395744204521179
152 191 0.08075728267431259
152 192 0.9288291335105896
152 193 0.6256357431411743
152 194 0.11066335439682007
152 195 0.9505190849304199
152 196 0.15576398372650146
152 197 0.9323959350585938
152 198 0.9527144432067871
152 199 0.09595394879579544
152 200 0.2331262081861496
152 201 0.9407231211662292
152 202 0.9274978637695312
152 203 0.9360359907150269
152 204 0.9321614503860474
152 205 0.9386643767356873
152 206 0.10972753912210464
152 207 0.9326529502868652
152 208 0.44455206394195557
152 209 0.9402279853820801
152 210 0.9435889720916748
152 211 0.08722783625125885
152 212 0.33303239941596985
152 213 0.9423672556877136
152 214 0.925000011920929
152 215 0.9350525736808777
152 216 0.949130654335022
152 217 0.9415379762649536
152 218 0.9361199736595154
152 219 0.9345443248748779
152 220 0.940723180770874
152 221 0.9334959983825684
152 222 0.9093973636627197
152 223 0.9476708769798279
152 224 0.13210484385490417
152 225 0.9314944744110107
152 226 0.9479916095733643
152 227 0.9368540048599243
152 228 0.13210484385490417
152 229 0.05710402503609657
152 230 0.942614734172821
152 231 0.9391722083091736
152 232 0.9510104656219482
152 233 0.9345443248748779
152 234 0.13355137407779694
152 235 0.9369361400604248
152 236 0.1495334357023239
152 237 0.9366965293884277
152 238 0.937272846698761
152 239 0.9447329044342041
152 240 0.9330597519874573
152 241 0.9447329044342041
152 242 0.9320654273033142
152 244 0.9294406175613403
152 245 0.058976780623197556
152 246 0.2833996117115021
152 247 0.9375125169754028
152 248 0.94204181432724
152 249 0.9449750185012817
152 250 0.1802113652229309
152 251 0.11454744637012482
152 252 0.9385972023010254
152 253 0.9156244993209839
152 254 0.9418705105781555
152 255 0.9375125169754028
153 154 0.943900465965271
153 155 0.9401629567146301
153 156 0.12998157739639282
153 157 0.9480048418045044
153 158 0.9515278935432434
153 159 0.9338654279708862
153 161 0.9495577812194824
153 162 0.1737118810415268
153 163 0.946021556854248
153 164 0.056826744228601456
153 165 0.9350110292434692
153 166 0.9383621215820312
153 167 0.946316659450531
153 168 0.9428399205207825
153 169 0.940991997718811
153 170 0.9374158978462219
153 171 0.9446939826011658
153 173 0.9545060992240906
153 174 0.9414804577827454
153 175 0.9431136846542358
153 176 0.1607303023338318
153 177 0.11738082021474838
153 178 0.31866854429244995
153 179 0.3546203374862671
153 180 0.3669915199279785
153 181 0.9399958252906799
153 182 0.9377914071083069
153 183 0.15231166779994965
153 184 0.20013263821601868
153 185 0.9342678189277649
153 186 0.9487076997756958
153 187 0.941779375076294
153 188 0.1826724410057068
153 189 0.9504205584526062
153 190 0.942424476146698
153 191 0.0803651511669159
153 192 0.9339808821678162
153 193 0.6669598817825317
153 194 0.1016547679901123
153 195 0.9469581842422485
153 196 0.16120795905590057
153 197 0.9417651295661926
153 198 0.9512485861778259
153 199 0.11140269786119461
153 200 0.2551936209201813
153 201 0.9456754922866821
153 202 0.9380723237991333
153 203 0.9379149675369263
153 204 0.9393503665924072
153 205 0.9372982382774353
153 206 0.11829429864883423
153 207 0.9398456811904907
153 208 0.42187005281448364
153 209 0.9420492649078369
153 210 0.9463925957679749
153 211 0.08680428564548492
153 212 0.3377886712551117
153 213 0.9420492649078369
153 214 0.9205084443092346
153 215 0.9421967267990112
153 216 0.9487292170524597
153 217 0.9443939924240112
153 218 0.9390100240707397
153 219 0.9353513121604919
153 220 0.9372203946113586
153 221 0.9470115900039673
153 222 0.9180184602737427
153 223 0.9535711407661438
153 224 0.13919652998447418
153 225 0.9344384074211121
153 226 0.9486528635025024
153 227 0.9419053792953491
153 228 0.11599710583686829
153 229 0.056826744228601456
153 230 0.9475234150886536
153 231 0.9451843500137329
153 232 0.9558881521224976
153 233 0.9310754537582397
153 234 0.14689265191555023
153 235 0.936648964881897
153 236 0.16120795905590057
153 237 0.9470115900039673
153 238 0.9422718286514282
153 239 0.9517393112182617
153 240 0.939201831817627
153 241 0.9506853222846985
153 242 0.9329072833061218
153 244 0.9355833530426025
153 246 0.295780748128891
153 247 0.9382854104042053
153 248 0.9553943276405334
153 249 0.9456754922866821
153 250 0.1793363243341446
153 251 0.12275979667901993
153 252 0.9425020217895508
153 253 0.9220129251480103
153 254 0.9468073844909668
153 255 0.9468055963516235
154 155 0.9475526809692383
154 156 0.14828690886497498
154 157 0.9675413370132446
154 158 0.9604213833808899
154 159 0.9505972862243652
154 161 0.964669942855835
154 162 0.1711517721414566
154 163 0.9571578502655029
154 164 0.05598925054073334
154 165 0.9506433606147766
154 166 0.9538831114768982
154 167 0.9594255685806274
154 168 0.9592476487159729
154 169 0.9450955986976624
154 170 0.951013445854187
154 171 0.9599231481552124
154 173 0.9582027792930603
154 174 0.9569864869117737
154 175 0.9575313925743103
154 176 0.15176312625408173
154 177 0.14456363022327423
154 178 0.2951337993144989
154 179 0.40115612745285034
154 180 0.35597699880599976
154 181 0.9533820152282715
154 182 0.9543850421905518
154 183 0.17407765984535217
154 184 0.20211273431777954
154 185 0.944918155670166
154 186 0.9587468504905701
154 187 0.9571578502655029
154 188 0.1741744577884674
154 189 0.9653854370117188
154 190 0.9598342776298523
154 191 0.0791807547211647
154 192 0.944543719291687
154 193 0.6450730562210083
154 194 0.12519577145576477
154 195 0.9620936512947083
154 196 0.17104998230934143
154 197 0.9531629681587219
154 198 0.9683666229248047
154 199 0.1176009550690651
154 200 0.24381349980831146
154 201 0.9609203934669495
154 202 0.9475923180580139
154 203 0.9525745511054993
154 204 0.9506904482841492
154 205 0.9528349041938782
154 206 0.11655091494321823
154 207 0.9522415995597839
154 208 0.4403671622276306
154 209 0.9564826488494873
154 210 0.9657094478607178
154 211 0.07330713421106339
154 212 0.3296707272529602
154 213 0.9596289396286011
154 214 0.9453088641166687
154 215 0.9565684199333191
154 216 0.9648000597953796
154 217 0.9607947468757629
154 218 0.9534287452697754
154 219 0.9563226699829102
154 220 0.9527891278266907
154 221 0.9539754390716553
154 222 0.9312491416931152
154 223 0.9653854370117188
154 224 0.12190674990415573
154 225 0.9564006328582764
154 226 0.9647557139396667
154 227 0.9542986750602722
154 228 0.11428757756948471
154 229 0.05598925054073334
154 230 0.9636739492416382
154 231 0.9604213833808899
154 232 0.9636304378509521
154 233 0.955269455909729
154 234 0.13094420731067657
154 235 0.962740421295166
154 236 0.15272319316864014
154 237 0.9581595659255981
154 238 0.9566128253936768
154 239 0.964712381362915
154 240 0.9516488313674927
154 241 0.9667893052101135
154 242 0.9508900046348572
154 244 0.9511916637420654
154 245 0.07228181511163712
154 246 0.28803300857543945
154 247 0.9527891278266907
154 248 0.9620936512947083
154 249 0.9588359594345093
154 250 0.20698362588882446
154 251 0.10367194563150406
154 252 0.9598782062530518
154 253 0.9351116418838501
154 254 0.9651287794113159
154 255 0.9559371471405029
155 156 0.10278312861919403
155 157 0.9527327418327332
155 158 0.9488320350646973
155 159 0.9353769421577454
155 161 0.9510946869850159
155 162 0.13799449801445007
155 163 0.9422413110733032
155 164 0.05691872164607048
155 165 0.9333207607269287
155 166 0.9366840720176697
155 167 0.9446747303009033
155 168 0.939054548740387
155 169 0.9435896873474121
155 170 0.9421486854553223
155 171 0.9441061615943909
155 173 0.945428192615509
155 174 0.9387372732162476
155 175 0.9393092393875122
155 176 0.15428252518177032
155 177 0.11757079511880875
155 178 0.2776903510093689
155 179 0.40518462657928467
155 180 0.3476390540599823
155 181 0.9383220672607422
155 182 0.9435740113258362
155 183 0.16476283967494965
155 184 0.20546796917915344
155 185 0.9357799887657166
155 186 0.9523666501045227
155 187 0.9486150145530701
155 188 0.15935930609703064
155 189 0.9498550891876221
155 190 0.9471316933631897
155 191 0.06707935780286789
155 192 0.9311914443969727
155 193 0.6665072441101074
155 194 0.11030424386262894
155 195 0.9463784694671631
155 196 0.14283786714076996
155 197 0.9422187209129333
155 198 0.9506779313087463
155 199 0.11955322325229645
155 200 0.23624254763126373
155 201 0.9440275430679321
155 202 0.9374330639839172
155 203 0.9372881054878235
155 204 0.9344702959060669
155 205 0.9377496838569641
155 206 0.10025718808174133
155 207 0.9370976090431213
155 208 0.3882918059825897
155 209 0.9435740113258362
155 210 0.9447541236877441
155 211 0.08694478124380112
155 212 0.3255680203437805
155 213 0.9435740113258362
155 214 0.9252486824989319
155 215 0.9447856545448303
155 216 0.9502647519111633
155 217 0.9395455718040466
155 218 0.9384019374847412
155 219 0.9379358887672424
155 220 0.9387372732162476
155 221 0.9379104971885681
155 222 0.9140635132789612
155 223 0.9530107378959656
155 224 0.11618485301733017
155 225 0.9380877017974854
155 226 0.9512428641319275
155 227 0.9380877017974854
155 228 0.11618485301733017
155 229 0.05691872164607048
155 230 0.944834291934967
155 231 0.9456551671028137
155 232 0.950037956237793
155 233 0.9347237348556519
155 234 0.13311798870563507
155 235 0.938165009021759
155 236 0.11178615689277649
155 237 0.9453542828559875
155 238 0.9395455718040466
155 239 0.9490570425987244
155 240 0.9385839104652405
155 241 0.9480013847351074
155 242 0.9419442415237427
155 244 0.9338957667350769
155 246 0.2721453607082367
155 247 0.9387372732162476
155 248 0.947434663772583
155 249 0.9419085383415222
155 250 0.2001553475856781
155 251 0.09661024808883667
155 252 0.9440275430679321
155 253 0.924590528011322
155 254 0.9472814202308655
155 255 0.9440709948539734
156 157 0.12157999724149704
156 158 0.15454350411891937
156 159 0.12887650728225708
156 161 0.13410744071006775
156 162 0.1522773951292038
156 163 0.15502721071243286
156 165 0.14906777441501617
156 166 0.15551549196243286
156 167 0.14767096936702728
156 168 0.13480627536773682
156 169 0.13638301193714142
156 170 0.142820805311203
156 171 0.14103174209594727
156 173 0.11458533257246017
156 174 0.14891061186790466
156 175 0.14883221685886383
156 178 0.14176896214485168
156 180 0.1265634447336197
156 181 0.14191780984401703
156 182 0.14883221685886383
156 185 0.12327320873737335
156 186 0.1414726972579956
156 187 0.13480627536773682
156 188 0.07490058988332748
156 189 0.14016206562519073
156 190 0.13459548354148865
156 192 0.12963320314884186
156 193 0.17499662935733795
156 194 0.32302913069725037
156 195 0.13403813540935516
156 197 0.13587532937526703
156 198 0.14728987216949463
156 199 0.15171651542186737
156 200 0.12286829203367233
156 201 0.14117825031280518
156 202 0.1505860537290573
156 203 0.12248299270868301
156 204 0.15567928552627563
156 205 0.14199240505695343
156 206 0.05783149600028992
156 207 0.14221689105033875
156 208 0.14492753148078918
156 209 0.13530202209949493
156 210 0.14081279933452606
156 213 0.12853692471981049
156 214 0.1443648487329483
156 215 0.1485198736190796
156 216 0.1537472903728485
156 217 0.1551082730293274
156 218 0.1485198736190796
156 219 0.14946286380290985
156 220 0.15567928552627563
156 221 0.15518946945667267
156 222 0.1519012600183487
156 223 0.12013891339302063
156 224 0.09829463064670563
156 225 0.1423671543598175
156 226 0.14052246510982513
156 227 0.11524960398674011
156 230 0.14736585319042206
156 231 0.15454350411891937
156 232 0.12740206718444824
156 233 0.1222878023982048
156 235 0.13544465601444244
156 237 0.15518946945667267
156 238 0.14836443960666656
156 239 0.15406429767608643
156 240 0.13565948605537415
156 241 0.1406674087047577
156 242 0.12963320314884186
156 244 0.14898912608623505
156 245 0.09325047582387924
156 246 0.13114948570728302
156 247 0.15567928552627563
156 248 0.1407400518655777
156 249 0.15462380647659302
156 252 0.14117825031280518
156 253 0.14460080862045288
156 254 0.12760014832019806
156 255 0.12183595448732376
157 158 0.960347056388855
157 159 0.947321355342865
157 161 0.9646089673042297
157 162 0.1596822589635849
157 163 0.9539288282394409
157 164 0.056106630712747574
157 165 0.9484257102012634
157 166 0.9516811370849609
157 167 0.9572658538818359
157 168 0.9581172466278076
157 169 0.9460175633430481
157 170 0.9519505500793457
157 171 0.9577622413635254
157 173 0.9602115154266357
157 174 0.9589926600456238
157 175 0.9532329440116882
157 176 0.15869350731372833
157 177 0.1303800344467163
157 178 0.29575252532958984
157 179 0.39162299036979675
157 180 0.3370613753795624
157 181 0.9532809853553772
157 182 0.9521819353103638
157 183 0.16241207718849182
157 184 0.2025364339351654
157 185 0.9437072277069092
157 186 0.9597102403640747
157 187 0.9560230374336243
157 188 0.16290362179279327
157 189 0.9632617831230164
157 190 0.9597554802894592
157 191 0.07934675365686417
157 192 0.9507635831832886
157 193 0.647935688495636
157 194 0.10873046517372131
157 195 0.9651517271995544
157 196 0.15916511416435242
157 197 0.9530503749847412
157 198 0.9672765135765076
157 199 0.1178474947810173
157 200 0.25195977091789246
157 201 0.9598016738891602
157 202 0.9474520683288574
157 203 0.9577428698539734
157 204 0.9484773874282837
157 205 0.9506307244300842
157 206 0.10781100392341614
157 207 0.9489774703979492
157 208 0.42778149247169495
157 209 0.9584878087043762
157 210 0.961483895778656
157 211 0.08570428937673569
157 212 0.33036187291145325
157 213 0.9563858509063721
157 214 0.937678873538971
157 215 0.9554275274276733
157 216 0.9647456407546997
157 217 0.9565228819847107
157 218 0.9512324333190918
157 219 0.9519949555397034
157 220 0.9516319632530212
157 221 0.9517825245857239
157 222 0.9278382062911987
157 223 0.9642987251281738
157 224 0.11452716588973999
157 225 0.9499801397323608
157 226 0.9626200795173645
157 227 0.9531397223472595
157 228 0.12216231226921082
157 229 0.056106630712747574
157 230 0.9594504833221436
157 231 0.9572155475616455
157 232 0.963567316532135
157 233 0.9530503749847412
157 234 0.13121873140335083
157 235 0.9573941230773926
157 236 0.14692163467407227
157 237 0.9549272060394287
157 238 0.9575705528259277
157 239 0.9625723958015442
157 240 0.9525901079177856
157 241 0.9615316987037659
157 242 0.9507635831832886
157 244 0.9479253888130188
157 246 0.2818453907966614
157 247 0.9505804181098938
157 248 0.9651517271995544
157 249 0.9566685557365417
157 250 0.19729959964752197
157 251 0.09523185342550278
157 252 0.9566685557365417
157 253 0.9338628649711609
157 254 0.9671520590782166
157 255 0.9610956907272339
158 159 0.9528725743293762
158 161 0.9668413996696472
158 162 0.1647343933582306
158 163 0.9593797326087952
158 164 0.055814556777477264
158 165 0.9550073146820068
158 166 0.9550866484642029
158 167 0.9636934399604797
158 168 0.9583380222320557
158 169 0.951631486415863
158 170 0.9522503018379211
158 171 0.9631552696228027
158 173 0.9593797326087952
158 174 0.9560925364494324
158 175 0.9566347002983093
158 176 0.1578674167394638
158 177 0.12970130145549774
158 178 0.325512170791626
158 179 0.38958436250686646
158 180 0.35766053199768066
158 181 0.956673800945282
158 182 0.9576802253723145
158 183 0.1615666151046753
158 184 0.19165369868278503
158 185 0.9462034106254578
158 186 0.9609610438346863
158 187 0.9614630341529846
158 188 0.1736309975385666
158 189 0.9706252217292786
158 190 0.9599595665931702
158 191 0.0789337083697319
158 192 0.9468687176704407
158 193 0.6686024069786072
158 194 0.12480514496564865
158 195 0.9653061628341675
158 196 0.15224668383598328
158 197 0.950188934803009
158 198 0.9653451442718506
158 199 0.12504960596561432
158 200 0.2696366608142853
158 201 0.9641559720039368
158 202 0.9520403742790222
158 203 0.9496024250984192
158 204 0.9560925364494324
158 205 0.956131637096405
158 206 0.10724978148937225
158 207 0.9565966725349426
158 208 0.43675339221954346
158 209 0.9587256908416748
158 210 0.9647688865661621
158 211 0.07307840883731842
158 212 0.3192523419857025
158 213 0.9566347002983093
158 214 0.9412969946861267
158 215 0.959843635559082
158 216 0.969021201133728
158 217 0.9598813652992249
158 218 0.9577570557594299
158 219 0.9554386138916016
158 220 0.9592307209968567
158 221 0.9593409299850464
158 222 0.9400811791419983
158 223 0.9685623049736023
158 224 0.13671718537807465
158 225 0.9523687958717346
158 226 0.9658820629119873
158 227 0.9523687958717346
158 228 0.13671718537807465
158 229 0.055814556777477264
158 230 0.9648079872131348
158 231 0.9626168012619019
158 232 0.9647688865661621
158 233 0.950188934803009
158 234 0.1511465311050415
158 235 0.9545035362243652
158 236 0.13397708535194397
158 237 0.9593409299850464
158 238 0.9598813652992249
158 239 0.9699839949607849
158 240 0.9560173749923706
158 241 0.9679136276245117
158 242 0.9510864019393921
158 244 0.9545035362243652
158 245 0.07205627858638763
158 246 0.29726845026016235
158 247 0.9592307209968567
158 248 0.9653061628341675
158 249 0.9651948809623718
158 250 0.18620727956295013
158 251 0.12057321518659592
158 252 0.961039125919342
158 253 0.9428353905677795
158 254 0.9621174335479736
158 255 0.9571385383605957
159 161 0.9561302065849304
159 162 0.16035673022270203
159 163 0.9516488313674927
159 165 0.9471464157104492
159 166 0.9535912871360779
159 167 0.9539790153503418
159 168 0.9505972862243652
159 169 0.9393749237060547
159 170 0.9421783685684204
159 171 0.9565691351890564
159 173 0.9527003765106201
159 174 0.9461477994918823
159 175 0.9530376195907593
159 176 0.13944333791732788
159 177 0.12365680187940598
159 178 0.32543811202049255
159 179 0.3984861671924591
159 180 0.34976792335510254
159 181 0.9520360231399536
159 182 0.9498713612556458
159 183 0.16913874447345734
159 184 0.2033919394016266
159 185 0.9327353835105896
159 186 0.9532540440559387
159 187 0.9537519812583923
159 188 0.16943426430225372
159 189 0.9600417017936707
159 190 0.9533103704452515
159 191 0.06640159338712692
159 192 0.938813328742981
159 193 0.6476390957832336
159 194 0.11758894473314285
159 195 0.9556362628936768
159 196 0.14754222333431244
159 197 0.9432974457740784
159 198 0.9567395448684692
159 199 0.11045558005571365
159 200 0.2491903454065323
159 201 0.9544165134429932
159 202 0.9354363083839417
159 203 0.9394952058792114
159 204 0.9472037553787231
159 205 0.9483169913291931
159 206 0.10826639086008072
159 207 0.9455901980400085
159 208 0.4363713264465332
159 209 0.9477605223655701
159 210 0.9561302065849304
159 211 0.061475928872823715
159 212 0.3222784996032715
159 213 0.9456496834754944
159 214 0.9352046847343445
159 215 0.9478779435157776
159 216 0.9615206122398376
159 217 0.9510942697525024
159 218 0.9531439542770386
159 219 0.9454171657562256
159 220 0.9472037553787231
159 221 0.9515921473503113
159 222 0.9382203221321106
159 223 0.961082935333252
159 224 0.11501092463731766
159 225 0.9444739818572998
159 226 0.9593784809112549
159 227 0.9434162974357605
159 228 0.11501092463731766
159 229 0.05634361505508423
159 230 0.9593231081962585
159 231 0.9581139087677002
159 232 0.9603145718574524
159 233 0.9464771151542664
159 234 0.14564381539821625
159 235 0.9498162865638733
159 236 0.16598500311374664
159 237 0.9515921473503113
159 238 0.9489901065826416
159 239 0.9572330713272095
159 240 0.9513227343559265
159 241 0.9582780599594116
159 242 0.937748908996582
159 244 0.9498162865638733
159 246 0.29326605796813965
159 247 0.9461477994918823
159 248 0.9566817879676819
159 249 0.9533677101135254
159 250 0.2082936316728592
159 251 0.10432810336351395
159 252 0.9586117267608643
159 253 0.9345847368240356
159 254 0.9555214047431946
159 255 0.9493157267570496
160 162 0.12909944355487823
160 164 0.40824827551841736
160 178 0.0686802789568901
160 180 0.0613139346241951
160 184 0.10783278197050095
160 191 0.2886751592159271
160 193 0.06593804806470871
160 199 0.17149858176708221
160 200 0.0833333283662796
160 224 0.1666666567325592
160 236 0.13363061845302582
160 246 0.14824986457824707
161 162 0.16439330577850342
161 163 0.9615514278411865
161 164 0.055698998272418976
161 165 0.9561650156974792
161 166 0.9583232402801514
161 167 0.9648038148880005
161 168 0.9625909328460693
161 169 0.9496612548828125
161 170 0.953425407409668
161 171 0.9653041362762451
161 173 0.964669942855835
161 174 0.9572447538375854
161 175 0.9588274359703064
161 176 0.15754055976867676
161 177 0.14381420612335205
161 178 0.3154679238796234
161 179 0.3965018391609192
161 180 0.34855470061302185
161 181 0.9599042534828186
161 182 0.9619575142860413
161 183 0.17317521572113037
161 184 0.1863528937101364
161 185 0.9505815505981445
161 186 0.9631273746490479
161 187 0.9605118632316589
161 188 0.16172008216381073
161 189 0.9717037081718445
161 190 0.966275155544281
161 191 0.07877027988433838
161 192 0.9480649828910828
161 193 0.674714982509613
161 194 0.10794050991535187
161 195 0.966408371925354
161 196 0.15193146467208862
161 197 0.9534605145454407
161 198 0.972639262676239
161 199 0.12479071319103241
161 200 0.24633939564228058
161 201 0.9642333984375
161 202 0.9500693082809448
161 203 0.9539329409599304
161 204 0.9582886099815369
161 205 0.9583232402801514
161 206 0.09810875356197357
161 207 0.9577494859695435
161 208 0.4447896480560303
161 209 0.9630008339881897
161 210 0.9658737778663635
161 211 0.08508162200450897
161 212 0.3217148184776306
161 213 0.9609141945838928
161 214 0.9414685964584351
161 215 0.9588975310325623
161 216 0.9701077342033386
161 217 0.9610141515731812
161 218 0.9588975310325623
161 219 0.9628903269767761
161 220 0.9624641537666321
161 221 0.9594359993934631
161 222 0.9381347894668579
161 223 0.9706743359565735
161 224 0.12885445356369019
161 225 0.9587613940238953
161 226 0.9690423011779785
161 227 0.9587613940238953
161 228 0.11369509994983673
161 229 0.055698998272418976
161 230 0.9700418710708618
161 231 0.9689139723777771
161 232 0.9679420590400696
161 233 0.9555560350418091
161 234 0.13712146878242493
161 235 0.9567050337791443
161 236 0.13977696001529694
161 237 0.9604765772819519
161 238 0.9599741101264954
161 239 0.9669426679611206
161 240 0.9550841450691223
161 241 0.96900874376297
161 242 0.9512217044830322
161 244 0.9577494859695435
161 245 0.07190710306167603
161 246 0.27642664313316345
161 247 0.9582886099815369
161 248 0.9684755206108093
161 249 0.9642333984375
161 250 0.2059105783700943
161 251 0.11172904819250107
161 252 0.967343807220459
161 253 0.9408833980560303
161 254 0.9715185165405273
161 255 0.9582886099815369
162 163 0.1770535707473755
162 164 0.10540926456451416
162 165 0.1542544662952423
162 166 0.17761120200157166
162 167 0.1528090387582779
162 168 0.14754463732242584
162 169 0.1612119823694229
162 170 0.11314335465431213
162 171 0.14700795710086823
162 173 0.15934820473194122
162 174 0.16594505310058594
162 175 0.17178116738796234
162 178 0.14186537265777588
162 181 0.16568337380886078
162 182 0.17770466208457947
162 183 0.06780635565519333
162 185 0.11993046849966049
162 186 0.14156889915466309
162 187 0.15934820473194122
162 189 0.1694776564836502
162 190 0.1708841472864151
162 191 0.14907120168209076
162 192 0.15532425045967102
162 193 0.09363822638988495
162 195 0.17604470252990723
162 197 0.1725090742111206
162 198 0.175863116979599
162 199 0.08856149017810822
162 200 0.06454972177743912
162 201 0.17659282684326172
162 202 0.17380544543266296
162 203 0.17874249815940857
162 204 0.17779827117919922
162 205 0.15985007584095
162 207 0.10673520714044571
162 208 0.19034674763679504
162 209 0.17178116738796234
162 210 0.16439330577850342
162 212 0.07093268632888794
162 213 0.16585767269134521
162 214 0.16854019463062286
162 215 0.16550961136817932
162 216 0.1697387397289276
162 217 0.17124126851558685
162 218 0.16550961136817932
162 219 0.16656048595905304
162 220 0.17187166213989258
162 221 0.1654229313135147
162 222 0.16323214769363403
162 223 0.14610141515731812
162 224 0.17213259637355804
162 225 0.17214396595954895
162 226 0.15819527208805084
162 227 0.16620796918869019
162 229 0.21081852912902832
162 230 0.17008869349956512
162 231 0.17650113999843597
162 232 0.17613568902015686
162 233 0.1546633094549179
162 235 0.17196227610111237
162 237 0.15951497852802277
162 238 0.17124126851558685
162 239 0.17008869349956512
162 240 0.17223501205444336
162 241 0.17595383524894714
162 242 0.1612982600927353
162 244 0.17196227610111237
162 245 0.08164965361356735
162 246 0.1531118005514145
162 247 0.17779827117919922
162 248 0.17604470252990723
162 249 0.153047114610672
162 252 0.16481997072696686
162 253 0.13264088332653046
162 254 0.15876860916614532
162 255 0.16594505310058594
163 164 0.05598925054073334
163 165 0.9495929479598999
163 166 0.9528349041938782
163 167 0.9604661464691162
163 168 0.9550679326057434
163 169 0.947209894657135
163 170 0.9457417130470276
163 171 0.9599231481552124
163 173 0.9561128616333008
163 174 0.9506904482841492
163 175 0.9543850421905518
163 176 0.1583615094423294
163 177 0.13010726869106293
163 178 0.3328104615211487
163 179 0.38562750816345215
163 180 0.36999180912971497
163 181 0.9554774165153503
163 182 0.9543850421905518
163 183 0.1620723009109497
163 184 0.20704232156276703
163 185 0.943856418132782
163 186 0.9587468504905701
163 187 0.9550679326057434
163 188 0.17998027801513672
163 189 0.9653854370117188
163 190 0.9587909579277039
163 191 0.0791807547211647
163 192 0.9498323202133179
163 193 0.673709511756897
163 194 0.12519577145576477
163 195 0.9641715884208679
163 196 0.16494105756282806
163 197 0.9489501118659973
163 198 0.9621391892433167
163 199 0.13328108191490173
163 200 0.262861430644989
163 201 0.9588359594345093
163 202 0.9465311169624329
163 203 0.9473000764846802
163 204 0.9517398476600647
163 205 0.9517866969108582
163 206 0.11655091494321823
163 207 0.9511916637420654
163 208 0.4538477659225464
163 209 0.951238751411438
163 210 0.9625909328460693
163 211 0.08552499115467072
163 212 0.3296707272529602
163 213 0.952287495136261
163 214 0.9357172250747681
163 215 0.9576149582862854
163 216 0.9648000597953796
163 217 0.954521894454956
163 218 0.9597081542015076
163 219 0.9510565400123596
163 220 0.9506904482841492
163 221 0.9592055678367615
163 222 0.9344602823257446
163 223 0.9653854370117188
163 224 0.12952592968940735
163 225 0.9511456489562988
163 226 0.9647557139396667
163 227 0.9490437507629395
163 228 0.13714510202407837
163 229 0.05598925054073334
163 230 0.9626355171203613
163 231 0.9604213833808899
163 232 0.9625909328460693
163 233 0.946843683719635
163 234 0.15161961317062378
163 235 0.9501417875289917
163 236 0.16494105756282806
163 237 0.95711350440979
163 238 0.954521894454956
163 239 0.9615970849990845
163 240 0.9505972862243652
163 241 0.964712381362915
163 242 0.9434859752655029
163 244 0.9532914757728577
163 245 0.07228181511163712
163 246 0.28803300857543945
163 247 0.9506904482841492
163 248 0.9620936512947083
163 249 0.9577937722206116
163 250 0.1968868523836136
163 251 0.1209506094455719
163 252 0.9588359594345093
163 253 0.9361791014671326
163 254 0.9588820338249207
163 255 0.9527891278266907
164 165 0.056284088641405106
164 167 0.05575668811798096
164 169 0.05664411932229996
164 171 0.05578560009598732
164 173 0.05598925054073334
164 174 0.056224748492240906
164 175 0.05619514361023903
164 178 0.11215443164110184
164 180 0.15018784999847412
164 181 0.05613608658313751
164 182 0.05619514361023903
164 184 0.08804509043693542
164 185 0.05688801035284996
164 186 0.05596001818776131
164 189 0.05544159188866615
164 190 0.055901702493429184
164 191 0.2357022613286972
164 192 0.05667443200945854
164 193 0.05383818969130516
164 195 0.05567022040486336
164 197 0.05643326789140701
164 198 0.055612798780202866
164 200 0.06804138422012329
164 201 0.05584355816245079
164 202 0.05685735493898392
164 203 0.056523337960243225
164 204 0.056224748492240906
164 205 0.05616559833288193
164 207 0.05625439062714577
164 209 0.05619514361023903
164 210 0.055698998272418976
164 213 0.05619514361023903
164 215 0.05607721582055092
164 216 0.05552699789404869
164 218 0.05607721582055092
164 221 0.056047845631837845
164 223 0.05544159188866615
164 224 0.13608276844024658
164 225 0.05631382763385773
164 226 0.055584151297807693
164 227 0.05631382763385773
164 230 0.05564148724079132
164 232 0.055698998272418976
164 233 0.05643326789140701
164 235 0.05625439062714577
164 238 0.05601852759718895
164 239 0.05564148724079132
164 240 0.05634361505508423
164 241 0.05564148724079132
164 242 0.05667443200945854
164 244 0.05625439062714577
164 246 0.06052275747060776
164 247 0.056224748492240906
164 248 0.05567022040486336
164 249 0.05584355816245079
164 253 0.05719735473394394
164 255 0.056224748492240906
165 166 0.9515300989151001
165 167 0.9592475891113281
165 168 0.9527442455291748
165 169 0.9405079483985901
165 170 0.9486021995544434
165 171 0.9586983919143677
165 173 0.9527442455291748
165 174 0.9483127593994141
165 175 0.9499220848083496
165 176 0.1392960250377655
165 177 0.14532488584518433
165 178 0.3187817335128784
165 179 0.3954634368419647
165 180 0.355033814907074
165 181 0.9531365036964417
165 182 0.9488677978515625
165 183 0.14482291042804718
165 184 0.20317703485488892
165 185 0.9413556456565857
165 186 0.9532967209815979
165 187 0.9537946581840515
165 188 0.16341885924339294
165 189 0.9600675702095032
165 190 0.9523032307624817
165 191 0.06633143872022629
165 192 0.9367581605911255
165 193 0.6515001654624939
165 194 0.10907437652349472
165 195 0.9556710124015808
165 196 0.1412452608346939
165 197 0.9423008561134338
165 198 0.9567720293998718
165 199 0.11822023242712021
165 200 0.26807528734207153
165 201 0.9544559121131897
165 202 0.9419150352478027
165 203 0.9427444338798523
165 204 0.9514773488044739
165 205 0.9483688473701477
165 206 0.10815200209617615
165 207 0.9488127827644348
165 208 0.4381689131259918
165 209 0.9520307183265686
165 210 0.9603449702262878
165 211 0.08597537130117416
165 212 0.3187817335128784
165 213 0.9520307183265686
165 214 0.9363593459129333
165 215 0.9489806294441223
165 216 0.9584212303161621
165 217 0.9553443789482117
165 218 0.9521368741989136
165 219 0.9412420988082886
165 220 0.947257936000824
165 221 0.95058673620224
165 222 0.9340009093284607
165 223 0.9621478915214539
165 224 0.1378673017024994
165 225 0.9508717656135559
165 226 0.9594076871871948
165 227 0.947702169418335
165 228 0.10723011940717697
165 229 0.056284088641405106
165 230 0.958309531211853
165 231 0.9560545086860657
165 232 0.9634799957275391
165 233 0.9486534595489502
165 234 0.13163375854492188
165 235 0.9467019438743591
165 236 0.17195074260234833
165 237 0.9537413716316223
165 238 0.963752269744873
165 239 0.9572656154632568
165 240 0.9471464157104492
165 241 0.9593534469604492
165 242 0.9367581605911255
165 244 0.9467019438743591
165 246 0.2691109776496887
165 247 0.9493675827980042
165 248 0.9556710124015808
165 249 0.9555035829544067
165 250 0.20299862325191498
165 251 0.12158752232789993
165 252 0.9544559121131897
165 253 0.9378896951675415
165 254 0.9545118808746338
165 255 0.9483127593994141
166 167 0.959315836429596
166 168 0.9528349041938782
166 169 0.9406489133834839
166 170 0.9434321522712708
166 171 0.960857629776001
166 173 0.9528349041938782
166 174 0.9505268931388855
166 175 0.9500264525413513
166 176 0.1257644146680832
166 177 0.1377680003643036
166 178 0.3275594413280487
166 179 0.35828328132629395
166 180 0.3205448389053345
166 181 0.953231930732727
166 182 0.9521306157112122
166 183 0.1505395919084549
166 184 0.19780419766902924
166 185 0.9383087754249573
166 186 0.9544328451156616
166 187 0.9528349041938782
166 188 0.16889892518520355
166 189 0.9663501381874084
166 190 0.9555312395095825
166 191 0.06619179248809814
166 192 0.9390302896499634
166 193 0.6637359857559204
166 194 0.11721741408109665
166 195 0.9619970917701721
166 196 0.14094789326190948
166 197 0.9498258829116821
166 198 0.9599636793136597
166 199 0.13370086252689362
166 200 0.2560461461544037
166 201 0.9608104228973389
166 202 0.9388675689697266
166 203 0.9460508227348328
166 204 0.9505268931388855
166 205 0.9526813626289368
166 206 0.09893062710762024
166 207 0.9489216804504395
166 208 0.46429264545440674
166 209 0.9531826376914978
166 210 0.9624943733215332
166 211 0.0857943668961525
166 212 0.3086617887020111
166 213 0.9500264525413513
166 214 0.9408025741577148
166 215 0.950132429599762
166 216 0.9616013765335083
166 217 0.9575282335281372
166 218 0.9553817510604858
166 219 0.947712779045105
166 220 0.9484215378761292
166 221 0.9527828097343445
166 222 0.9309608340263367
166 223 0.9621982574462891
166 224 0.13757704198360443
166 225 0.9520328640937805
166 226 0.9646724462509155
166 227 0.9488699436187744
166 228 0.12993387877941132
166 229 0.05616559833288193
166 230 0.9604588747024536
166 231 0.9603114128112793
166 232 0.9614515900611877
166 233 0.9466562271118164
166 234 0.11752960830926895
166 235 0.9552408456802368
166 236 0.16546055674552917
166 237 0.9517335295677185
166 238 0.9564794301986694
166 239 0.9604588747024536
166 240 0.9493718147277832
166 241 0.9604588747024536
166 242 0.9411523342132568
166 244 0.9552408456802368
166 245 0.058007579296827316
166 246 0.30933597683906555
166 247 0.9589479565620422
166 248 0.9599125981330872
166 249 0.9608104228973389
166 250 0.2076355218887329
166 251 0.12133155018091202
166 252 0.957673966884613
166 253 0.9327026605606079
166 254 0.9566799998283386
166 255 0.9526321291923523
167 168 0.9656690955162048
167 169 0.9474865198135376
167 170 0.9586127400398254
167 171 0.9642303586006165
167 173 0.9646285176277161
167 174 0.9571912884712219
167 175 0.9556428790092468
167 176 0.1577037274837494
167 177 0.14396314322948456
167 178 0.3157946467399597
167 179 0.3917577862739563
167 180 0.3600810170173645
167 181 0.9608985185623169
167 182 0.956687331199646
167 183 0.16139909625053406
167 184 0.2061823159456253
167 185 0.9462796449661255
167 186 0.9610047936439514
167 187 0.961506724357605
167 188 0.17923268675804138
167 189 0.9716796278953552
167 190 0.9610422849655151
167 191 0.0788518637418747
167 192 0.9501003623008728
167 193 0.666408360004425
167 194 0.11636403203010559
167 195 0.9663746953010559
167 196 0.16425594687461853
167 197 0.9513015151023865
167 198 0.9664115309715271
167 199 0.12491997331380844
167 200 0.2617695927619934
167 201 0.9621184468269348
167 202 0.9468263983726501
167 203 0.9538704752922058
167 204 0.9634611010551453
167 205 0.9582719802856445
167 206 0.11606680601835251
167 207 0.9639691114425659
167 208 0.4519626200199127
167 209 0.9556428790092468
167 210 0.9699797630310059
167 211 0.08516974747180939
167 212 0.32204803824424744
167 213 0.9577317833900452
167 214 0.9403210282325745
167 215 0.9640596508979797
167 216 0.970080554485321
167 217 0.9640917778015137
167 218 0.9588484764099121
167 219 0.9523503184318542
167 220 0.956146240234375
167 221 0.9583463072776794
167 222 0.9359085559844971
167 223 0.9696188569068909
167 224 0.13657543063163757
167 225 0.9545212984085083
167 226 0.9669467806816101
167 227 0.9576611518859863
167 228 0.13657543063163757
167 229 0.05575668811798096
167 230 0.9669100642204285
167 231 0.9626561403274536
167 232 0.9658389687538147
167 233 0.9533991813659668
167 234 0.12353713065385818
167 235 0.9556049108505249
167 236 0.16425594687461853
167 237 0.9625130295753479
167 238 0.9620094895362854
167 239 0.9669100642204285
167 240 0.9571204781532288
167 241 0.9679441452026367
167 242 0.9501003623008728
167 244 0.9556049108505249
167 245 0.07198157161474228
167 246 0.2969602644443512
167 247 0.9592812061309814
167 248 0.9653400182723999
167 249 0.9652321338653564
167 250 0.20612385869026184
167 251 0.12044820934534073
167 252 0.9652321338653564
167 253 0.940794825553894
167 254 0.9663039445877075
167 255 0.956146240234375
168 169 0.9450955986976624
168 170 0.953122079372406
168 171 0.9599231481552124
168 173 0.9550679326057434
168 174 0.9548877477645874
168 175 0.9543850421905518
168 176 0.1583615094423294
168 177 0.13733544945716858
168 178 0.2982735335826874
168 179 0.39597994089126587
168 180 0.3447651267051697
168 181 0.9596680998802185
168 182 0.9533362984657288
168 183 0.15606962144374847
168 184 0.20704232156276703
168 185 0.9459798336029053
168 186 0.9556136727333069
168 187 0.9613375067710876
168 188 0.15675701200962067
168 189 0.9664201736450195
168 190 0.9587909579277039
168 191 0.06598396599292755
168 192 0.9487745761871338
168 193 0.6495946049690247
168 194 0.10850300639867783
168 195 0.9652105569839478
168 196 0.17104998230934143
168 197 0.9478968977928162
168 198 0.9652529358863831
168 199 0.1176009550690651
168 200 0.262861430644989
168 201 0.9588359594345093
168 202 0.94016432762146
168 203 0.9473000764846802
168 204 0.9538384675979614
168 205 0.955979585647583
168 206 0.10758545994758606
168 207 0.9553912281990051
168 208 0.44486069679260254
168 209 0.9564826488494873
168 210 0.9667490124702454
168 211 0.08552499115467072
168 212 0.32339128851890564
168 213 0.9543850421905518
168 214 0.9367830157279968
168 215 0.9565684199333191
168 216 0.9679089188575745
168 217 0.9576583504676819
168 218 0.9544752836227417
168 219 0.9489501118659973
168 220 0.9527891278266907
168 221 0.9550215005874634
168 222 0.93874192237854
168 223 0.9684895873069763
168 224 0.11428757756948471
168 225 0.9521966576576233
168 226 0.9637182950973511
168 227 0.9564006328582764
168 228 0.12952592968940735
168 229 0.05598925054073334
168 230 0.9667893052101135
168 231 0.9604213833808899
168 232 0.9605118632316589
168 233 0.9510565400123596
168 234 0.15161961317062378
168 235 0.9585408568382263
168 236 0.16494105756282806
168 237 0.9560675024986267
168 238 0.9576583504676819
168 239 0.9636739492416382
168 240 0.9484942555427551
168 241 0.9636739492416382
168 242 0.9466591477394104
168 244 0.9543413519859314
168 245 0.07228181511163712
168 246 0.29142165184020996
168 247 0.9517398476600647
168 248 0.9652105569839478
168 249 0.9577937722206116
168 250 0.19183848798274994
168 251 0.11231128126382828
168 252 0.9588359594345093
168 253 0.940449059009552
168 254 0.9599231481552124
168 255 0.9527891278266907
169 170 0.9418699741363525
169 171 0.9511377811431885
169 173 0.9450955986976624
169 174 0.938454806804657
169 175 0.943265974521637
169 176 0.14018705487251282
169 177 0.0950654074549675
169 178 0.2922329008579254
169 179 0.36919090151786804
169 180 0.35163334012031555
169 181 0.9422745704650879
169 182 0.9475101232528687
169 183 0.11538485437631607
169 184 0.20447668433189392
169 185 0.9430806040763855
169 186 0.9625644683837891
169 187 0.947209894657135
169 188 0.14096930623054504
169 189 0.9546938538551331
169 190 0.9488952159881592
169 191 0.08010687679052353
169 192 0.93632972240448
169 193 0.673965334892273
169 194 0.10977207869291306
169 195 0.9491705298423767
169 196 0.14832912385463715
169 197 0.9376729726791382
169 198 0.9502915740013123
169 199 0.11104467511177063
169 200 0.2543734610080719
169 201 0.951071560382843
169 202 0.9361311197280884
169 203 0.9359679222106934
169 204 0.9395163655281067
169 205 0.9427698850631714
169 206 0.09070318192243576
169 207 0.9410738945007324
169 208 0.4000568389892578
169 209 0.9453880190849304
169 210 0.9496612548828125
169 211 0.0865253210067749
169 212 0.3081150949001312
169 213 0.943265974521637
169 214 0.925097644329071
169 215 0.9476392269134521
169 216 0.9519708156585693
169 217 0.9424166679382324
169 218 0.9455216526985168
169 219 0.9355418682098389
169 220 0.938454806804657
169 221 0.9429099559783936
169 222 0.9323949813842773
169 223 0.96202152967453
169 224 0.13104088604450226
169 225 0.9367517828941345
169 226 0.952950656414032
169 227 0.9388782978057861
169 228 0.13874918222427368
169 230 0.9507818222045898
169 231 0.9484699368476868
169 232 0.9517645835876465
169 233 0.9398040175437927
169 234 0.15339301526546478
169 235 0.9421360492706299
169 236 0.1359683722257614
169 237 0.9471429586410522
169 238 0.9508783221244812
169 239 0.953933596611023
169 240 0.9372472763061523
169 241 0.9507818222045898
169 242 0.93418949842453
169 244 0.940011739730835
169 245 0.07312723994255066
169 246 0.3051149249076843
169 247 0.9427012205123901
169 248 0.9565284252166748
169 249 0.947908341884613
169 250 0.199189692735672
169 251 0.11362489312887192
169 252 0.9468539357185364
169 253 0.9417291283607483
169 254 0.9479778409004211
169 255 0.9448243975639343
170 171 0.9538572430610657
170 173 0.9467960596084595
170 174 0.9444257020950317
170 175 0.9492195844650269
170 176 0.15978708863258362
170 177 0.14586499333381653
170 178 0.2819506824016571
170 179 0.40215593576431274
170 180 0.3648379147052765
170 181 0.9471648931503296
170 182 0.9418120980262756
170 183 0.16958799958229065
170 184 0.2089061141014099
170 185 0.9437829256057739
170 186 0.9536782503128052
170 187 0.9552307724952698
170 188 0.15816813707351685
170 189 0.9573714733123779
170 190 0.949526309967041
170 191 0.0665779560804367
170 192 0.9402396082878113
170 193 0.6539214849472046
170 194 0.12632279098033905
170 195 0.9518845081329346
170 196 0.1540980190038681
170 197 0.9383639693260193
170 198 0.9540444016456604
170 199 0.1186595931649208
170 200 0.2613838315010071
170 201 0.9485387802124023
170 202 0.9389915466308594
170 203 0.9430549144744873
170 204 0.9433669447898865
170 205 0.9444898366928101
170 206 0.11760011315345764
170 207 0.9481016993522644
170 208 0.38992342352867126
170 209 0.9481614232063293
170 210 0.9544742703437805
170 211 0.07396704703569412
170 212 0.3263024687767029
170 213 0.9471032023429871
170 214 0.9301612973213196
170 215 0.9503955841064453
170 216 0.964074432849884
170 217 0.9472911357879639
170 218 0.9451155662536621
170 219 0.942614734172821
170 220 0.9433669447898865
170 221 0.9456760287284851
170 222 0.9234315752983093
170 223 0.9584155082702637
170 224 0.12300415337085724
170 225 0.94380122423172
170 226 0.9545996785163879
170 227 0.9416803121566772
170 228 0.09225311130285263
170 230 0.9524409174919128
170 231 0.9533013701438904
170 232 0.9513276815414429
170 233 0.9404894113540649
170 234 0.14603066444396973
170 235 0.9428050518035889
170 236 0.1540980190038681
170 237 0.9520087242126465
170 238 0.9494009017944336
170 239 0.9566320776939392
170 240 0.9421783685684204
170 241 0.9545365571975708
170 242 0.9434413313865662
170 244 0.9406864047050476
170 245 0.07293249666690826
170 246 0.24617722630500793
170 247 0.9444257020950317
170 248 0.9518845081329346
170 249 0.950641930103302
170 250 0.19356541335582733
170 251 0.08717100322246552
170 252 0.9516935348510742
170 253 0.9316816329956055
170 254 0.9528067708015442
170 255 0.9433669447898865
171 173 0.9599231481552124
171 174 0.9566420316696167
171 175 0.9550934433937073
171 176 0.13148793578147888
171 177 0.12963402271270752
171 178 0.3222150206565857
171 179 0.38164615631103516
171 180 0.3490966558456421
171 181 0.9561774730682373
171 182 0.9592732787132263
171 183 0.16746364533901215
171 184 0.20628923177719116
171 185 0.9488860368728638
171 186 0.9604625105857849
171 187 0.9682521820068359
171 188 0.15618681907653809
171 189 0.9732145071029663
171 190 0.9646590352058411
171 191 0.052595172077417374
171 192 0.9484851956367493
171 193 0.6637504696846008
171 194 0.12474039196968079
171 195 0.9689461588859558
171 196 0.1521676927804947
171 197 0.9559923410415649
171 198 0.9658784866333008
171 199 0.1249847486615181
171 200 0.2543138563632965
171 201 0.9646941423416138
171 202 0.9462601542472839
171 203 0.9501607418060303
171 204 0.9545510411262512
171 205 0.9598132371902466
171 206 0.10719414055347443
171 207 0.959238588809967
171 208 0.443242609500885
171 209 0.9644981026649475
171 210 0.9704827666282654
171 211 0.08521391451358795
171 212 0.3159584105014801
171 213 0.9613631963729858
171 214 0.9482417106628418
171 215 0.958302915096283
171 216 0.9695510268211365
171 217 0.9604250192642212
171 218 0.9603884816169739
171 219 0.9517947435379028
171 220 0.9576875567436218
171 221 0.9609277248382568
171 222 0.9374604225158691
171 223 0.9763073325157166
171 224 0.13664625585079193
171 225 0.9529218673706055
171 226 0.9684817790985107
171 227 0.9550161957740784
171 228 0.12905479967594147
171 229 0.05578560009598732
171 230 0.9684460759162903
171 231 0.9652311205863953
171 232 0.9663398265838623
171 233 0.9538935422897339
171 234 0.144201397895813
171 235 0.9581925272941589
171 236 0.15825441479682922
171 237 0.965096652507782
171 238 0.9614666700363159
171 239 0.9684460759162903
171 240 0.9555214047431946
171 241 0.9653420448303223
171 242 0.9516468048095703
171 244 0.9602846503257751
171 245 0.07201889902353287
171 246 0.2869853377342224
171 247 0.9576875567436218
171 248 0.9668757319450378
171 249 0.9667710661888123
171 250 0.2012007236480713
171 251 0.09468695521354675
171 252 0.9646941423416138
171 253 0.9476642608642578
171 254 0.9626556038856506
171 255 0.9618695378303528
173 174 0.9580357670783997
173 175 0.951238751411438
173 176 0.15176312625408173
173 177 0.12287908792495728
173 178 0.3296707272529602
173 179 0.4037442207336426
173 180 0.3615829348564148
173 181 0.9565250277519226
173 182 0.952287495136261
173 183 0.16807498037815094
173 184 0.20704232156276703
173 185 0.944918155670166
173 186 0.9608355760574341
173 187 0.9571578502655029
173 188 0.17998027801513672
173 189 0.9653854370117188
173 190 0.9587909579277039
173 191 0.0791807547211647
173 192 0.9456014037132263
173 193 0.6631592512130737
173 194 0.09181024134159088
173 195 0.9610546827316284
173 196 0.16494105756282806
173 197 0.9531629681587219
173 198 0.9631770849227905
173 199 0.10976088792085648
173 200 0.22857515513896942
173 201 0.9619625806808472
173 202 0.9497145414352417
173 203 0.9494098424911499
173 204 0.9548877477645874
173 205 0.954931378364563
173 206 0.11655091494321823
173 207 0.9522415995597839
173 208 0.4426139295101166
173 209 0.9585801362991333
173 210 0.9625909328460693
173 211 0.08552499115467072
173 212 0.3328104615211487
173 213 0.9554338455200195
173 214 0.9389144778251648
173 215 0.955521821975708
173 216 0.9637637734413147
173 217 0.9576583504676819
173 218 0.955521821975708
173 219 0.9500033855438232
173 220 0.9538384675979614
173 221 0.95711350440979
173 222 0.930178701877594
173 223 0.9684895873069763
173 224 0.12952592968940735
173 225 0.9542986750602722
173 226 0.9657930731773376
173 227 0.9553496241569519
173 228 0.13714510202407837
173 229 0.05598925054073334
173 230 0.9615970849990845
173 231 0.9583380222320557
173 232 0.972986102104187
173 233 0.9500033855438232
173 234 0.1378360092639923
173 235 0.9511916637420654
173 236 0.15272319316864014
173 237 0.9633896946907043
173 238 0.9597492814064026
173 239 0.9636739492416382
173 240 0.9611127376556396
173 241 0.9636739492416382
173 242 0.9487745761871338
173 244 0.9511916637420654
173 246 0.2812557816505432
173 247 0.9559371471405029
173 248 0.9620936512947083
173 249 0.9588359594345093
173 250 0.20193524658679962
173 251 0.11231128126382828
173 252 0.9609203934669495
173 253 0.9361791014671326
173 254 0.9672110080718994
173 255 0.9548877477645874
174 175 0.9478674530982971
174 176 0.15240146219730377
174 177 0.14517168700695038
174 178 0.32790443301200867
174 179 0.3950464725494385
174 180 0.3490300178527832
174 181 0.9542357921600342
174 182 0.9478674530982971
174 183 0.16878192126750946
174 184 0.20791314542293549
174 185 0.9392970204353333
174 186 0.9543891549110413
174 187 0.9527891278266907
174 188 0.1690768152475357
174 189 0.9611335396766663
174 190 0.952346920967102
174 191 0.0795137956738472
174 192 0.9400192499160767
174 193 0.6477863192558289
174 194 0.11734087020158768
174 195 0.9609236121177673
174 196 0.15950019657611847
174 197 0.9508261680603027
174 198 0.9609746932983398
174 199 0.13384167850017548
174 200 0.2639670670032501
174 201 0.9555427432060242
174 202 0.943053126335144
174 203 0.9470471739768982
174 204 0.9473129510879517
174 205 0.9494742751121521
174 206 0.11704114079475403
174 207 0.9467582106590271
174 208 0.46478161215782166
174 209 0.9499738216400146
174 210 0.9603763222694397
174 211 0.08588472008705139
174 212 0.3184456527233124
174 213 0.9478674530982971
174 214 0.9375125169754028
174 215 0.9490311145782471
174 216 0.9605327844619751
174 217 0.9553869962692261
174 218 0.9500820636749268
174 219 0.944480299949646
174 220 0.9525816440582275
174 221 0.9537862539291382
174 222 0.9254919290542603
174 223 0.9611335396766663
174 224 0.1377219557762146
174 225 0.9530355334281921
174 226 0.960479736328125
174 227 0.955146312713623
174 228 0.1377219557762146
174 229 0.056224748492240906
174 230 0.9572991728782654
174 231 0.9571385383605957
174 232 0.9614202976226807
174 233 0.9465955495834351
174 234 0.1453365534543991
174 235 0.9488667249679565
174 236 0.16563481092453003
174 237 0.9527358412742615
174 238 0.9522374272346497
174 239 0.9583419561386108
174 240 0.9535396099090576
174 241 0.9572991728782654
174 242 0.9421435594558716
174 244 0.9509753584861755
174 245 0.07258584350347519
174 246 0.2960502505302429
174 247 0.9494203925132751
174 248 0.9598802328109741
174 249 0.9534496068954468
174 250 0.18250614404678345
174 251 0.10410800576210022
174 252 0.9555427432060242
174 253 0.9293971061706543
174 254 0.9608240723609924
174 255 0.9536353945732117
175 176 0.15894387662410736
175 177 0.13058573007583618
175 178 0.3151267170906067
175 179 0.39483851194381714
175 180 0.35165953636169434
175 181 0.9589911103248596
175 182 0.9484210014343262
175 183 0.1506188064813614
175 184 0.18801286816596985
175 185 0.944130539894104
175 186 0.9549350738525391
175 187 0.9533362984657288
175 188 0.13985197246074677
175 189 0.9616660475730896
175 190 0.9570811986923218
175 191 0.07947193831205368
175 192 0.9395243525505066
175 193 0.6580343246459961
175 194 0.10890201479196548
175 195 0.9572893381118774
175 196 0.15941622853279114
175 197 0.9513826966285706
175 198 0.9594271183013916
175 199 0.13377121090888977
175 200 0.2600044906139374
175 201 0.9571317434310913
175 202 0.9372314810752869
175 203 0.9412546753883362
175 204 0.9478674530982971
175 205 0.9531826376914978
175 206 0.10798110067844391
175 207 0.9473134875297546
175 208 0.4194362461566925
175 209 0.9515789747238159
175 210 0.9598708152770996
175 211 0.0613139346241951
175 212 0.296219140291214
175 213 0.9536842107772827
175 214 0.932740330696106
175 215 0.9516826868057251
175 216 0.9621073603630066
175 217 0.9527854323387146
175 218 0.9506322741508484
175 219 0.9513826966285706
175 220 0.9489206075668335
175 221 0.9532841444015503
175 222 0.9368223547935486
175 223 0.9616660475730896
175 224 0.11470786482095718
175 225 0.9472595453262329
175 226 0.9620563983917236
175 227 0.9493691921234131
175 228 0.06882472336292267
175 229 0.05619514361023903
175 230 0.9620064496994019
175 231 0.9576802253723145
175 232 0.957784116268158
175 233 0.9460972547531128
175 234 0.13142573833465576
175 235 0.9525821805000305
175 236 0.16554762423038483
175 237 0.9522342681884766
175 238 0.9517361521720886
175 239 0.9630486965179443
175 240 0.9477605223655701
175 241 0.9609642028808594
175 242 0.9437708258628845
175 244 0.9483672380447388
175 246 0.27548789978027344
175 247 0.9489206075668335
175 248 0.9604177474975586
175 249 0.9550396800041199
175 250 0.20267784595489502
175 251 0.08671099692583084
175 252 0.9581778645515442
175 253 0.9331935048103333
175 254 0.9550934433937073
175 255 0.9531333446502686
176 179 0.17977313697338104
176 180 0.07079923152923584
176 181 0.14554545283317566
176 182 0.1523212194442749
176 184 0.06225728243589401
176 185 0.1541992872953415
176 186 0.13189904391765594
176 187 0.15176312625408173
176 189 0.15027865767478943
176 190 0.15811389684677124
176 191 0.25
176 192 0.16029949486255646
176 193 0.09517338126897812
176 194 0.15811389684677124
176 195 0.15745915472507477
176 196 0.1157275140285492
176 197 0.13966521620750427
176 198 0.15729676187038422
176 201 0.13820576667785645
176 202 0.14741548895835876
176 203 0.14654947817325592
176 204 0.1590275913476944
176 205 0.15224112570285797
176 207 0.152481809258461
176 209 0.1523212194442749
176 210 0.15097637474536896
176 212 0.09913145005702972
176 213 0.13245323300361633
176 214 0.14132525026798248
176 215 0.15861031413078308
176 216 0.15705406665802002
176 217 0.1452406346797943
176 218 0.14539280533790588
176 219 0.1596173793077469
176 220 0.1590275913476944
176 221 0.14531666040420532
176 222 0.1216660663485527
176 223 0.13721095025539398
176 225 0.1460062712430954
176 226 0.1441144347190857
176 227 0.1460062712430954
176 230 0.15082049369812012
176 231 0.15128961205482483
176 232 0.14441218972206116
176 233 0.14631593227386475
176 235 0.15911144018173218
176 237 0.1387113481760025
176 238 0.1452406346797943
176 239 0.15082049369812012
176 240 0.1460835039615631
176 241 0.15082049369812012
176 242 0.15362036228179932
176 244 0.1259632408618927
176 247 0.13914915919303894
176 248 0.15089836716651917
176 249 0.13820576667785645
176 250 0.06375767290592194
176 251 0.054554469883441925
176 252 0.13162453472614288
176 253 0.11459314823150635
176 254 0.15121112763881683
176 255 0.14577530324459076
177 179 0.07161148637533188
177 181 0.13044849038124084
177 182 0.1233309656381607
177 183 0.08304548263549805
177 185 0.13954001665115356
177 186 0.09391729533672333
177 187 0.13733544945716858
177 188 0.16064386069774628
177 189 0.14314958453178406
177 190 0.1154700443148613
177 192 0.13901612162590027
177 194 0.05773502215743065
177 195 0.14373990893363953
177 197 0.1384245604276657
177 198 0.14359162747859955
177 200 0.15811386704444885
177 201 0.12976869940757751
177 202 0.13946479558944702
177 203 0.1386454999446869
177 204 0.13791309297084808
177 205 0.14501895010471344
177 206 0.06201736629009247
177 207 0.14524821937084198
177 208 0.20204268395900726
177 209 0.13058573007583618
177 210 0.14381420612335205
177 212 0.06515583395957947
177 213 0.14509525895118713
177 214 0.1400698572397232
177 215 0.13031166791915894
177 216 0.12903308868408203
177 217 0.14463920891284943
177 218 0.1375512033700943
177 219 0.1384245604276657
177 220 0.14517168700695038
177 221 0.13747917115688324
177 222 0.11106541007757187
177 223 0.1359921097755432
177 224 0.05270462855696678
177 225 0.14540168642997742
177 226 0.13634178042411804
177 227 0.13813160359859467
177 230 0.14366571605205536
177 231 0.12970130145549774
177 232 0.13662348687648773
177 233 0.1384245604276657
177 235 0.12346098572015762
177 236 0.12677313387393951
177 237 0.12300768494606018
177 238 0.13017529249191284
177 239 0.14366571605205536
177 240 0.1382046639919281
177 241 0.13648243248462677
177 242 0.13169948756694794
177 244 0.14524821937084198
177 247 0.13065451383590698
177 248 0.13655290007591248
177 249 0.12976869940757751
177 251 0.11952286213636398
177 252 0.12976869940757751
177 253 0.1033780500292778
177 254 0.13683591783046722
177 255 0.11613734066486359
178 180 0.16844233870506287
178 181 0.32738736271858215
178 182 0.3182780146598816
178 184 0.11849576234817505
178 185 0.30944177508354187
178 186 0.3169462978839874
178 187 0.2951337993144989
178 188 0.05233442410826683
178 189 0.32955509424209595
178 190 0.3040767014026642
178 191 0.07930515706539154
178 192 0.3019237220287323
178 193 0.3170050382614136
178 195 0.32154861092567444
178 197 0.30696815252304077
178 198 0.3149797022342682
178 200 0.057233572006225586
178 201 0.3288128674030304
178 202 0.3188402056694031
178 203 0.3137974739074707
178 204 0.32790443301200867
178 205 0.3149609863758087
178 206 0.053877249360084534
178 207 0.31230437755584717
178 208 0.2565343379974365
178 209 0.3182780146598816
178 210 0.3185913860797882
178 213 0.2930678725242615
178 214 0.2849988639354706
178 215 0.2641509473323822
178 216 0.31449374556541443
178 217 0.2890053987503052
178 218 0.3207547068595886
178 219 0.32595589756965637
178 220 0.32790443301200867
178 221 0.3331587612628937
178 222 0.3119761347770691
178 223 0.29846495389938354
178 224 0.16025398671627045
178 225 0.32842397689819336
178 226 0.31793448328971863
178 227 0.31895020604133606
178 228 0.09157370775938034
178 229 0.11215443164110184
178 230 0.31202197074890137
178 231 0.3317720293998718
178 232 0.324838250875473
178 233 0.29114508628845215
178 234 0.10353942215442657
178 235 0.2870676517486572
178 236 0.09177789092063904
178 237 0.2985856831073761
178 238 0.3109949231147766
178 239 0.31202197074890137
178 240 0.3222784996032715
178 241 0.3245028257369995
178 242 0.27649858593940735
178 244 0.31861355900764465
178 246 0.10181841999292374
178 247 0.3184456527233124
178 248 0.3246704339981079
178 249 0.32568132877349854
178 250 0.06067574396729469
178 251 0.07787612080574036
178 252 0.33194443583488464
178 253 0.3079169690608978
178 254 0.3128301203250885
178 255 0.31529271602630615
179 180 0.09719410538673401
179 181 0.37625932693481445
179 182 0.3792527914047241
179 183 0.22301287949085236
179 185 0.38918808102607727
179 186 0.3802526593208313
179 187 0.39339184761047363
179 189 0.37416717410087585
179 190 0.3927766978740692
179 191 0.0653720498085022
179 192 0.3903467357158661
179 193 0.1717183142900467
179 195 0.375710129737854
179 196 0.10591482371091843
179 197 0.3573821485042572
179 198 0.4010296165943146
179 200 0.056613851338624954
179 201 0.3717171847820282
179 202 0.37583717703819275
179 203 0.38930606842041016
179 204 0.37165555357933044
179 205 0.3920345902442932
179 206 0.06661733984947205
179 207 0.3848533034324646
179 208 0.05008354038000107
179 209 0.40522897243499756
179 210 0.3862030804157257
179 212 0.09331811964511871
179 213 0.40263134241104126
179 214 0.38802623748779297
179 215 0.38364118337631226
179 216 0.40041089057922363
179 217 0.39100804924964905
179 218 0.3525351583957672
179 219 0.406946063041687
179 220 0.3976454734802246
179 221 0.3808494508266449
179 222 0.3605613708496094
179 223 0.38954389095306396
179 225 0.39567238092422485
179 226 0.3854067623615265
179 227 0.3904661536216736
179 230 0.39352041482925415
179 231 0.38958436250686646
179 232 0.3939271569252014
179 233 0.3991202116012573
179 235 0.37965261936187744
179 236 0.06052275747060776
179 237 0.3834402561187744
179 238 0.3651134669780731
179 239 0.3986644446849823
179 240 0.3828592300415039
179 241 0.3909483850002289
179 242 0.39820608496665955
179 244 0.3562493622303009
179 247 0.3742545545101166
179 248 0.37056341767311096
179 249 0.38204264640808105
179 250 0.10003126412630081
179 252 0.38462403416633606
179 253 0.3860165476799011
179 254 0.39453962445259094
179 255 0.38724949955940247
180 181 0.359720915555954
180 182 0.33477988839149475
180 185 0.35884329676628113
180 186 0.3613941967487335
180 187 0.3447651267051697
180 188 0.1090162843465805
180 189 0.352495014667511
180 190 0.34422600269317627
180 192 0.33763518929481506
180 193 0.3679058253765106
180 195 0.3539486229419708
180 196 0.09832102805376053
180 197 0.34749922156333923
180 198 0.35636767745018005
180 199 0.06309151649475098
180 200 0.15328483283519745
180 201 0.35784637928009033
180 202 0.35011065006256104
180 203 0.348053902387619
180 204 0.36873334646224976
180 205 0.34585100412368774
180 206 0.1442958116531372
180 207 0.3689277470111847
180 208 0.08437563478946686
180 209 0.3319666087627411
180 210 0.3513431251049042
180 212 0.16844233870506287
180 213 0.346032977104187
180 214 0.36020588874816895
180 215 0.36215105652809143
180 216 0.3530380129814148
180 217 0.34494540095329285
180 218 0.35372892022132874
180 219 0.35597482323646545
180 220 0.33495619893074036
180 221 0.36757320165634155
180 222 0.3589109778404236
180 223 0.3608216941356659
180 225 0.36649832129478455
180 226 0.36731481552124023
180 227 0.321390837430954
180 230 0.34819480776786804
180 231 0.3492778539657593
180 232 0.3541315793991089
180 233 0.32772284746170044
180 234 0.14789476990699768
180 235 0.3407653272151947
180 236 0.06554735451936722
180 237 0.36476728320121765
180 238 0.3617720305919647
180 239 0.35655149817466736
180 240 0.3638714849948883
180 241 0.35655149817466736
180 242 0.3404724597930908
180 244 0.34358155727386475
180 246 0.05453869327902794
180 247 0.35184475779533386
180 248 0.35673561692237854
180 249 0.3466636836528778
180 252 0.36064207553863525
180 253 0.35506772994995117
180 254 0.3574749827384949
180 255 0.34621524810791016
181 182 0.9484758377075195
181 183 0.14444208145141602
181 184 0.20758530497550964
181 185 0.9442027807235718
181 186 0.9560256600379944
181 187 0.9565250277519226
181 188 0.15716812014579773
181 189 0.9637675881385803
181 190 0.9539833068847656
181 191 0.07938841730356216
181 192 0.9395974278450012
181 193 0.6558315753936768
181 194 0.1004192903637886
181 195 0.9604499936103821
181 196 0.16537363827228546
181 197 0.948270857334137
181 198 0.9615405797958374
181 199 0.13363061845302582
181 200 0.2635508179664612
181 201 0.957170844078064
181 202 0.9383743405342102
181 203 0.9434384107589722
181 204 0.9489754438400269
181 205 0.9500789642333984
181 206 0.10786762088537216
181 207 0.9494757652282715
181 208 0.4437747299671173
181 209 0.9505788683891296
181 210 0.9609465003013611
181 211 0.08574929088354111
181 212 0.3179435133934021
181 213 0.9484758377075195
181 214 0.9317600727081299
181 215 0.950682520866394
181 216 0.9621351957321167
181 217 0.9517841339111328
181 218 0.9517319202423096
181 219 0.9503828287124634
181 220 0.9510795474052429
181 221 0.9512335062026978
181 222 0.9304717779159546
181 223 0.9637675881385803
181 224 0.13750477135181427
181 225 0.9515327215194702
181 226 0.9652056694030762
181 227 0.9546939134597778
181 228 0.11458730697631836
181 229 0.05613608658313751
181 230 0.9609954953193665
181 231 0.9577181935310364
181 232 0.9599042534828186
181 233 0.9472148418426514
181 234 0.14510737359523773
181 235 0.9526336789131165
181 236 0.17149858176708221
181 237 0.9522823095321655
181 238 0.9538805484771729
181 239 0.9589132070541382
181 240 0.9520360231399536
181 241 0.9589132070541382
181 242 0.9448999166488647
181 244 0.9505284428596497
181 246 0.27859586477279663
181 247 0.9500274658203125
181 248 0.9604499936103821
181 249 0.9592607021331787
181 250 0.1974032074213028
181 251 0.103943832218647
181 252 0.9592607021331787
181 253 0.9343532919883728
181 254 0.9624406099319458
181 255 0.953183650970459
182 183 0.1506188064813614
182 184 0.18801286816596985
182 185 0.9366713166236877
182 186 0.9559832811355591
182 187 0.952287495136261
182 188 0.15150630474090576
182 189 0.9668585658073425
182 190 0.9539398550987244
182 191 0.05298129469156265
182 192 0.9384627342224121
182 193 0.6655979156494141
182 194 0.12565617263317108
182 195 0.9593749046325684
182 196 0.13489066064357758
182 197 0.9460972547531128
182 198 0.9594271183013916
182 199 0.11803341656923294
182 200 0.2485337257385254
182 201 0.9571317434310913
182 202 0.9382964968681335
182 203 0.9433722496032715
182 204 0.9499738216400146
182 205 0.9489744305610657
182 206 0.06298897415399551
182 207 0.9473134875297546
182 208 0.43522146344184875
182 209 0.9589474201202393
182 210 0.957784116268158
182 211 0.08583950251340866
182 212 0.30882421135902405
182 213 0.9526315927505493
182 214 0.9348796606063843
182 215 0.9537835717201233
182 216 0.9610671997070312
182 217 0.9527854323387146
182 218 0.9569348692893982
182 219 0.9524397850036621
182 220 0.9510270357131958
182 221 0.9522342681884766
182 222 0.9400454163551331
182 223 0.9627045392990112
182 224 0.11470786482095718
182 225 0.9514789581298828
182 226 0.9620563983917236
182 227 0.9472595453262329
182 228 0.11470786482095718
182 229 0.05619514361023903
182 230 0.9640910029411316
182 231 0.9639531970024109
182 232 0.9598708152770996
182 233 0.9492685794830322
182 234 0.13834288716316223
182 235 0.9557434320449829
182 236 0.1287592649459839
182 237 0.9606332182884216
182 238 0.9548840522766113
182 239 0.9588796496391296
182 240 0.9445942640304565
182 241 0.9630486965179443
182 242 0.9384627342224121
182 244 0.9515284895896912
182 245 0.07254762947559357
182 246 0.3026965856552124
182 247 0.9499738216400146
182 248 0.9583321213722229
182 249 0.9539936780929565
182 250 0.2077447772026062
182 251 0.11272429674863815
182 252 0.9571317434310913
182 253 0.9385504722595215
182 254 0.9561384320259094
182 255 0.9552397727966309
183 185 0.146376833319664
183 186 0.13798952102661133
183 187 0.17407765984535217
183 189 0.15454302728176117
183 190 0.16781215369701385
183 192 0.1640556901693344
183 193 0.051948536187410355
183 194 0.09589266031980515
183 195 0.16711726784706116
183 196 0.07018624246120453
183 197 0.15730731189250946
183 198 0.16694490611553192
183 200 0.06565321236848831
183 201 0.13171528279781342
183 202 0.1767766922712326
183 203 0.16361834108829498
183 204 0.15672606229782104
183 205 0.16860434412956238
183 206 0.2575131058692932
183 207 0.15077759325504303
183 208 0.11616045981645584
183 209 0.16869306564331055
183 210 0.15526053309440613
183 213 0.17471781373023987
183 214 0.17142143845558167
183 215 0.16833902895450592
183 216 0.17264044284820557
183 217 0.1741686761379242
183 218 0.15631482005119324
183 219 0.16335758566856384
183 220 0.17480984330177307
183 221 0.17425984144210815
183 222 0.11683075875043869
183 223 0.16643095016479492
183 225 0.1630118489265442
183 226 0.16089966893196106
183 227 0.16904933750629425
183 230 0.1729964166879654
183 231 0.1615666151046753
183 232 0.16720366477966309
183 233 0.16335758566856384
183 234 0.0791807547211647
183 235 0.16283980011940002
183 237 0.1682508885860443
183 238 0.13813377916812897
183 239 0.16703101992607117
183 240 0.17517942190170288
183 241 0.16106562316417694
183 242 0.1640556901693344
183 244 0.15077759325504303
183 247 0.16878192126750946
183 248 0.15518032014369965
183 249 0.15566350519657135
183 252 0.16763761639595032
183 253 0.1287762075662613
183 254 0.16746364533901215
183 255 0.17480984330177307
184 185 0.20535710453987122
184 186 0.20693422853946686
184 187 0.20704232156276703
184 188 0.08216865360736847
184 189 0.20501713454723358
184 190 0.19195294380187988
184 191 0.06225728243589401
184 192 0.20458613336086273
184 193 0.1208748072385788
184 195 0.2107640653848648
184 197 0.21365289390087128
184 198 0.19585736095905304
184 199 0.1109590083360672
184 200 0.08986064791679382
184 201 0.21142031252384186
184 202 0.2052464485168457
184 203 0.20404069125652313
184 204 0.18811188638210297
184 205 0.207694411277771
184 207 0.1783052384853363
184 208 0.23318643867969513
184 209 0.20780369639396667
184 210 0.21087300777435303
184 211 0.05763904005289078
184 212 0.1629316806793213
184 213 0.17811745405197144
184 214 0.20613689720630646
184 215 0.18761830031871796
184 216 0.2004440724849701
184 217 0.19235409796237946
184 218 0.21230490505695343
184 219 0.14906015992164612
184 220 0.18316157162189484
184 221 0.21219372749328613
184 222 0.16664116084575653
184 223 0.20501713454723358
184 224 0.0718885138630867
184 225 0.1884099394083023
184 226 0.21043820679187775
184 227 0.1983262449502945
184 228 0.0718885138630867
184 230 0.21065527200698853
184 231 0.19165369868278503
184 232 0.21087300777435303
184 233 0.19377820193767548
184 235 0.20802278816699982
184 236 0.11527808010578156
184 237 0.20725899934768677
184 238 0.21208271384239197
184 239 0.2057563215494156
184 240 0.213313490152359
184 241 0.21065527200698853
184 242 0.20458613336086273
184 244 0.20802278816699982
184 246 0.09591715782880783
184 247 0.1930622011423111
184 248 0.20586258172988892
184 249 0.20650357007980347
184 251 0.122270867228508
184 252 0.18683655560016632
184 253 0.20143786072731018
184 254 0.20628923177719116
184 255 0.20791314542293549
185 186 0.9529139995574951
185 187 0.9396095871925354
185 188 0.14747530221939087
185 189 0.9493426084518433
185 190 0.9423804879188538
185 191 0.08045179396867752
185 192 0.9285395741462708
185 193 0.6600221395492554
185 194 0.093284010887146
185 195 0.9458678364753723
185 196 0.1675887405872345
185 197 0.934219479560852
185 198 0.9491105079650879
185 199 0.11152280867099762
185 200 0.22450286149978638
185 201 0.94669508934021
185 202 0.9369273781776428
185 203 0.9378543496131897
185 204 0.9360984563827515
185 205 0.9393738508224487
185 206 0.10020309686660767
185 207 0.9365920424461365
185 208 0.41547638177871704
185 209 0.9483929872512817
185 210 0.9453005790710449
185 211 0.08689787238836288
185 212 0.32539239525794983
185 213 0.9409337043762207
185 214 0.922583818435669
185 215 0.9368323087692261
185 216 0.9486991167068481
185 217 0.9379763603210449
185 218 0.9400224089622498
185 219 0.9406402707099915
185 220 0.9360984563827515
185 221 0.9427185654640198
185 222 0.9211834669113159
185 223 0.9535478949546814
185 224 0.13934659957885742
185 225 0.9375815987586975
185 226 0.9507297277450562
185 227 0.9407851696014404
185 228 0.100639209151268
185 230 0.947489857673645
185 231 0.9462034106254578
185 232 0.9516377449035645
185 233 0.9363597631454468
185 234 0.1540534645318985
185 235 0.9355253577232361
185 236 0.1675887405872345
185 237 0.9405929446220398
185 238 0.9443499445915222
185 239 0.9517103433609009
185 240 0.9316669702529907
185 241 0.9527654647827148
185 242 0.9296143054962158
185 244 0.9355253577232361
185 245 0.07344210892915726
185 246 0.26166945695877075
185 247 0.9360984563827515
185 248 0.9500904679298401
185 249 0.9414003491401672
185 250 0.18978852033615112
185 251 0.10533612221479416
185 252 0.9456361532211304
185 253 0.9251762628555298
185 254 0.9446547627449036
185 255 0.9414293169975281
186 187 0.956658124923706
186 188 0.1682807356119156
186 189 0.9659156203269958
186 190 0.9624614119529724
186 191 0.07913941890001297
186 192 0.9461649060249329
186 193 0.6763705015182495
186 194 0.10844635218381882
186 195 0.961591362953186
186 196 0.15264347195625305
186 197 0.9526653289794922
186 198 0.9637115597724915
186 199 0.12537550926208496
186 200 0.2513013780117035
186 201 0.9625020623207092
186 202 0.9492186903953552
186 203 0.9510229229927063
186 204 0.9522916078567505
186 205 0.9523374438285828
186 206 0.09856852889060974
186 207 0.9559417963027954
186 208 0.4176812469959259
186 209 0.9570314884185791
186 210 0.9631273746490479
186 211 0.08548034727573395
186 212 0.3200843930244446
186 213 0.9549350738525391
186 214 0.9352287650108337
186 215 0.9560690522193909
186 216 0.9642963409423828
186 217 0.9550684094429016
186 218 0.9571150541305542
186 219 0.9505600333213806
186 220 0.9522916078567505
186 221 0.9555683732032776
186 222 0.9371820092201233
186 223 0.9690181612968445
186 224 0.13707350194454193
186 225 0.9506491422653198
186 226 0.9652888774871826
186 227 0.952750027179718
186 228 0.12945829331874847
186 229 0.05596001818776131
186 230 0.9621329307556152
186 231 0.9599199295043945
186 232 0.967283308506012
186 233 0.951612651348114
186 234 0.14465224742889404
186 235 0.9527937769889832
186 236 0.15874920785427094
186 237 0.9587048292160034
186 238 0.9592481255531311
186 239 0.9631708264350891
186 240 0.9490500092506409
186 241 0.9631708264350891
186 242 0.9451077580451965
186 244 0.9517444968223572
186 245 0.0722440779209137
186 246 0.2844957709312439
186 247 0.9522916078567505
186 248 0.9636682271957397
186 249 0.9604187607765198
186 250 0.20687554776668549
186 251 0.103617824614048
186 252 0.9625020623207092
186 253 0.9431588649749756
186 254 0.9615030884742737
186 255 0.9554380178451538
187 188 0.16256283223628998
187 189 0.9674549102783203
187 190 0.9619209170341492
187 191 0.06598396599292755
187 192 0.9456014037132263
187 193 0.6526089906692505
187 194 0.1168493926525116
187 195 0.9652105569839478
187 196 0.1588321328163147
187 197 0.9521097540855408
187 198 0.9621391892433167
187 199 0.12544101476669312
187 200 0.27048060297966003
187 201 0.9619625806808472
187 202 0.94016432762146
187 203 0.9473000764846802
187 204 0.9517398476600647
187 205 0.955979585647583
187 206 0.11655091494321823
187 207 0.9532914757728577
187 208 0.4246397614479065
187 209 0.9575313925743103
187 210 0.9615514278411865
187 211 0.08552499115467072
187 212 0.32025158405303955
187 213 0.9543850421905518
187 214 0.9474403858184814
187 215 0.9597081542015076
187 216 0.9658363461494446
187 217 0.9597492814064026
187 218 0.9544752836227417
187 219 0.9500033855438232
187 220 0.9569864869117737
187 221 0.9560675024986267
187 222 0.9333899021148682
187 223 0.9695243239402771
187 224 0.12190674990415573
187 225 0.9500946998596191
187 226 0.9647557139396667
187 227 0.9521966576576233
187 228 0.12952592968940735
187 229 0.05598925054073334
187 230 0.9636739492416382
187 231 0.9593797326087952
187 232 0.9615514278411865
187 233 0.9500033855438232
187 234 0.14472781121730804
187 235 0.9553912281990051
187 236 0.14661426842212677
187 237 0.9612976312637329
187 238 0.9587038159370422
187 239 0.964712381362915
187 240 0.954803466796875
187 241 0.9636739492416382
187 242 0.9519477486610413
187 244 0.9522415995597839
187 245 0.07228181511163712
187 246 0.28803300857543945
187 247 0.9527891278266907
187 248 0.9620936512947083
187 249 0.9619625806808472
187 250 0.20193524658679962
187 251 0.11231128126382828
187 252 0.9588359594345093
187 253 0.9383140802383423
187 254 0.9609642624855042
187 255 0.9580357670783997
188 189 0.17247077822685242
188 190 0.16230860352516174
188 192 0.1704290807247162
188 193 0.10886382311582565
188 195 0.17318198084831238
188 197 0.1580001413822174
188 198 0.17300336062908173
188 201 0.15055838227272034
188 202 0.17687498033046722
188 203 0.17583592236042023
188 204 0.18073728680610657
188 205 0.16889892518520355
188 206 0.09962709248065948
188 207 0.17499926686286926
188 208 0.18725146353244781
188 209 0.15150630474090576
188 210 0.16749580204486847
188 212 0.2791169285774231
188 213 0.16898779571056366
188 214 0.15395669639110565
188 215 0.17444808781147003
188 216 0.17273645102977753
188 217 0.18007436394691467
188 218 0.16281822323799133
188 219 0.1580001413822174
188 220 0.16324657201766968
188 221 0.17435672879219055
188 222 0.16057778894901276
188 223 0.16672174632549286
188 224 0.1270001232624054
188 225 0.15766574442386627
188 226 0.17291425168514252
188 227 0.15182627737522125
188 228 0.21166688203811646
188 230 0.16732284426689148
188 231 0.14469249546527863
188 232 0.1732715219259262
188 233 0.16970385611057281
188 235 0.14583271741867065
188 236 0.0678844228386879
188 237 0.18016862869262695
188 238 0.13941240310668945
188 239 0.17886234819889069
188 240 0.1811193823814392
188 241 0.16732284426689148
188 242 0.1645522117614746
188 244 0.15166603028774261
188 245 0.08032193034887314
188 246 0.07531100511550903
188 247 0.1690768152475357
188 248 0.17318198084831238
188 249 0.1795119345188141
188 251 0.09600307792425156
188 252 0.1563490927219391
188 253 0.15420833230018616
188 254 0.17932561039924622
188 255 0.13992562890052795
189 190 0.968008279800415
189 191 0.07840625196695328
189 192 0.9541574120521545
189 193 0.6715969443321228
189 194 0.12397117912769318
189 195 0.9763457179069519
189 196 0.1633276790380478
189 197 0.9594833850860596
189 198 0.9722553491592407
189 199 0.11645064502954483
189 200 0.2565179467201233
189 201 0.9690655469894409
189 202 0.9498817324638367
189 203 0.9568365812301636
189 204 0.9642506837844849
189 205 0.9642741680145264
189 206 0.08877760171890259
189 207 0.9637194871902466
189 208 0.4516333043575287
189 209 0.9647815227508545
189 210 0.9737623929977417
189 211 0.08468843251466751
189 212 0.32333704829216003
189 213 0.9647815227508545
189 214 0.9466155171394348
189 215 0.9648295044898987
189 216 0.9738338589668274
189 217 0.9648550152778625
189 218 0.9679384827613831
189 219 0.9594833850860596
189 220 0.9632115960121155
189 221 0.9663957953453064
189 222 0.948638379573822
189 223 0.9764344096183777
189 224 0.13580362498760223
189 225 0.9605748653411865
189 226 0.9738090634346008
189 227 0.9595341682434082
189 228 0.13580362498760223
189 229 0.05544159188866615
189 230 0.9727569222450256
189 231 0.9695937633514404
189 232 0.9706743359565735
189 233 0.9584404826164246
189 234 0.1501365602016449
189 235 0.964759111404419
189 236 0.14518016576766968
189 237 0.9643242359161377
189 238 0.9658902287483215
189 239 0.9717286229133606
189 240 0.9600417017936707
189 241 0.9717286229133606
189 242 0.9531100392341614
189 244 0.9637194871902466
189 245 0.07157479226589203
189 246 0.3053484857082367
189 247 0.9632115960121155
189 248 0.9763457179069519
189 249 0.9731935858726501
189 250 0.20495902001857758
189 251 0.11976753175258636
189 252 0.970097541809082
189 253 0.9492197632789612
189 254 0.9701216220855713
189 255 0.9611335396766663
190 191 0.07905694842338562
190 192 0.9515151977539062
190 193 0.6545981168746948
190 194 0.125
190 195 0.9647386074066162
190 196 0.16468313336372375
190 197 0.952724039554596
190 198 0.965816080570221
190 199 0.1252448707818985
190 200 0.24723587930202484
190 201 0.9594177603721619
190 202 0.9439915418624878
190 203 0.9479252696037292
190 204 0.9544423222541809
190 205 0.9555312395095825
190 206 0.11636866629123688
190 207 0.95389723777771
190 208 0.4374352693557739
190 209 0.9549869298934937
190 210 0.9621236324310303
190 211 0.08539125323295593
190 212 0.3103463649749756
190 213 0.9570811986923218
190 214 0.940638542175293
190 215 0.9582074284553528
190 216 0.9674301147460938
190 217 0.9613799452781677
190 218 0.9592523574829102
190 219 0.952724039554596
190 220 0.956537663936615
190 221 0.9566612839698792
190 222 0.9340677261352539
190 223 0.970074474811554
190 224 0.12171611934900284
190 225 0.9517570734024048
190 226 0.9642828702926636
190 227 0.9528064131736755
190 228 0.12171611934900284
190 229 0.055901702493429184
190 230 0.9652774333953857
190 231 0.9599595665931702
190 232 0.9621236324310303
190 233 0.952724039554596
190 234 0.1445014923810959
190 235 0.9549455046653748
190 236 0.15248438715934753
190 237 0.9577056169509888
190 238 0.9572045803070068
190 239 0.9673510789871216
190 240 0.9533103704452515
190 241 0.9632037878036499
190 242 0.9525713324546814
190 244 0.9518007636070251
190 245 0.05773502215743065
190 246 0.2943492531776428
190 247 0.955489993095398
190 248 0.9657759666442871
190 249 0.9614989161491394
190 250 0.2066599428653717
190 251 0.11213564872741699
190 252 0.9604583382606506
190 253 0.9368468523025513
190 254 0.9625800251960754
190 255 0.9533945918083191
191 192 0.08014974743127823
191 195 0.07872957736253738
191 196 0.07715167850255966
191 197 0.07980868965387344
191 198 0.07864838093519211
191 199 0.0990147590637207
191 201 0.07897471636533737
191 202 0.08040843904018402
191 203 0.06661339849233627
191 204 0.0795137956738472
191 205 0.07943014800548553
191 207 0.06629643589258194
191 208 0.08512565493583679
191 209 0.07947193831205368
191 210 0.07877027988433838
191 213 0.05298129469156265
191 214 0.08075728267431259
191 215 0.07930515706539154
191 216 0.06543920189142227
191 217 0.07922215759754181
191 218 0.06608763337135315
191 219 0.07980868965387344
191 220 0.0795137956738472
191 221 0.07926362752914429
191 222 0.06759226322174072
191 223 0.06533854454755783
191 224 0.09622504562139511
191 225 0.07963977754116058
191 226 0.07860786467790604
191 227 0.07963977754116058
191 230 0.07868894934654236
191 231 0.06577809154987335
191 232 0.07877027988433838
191 233 0.0665072426199913
191 235 0.06629643589258194
191 236 0.07715167850255966
191 238 0.07922215759754181
191 239 0.07868894934654236
191 240 0.07968190312385559
191 241 0.07868894934654236
191 242 0.08014974743127823
191 244 0.07955572009086609
191 247 0.0795137956738472
191 248 0.07872957736253738
191 249 0.06581226736307144
191 252 0.06581226736307144
191 253 0.05392618477344513
191 254 0.07889275252819061
191 255 0.06626150012016296
192 193 0.6331341862678528
192 194 0.1182793602347374
192 195 0.9528336524963379
192 196 0.17314325273036957
192 197 0.9371087551116943
192 198 0.9518508315086365
192 199 0.1269761323928833
192 200 0.2699344754219055
192 201 0.9463056921958923
192 202 0.9291133880615234
192 203 0.9375366568565369
192 204 0.9410814046859741
192 205 0.9443355202674866
192 206 0.10890206694602966
192 207 0.9437031149864197
192 208 0.41391655802726746
192 209 0.9416475296020508
192 210 0.9522739052772522
192 211 0.07420425117015839
192 212 0.33052700757980347
192 213 0.9395243525505066
192 214 0.9223564267158508
192 215 0.9460276961326599
192 216 0.9535292983055115
192 217 0.9482124447822571
192 218 0.948146402835846
192 219 0.9371087551116943
192 220 0.9410814046859741
192 221 0.949767529964447
192 222 0.9209755063056946
192 223 0.957299530506134
192 224 0.10797379165887833
192 225 0.9383170008659363
192 226 0.950310468673706
192 227 0.9425724148750305
192 228 0.13882344961166382
192 229 0.05667443200945854
192 230 0.9491884708404541
192 231 0.9479231238365173
192 232 0.9491172432899475
192 233 0.9349765181541443
192 234 0.13952282071113586
192 235 0.9394521713256836
192 236 0.16077587008476257
192 237 0.9455322623252869
192 238 0.9429210424423218
192 239 0.9554953575134277
192 240 0.9398776888847351
192 241 0.9512907266616821
192 242 0.946466863155365
192 244 0.9437031149864197
192 245 0.05853310227394104
192 246 0.25725695490837097
192 247 0.9389570951461792
192 248 0.9507303237915039
192 249 0.9484156966209412
192 250 0.20951662957668304
192 251 0.10494066029787064
192 252 0.9494706392288208
192 253 0.9260250329971313
192 254 0.9495390057563782
192 255 0.9421435594558716
193 194 0.060192931443452835
193 195 0.671369194984436
193 196 0.10573610663414001
193 197 0.6668991446495056
193 198 0.6631914973258972
193 199 0.1696242243051529
193 200 0.19231930375099182
193 201 0.6824791431427002
193 202 0.6520137190818787
193 203 0.6497049331665039
193 204 0.6644349694252014
193 205 0.6667598485946655
193 207 0.6632710695266724
193 208 0.3467525839805603
193 209 0.6595470309257507
193 210 0.6567226052284241
193 211 0.05286805331707001
193 212 0.23096083104610443
193 213 0.64441978931427
193 214 0.6502307653427124
193 215 0.6657106280326843
193 216 0.666652500629425
193 217 0.6484262347221375
193 218 0.6672201752662659
193 219 0.6668991446495056
193 220 0.6568673849105835
193 221 0.6563094258308411
193 222 0.6669716835021973
193 223 0.6671196222305298
193 224 0.12088643014431
193 225 0.6503285765647888
193 226 0.6748201251029968
193 227 0.6503285765647888
193 228 0.13187609612941742
193 230 0.6680270433425903
193 231 0.661090075969696
193 232 0.6627200841903687
193 233 0.6395547986030579
193 234 0.11928641051054001
193 235 0.6481278538703918
193 236 0.07049074023962021
193 237 0.6713970303535461
193 238 0.6695378422737122
193 239 0.6560445427894592
193 240 0.6582561135292053
193 241 0.6605379581451416
193 242 0.6285573244094849
193 244 0.6602423787117004
193 245 0.0834057629108429
193 246 0.19061847031116486
193 247 0.6492998003959656
193 248 0.6638762354850769
193 249 0.6644400954246521
193 250 0.08009803295135498
193 251 0.062305599451065063
193 252 0.6779693961143494
193 253 0.6759287118911743
193 254 0.6712589859962463
193 255 0.6629214882850647
194 195 0.10788474231958389
194 197 0.1177760437130928
194 198 0.12435399740934372
194 200 0.06085805967450142
194 201 0.09157133102416992
194 202 0.11018531769514084
194 203 0.10953802615404129
194 204 0.12572236359119415
194 205 0.10884474217891693
194 207 0.11740273237228394
194 209 0.12565617263317108
194 210 0.12454674392938614
194 213 0.12565617263317108
194 214 0.1276884824037552
194 215 0.12539246678352356
194 216 0.12416214495897293
194 217 0.12526123225688934
194 218 0.1170329600572586
194 219 0.1177760437130928
194 220 0.12572236359119415
194 221 0.10861656069755554
194 222 0.12824729084968567
194 223 0.1157064288854599
194 224 0.06085805967450142
194 225 0.10913200676441193
194 226 0.10771795362234116
194 227 0.08394770324230194
194 230 0.11612360179424286
194 231 0.12480514496564865
194 232 0.09963739663362503
194 233 0.1177760437130928
194 235 0.11740273237228394
194 237 0.12532679736614227
194 238 0.12526123225688934
194 239 0.12441814690828323
194 240 0.10918973386287689
194 241 0.09123997390270233
194 242 0.1098308339715004
194 244 0.11740273237228394
194 246 0.13533298671245575
194 247 0.12572236359119415
194 248 0.1161835715174675
194 249 0.12486998736858368
194 252 0.1082206591963768
194 253 0.10231773555278778
194 254 0.10810833424329758
194 255 0.09219640493392944
195 196 0.17007532715797424
195 197 0.9602984189987183
195 198 0.9711048007011414
195 199 0.1325216293334961
195 200 0.2613636255264282
195 201 0.9699528813362122
195 202 0.9474682807922363
195 203 0.9544889330863953
195 204 0.9588368535041809
195 205 0.9630393385887146
195 206 0.0980580747127533
195 207 0.9572546482086182
195 208 0.4624316096305847
195 209 0.9593749046325684
195 210 0.9674419164657593
195 211 0.08503766357898712
195 212 0.3246704339981079
195 213 0.9572893381118774
195 214 0.9505190849304199
195 215 0.9604833126068115
195 216 0.9696065187454224
195 217 0.9615572094917297
195 218 0.9625645875930786
195 219 0.9561095833778381
195 220 0.956750214099884
195 221 0.9610204100608826
195 222 0.9365857839584351
195 223 0.9722304344177246
195 224 0.13636362552642822
195 225 0.9593110084533691
195 226 0.9716359972953796
195 227 0.9603559970855713
195 228 0.13636362552642822
195 229 0.05567022040486336
195 230 0.9705731868743896
195 231 0.9642704129219055
195 232 0.966408371925354
195 233 0.9540151357650757
195 234 0.14390315115451813
195 235 0.960386335849762
195 236 0.17007532715797424
195 237 0.9620605111122131
195 238 0.9625967144966125
195 239 0.9674755930900574
195 240 0.9566817879676819
195 241 0.9685081243515015
195 242 0.9559887647628784
195 244 0.960386335849762
195 245 0.07186995446681976
195 246 0.29649972915649414
195 247 0.9609236121177673
195 248 0.9700413346290588
195 249 0.9658077955245972
195 250 0.18572574853897095
195 251 0.12026142328977585
195 252 0.9647715091705322
195 253 0.9435815215110779
195 254 0.9668757319450378
195 255 0.9619669318199158
196 197 0.17240646481513977
196 198 0.16989991068840027
196 200 0.06681530922651291
196 201 0.15841881930828094
196 202 0.15509113669395447
196 203 0.15418004989624023
196 204 0.17176944017410278
196 205 0.15320421755313873
196 206 0.15724273025989532
196 207 0.16572214663028717
196 208 0.10508138686418533
196 209 0.13489066064357758
196 210 0.1640859842300415
196 213 0.15328483283519745
196 214 0.1619945466518402
196 215 0.16520018875598907
196 216 0.1635793000459671
196 217 0.16502730548381805
196 218 0.14684461057186127
196 219 0.14777696132659912
196 220 0.15950019657611847
196 221 0.17122900485992432
196 222 0.1627034991979599
196 223 0.16937686502933502
196 225 0.17204159498214722
196 226 0.1698123961687088
196 227 0.17204159498214722
196 230 0.16391657292842865
196 231 0.1400669664144516
196 232 0.15193146467208862
196 233 0.17240646481513977
196 235 0.15344643592834473
196 236 0.1785714328289032
196 237 0.14065240323543549
196 238 0.16502730548381805
196 239 0.16391657292842865
196 240 0.15983740985393524
196 241 0.15784558653831482
196 242 0.17314325273036957
196 244 0.15958429872989655
196 247 0.15336556732654572
196 248 0.17007532715797424
196 249 0.1523257941007614
196 252 0.1462327539920807
196 253 0.14353710412979126
196 254 0.1704278290271759
196 255 0.16563481092453003
197 198 0.9551233649253845
197 199 0.13433803617954254
197 200 0.2687858045101166
197 201 0.9580360651016235
197 202 0.9390637278556824
197 203 0.9399267435073853
197 204 0.9434226155281067
197 205 0.9498258829116821
197 206 0.1084386557340622
197 207 0.9418036937713623
197 208 0.45971155166625977
197 209 0.9513826966285706
197 210 0.9555560350418091
197 211 0.08620323240756989
197 212 0.3164620101451874
197 213 0.9503256678581238
197 214 0.9388410449028015
197 215 0.9493861198425293
197 216 0.9557387828826904
197 217 0.9505001306533813
197 218 0.9493861198425293
197 219 0.9394904971122742
197 220 0.9455379247665405
197 221 0.9499432444572449
197 222 0.9246086478233337
197 223 0.9605263471603394
197 224 0.1151939183473587
197 225 0.9449173808097839
197 226 0.9598593711853027
197 227 0.9512733221054077
197 228 0.1151939183473587
197 229 0.05643326789140701
197 230 0.9577094316482544
197 231 0.9512388706207275
197 232 0.9607948064804077
197 233 0.9394904971122742
197 234 0.13198263943195343
197 235 0.9523857235908508
197 236 0.16009171307086945
197 237 0.9531062245368958
197 238 0.9536613821983337
197 239 0.9577094316482544
197 240 0.9570759534835815
197 241 0.9556161165237427
197 242 0.9392409920692444
197 244 0.9460365176200867
197 246 0.30397918820381165
197 247 0.9455379247665405
197 248 0.9550623893737793
197 249 0.9506826996803284
197 250 0.1882713884115219
197 251 0.11320194602012634
197 252 0.9496322274208069
197 253 0.9263882637023926
197 254 0.9559923410415649
197 255 0.9571720361709595
198 199 0.12459760159254074
198 200 0.25731009244918823
198 201 0.9648115634918213
198 202 0.9496529698371887
198 203 0.9587434530258179
198 204 0.9578478336334229
198 205 0.963087260723114
198 206 0.09795693308115005
198 207 0.9583529233932495
198 208 0.45302796363830566
198 209 0.9594271183013916
198 210 0.9685091376304626
198 211 0.08494995534420013
198 212 0.33057278394699097
198 213 0.9604688286781311
198 214 0.9431872963905334
198 215 0.9605321288108826
198 216 0.9727237224578857
198 217 0.9616038203239441
198 218 0.9605321288108826
198 219 0.9614001512527466
198 220 0.9588900804519653
198 221 0.9621071219444275
198 222 0.938809335231781
198 223 0.9722553491592407
198 224 0.1362229883670807
198 225 0.9562336802482605
198 226 0.9706338047981262
198 227 0.9583215117454529
198 228 0.12108709663152695
198 229 0.055612798780202866
198 230 0.969572126865387
198 231 0.9674144983291626
198 232 0.9685091376304626
198 233 0.9572156071662903
198 234 0.1437547206878662
198 235 0.96043860912323
198 236 0.1516963392496109
198 237 0.9610681533813477
198 238 0.9616038203239441
198 239 0.9685406684875488
198 240 0.9556950330734253
198 241 0.9685406684875488
198 242 0.9539520740509033
198 244 0.9583529233932495
198 245 0.07179581373929977
198 246 0.28946220874786377
198 247 0.9588900804519653
198 248 0.9700728058815002
198 249 0.9668819308280945
198 250 0.1905486285686493
198 251 0.12013737112283707
198 252 0.9648115634918213
198 253 0.9404876232147217
198 254 0.9689809083938599
198 255 0.9609746932983398
199 200 0.08574929088354111
199 201 0.13293425738811493
199 202 0.11942432075738907
199 203 0.11080791056156158
199 204 0.11809559166431427
199 205 0.13370086252689362
199 206 0.0672672837972641
199 207 0.09452628344297409
199 208 0.1348591297864914
199 209 0.10229562222957611
199 210 0.1325901299715042
199 211 0.09166985005140305
199 213 0.10229562222957611
199 214 0.12793859839439392
199 215 0.13349047303199768
199 216 0.13218069076538086
199 217 0.12550660967826843
199 218 0.12563809752464294
199 219 0.11853355914354324
199 220 0.12596863508224487
199 221 0.13342057168483734
199 222 0.10440503805875778
199 223 0.12421401590108871
199 225 0.13405373692512512
199 226 0.12453342229127884
199 227 0.13405373692512512
199 230 0.1246618703007698
199 231 0.13286522030830383
199 232 0.12479071319103241
199 233 0.07112013548612595
199 235 0.11815785616636276
199 236 0.09166985005140305
199 237 0.13342057168483734
199 238 0.13335075974464417
199 239 0.11687050759792328
199 240 0.13412463665008545
199 241 0.10907913744449615
199 242 0.11110410839319229
199 244 0.13391223549842834
199 246 0.05084928125143051
199 247 0.13384167850017548
199 248 0.12472623586654663
199 249 0.1094752699136734
199 252 0.13293425738811493
199 253 0.12814770638942719
199 254 0.1171732023358345
199 255 0.12596863508224487
200 201 0.26597708463668823
200 202 0.2553310692310333
200 203 0.2538311183452606
200 204 0.2754439115524292
200 205 0.24840299785137177
200 206 0.1307440996170044
200 207 0.25645098090171814
200 208 0.18020683526992798
200 209 0.2485337257385254
200 210 0.26149874925613403
200 212 0.0686802789568901
200 213 0.2523573040962219
200 214 0.26032426953315735
200 215 0.2709055542945862
200 216 0.25313496589660645
200 217 0.26299887895584106
200 218 0.2709055542945862
200 219 0.23422764241695404
200 220 0.267792671918869
200 221 0.2669501006603241
200 222 0.257561057806015
200 223 0.27160724997520447
200 224 0.0555555559694767
200 225 0.2567219138145447
200 226 0.26474156975746155
200 227 0.26821693778038025
200 230 0.27258652448654175
200 231 0.26204127073287964
200 232 0.25012922286987305
200 233 0.24190722405910492
200 234 0.05025188997387886
200 235 0.26410624384880066
200 236 0.08908707648515701
200 237 0.2669501006603241
200 238 0.27062201499938965
200 239 0.2688005864620209
200 240 0.2645251452922821
200 241 0.2460850477218628
200 242 0.24679724872112274
200 244 0.26793384552001953
200 246 0.16060400009155273
200 247 0.267792671918869
200 248 0.2651515007019043
200 249 0.2697767913341522
200 251 0.1574852019548416
200 252 0.2507784068584442
200 253 0.2607497572898865
200 254 0.26190534234046936
200 255 0.267792671918869
201 202 0.9451265335083008
201 203 0.9511479735374451
201 204 0.9544962048530579
201 205 0.957673966884613
201 206 0.08942126482725143
201 207 0.9529051184654236
201 208 0.4526667892932892
201 209 0.9634080529212952
201 210 0.9652701616287231
201 211 0.0853024423122406
201 212 0.31628668308258057
201 213 0.9539936780929565
201 214 0.9449750185012817
201 215 0.9561669826507568
201 216 0.9664239287376404
201 217 0.9572518467903137
201 218 0.9592984914779663
201 219 0.9527837038040161
201 220 0.9576359391212463
201 221 0.9577528834342957
201 222 0.9352315664291382
201 223 0.9690655469894409
201 224 0.1367882341146469
201 225 0.9560084939002991
201 226 0.9694879651069641
201 227 0.9570567011833191
201 228 0.1367882341146469
201 229 0.05584355816245079
201 230 0.9673807621002197
201 231 0.9620780944824219
201 232 0.9683805704116821
201 233 0.9496322274208069
201 234 0.14435119926929474
201 235 0.9549994468688965
201 236 0.1706048846244812
201 237 0.9598394632339478
201 238 0.9635083675384521
201 239 0.9642735719680786
201 240 0.9565141201019287
201 241 0.9684165716171265
201 242 0.9463056921958923
201 244 0.9560465812683105
201 245 0.05767497792840004
201 246 0.2872835099697113
201 247 0.9565893411636353
201 248 0.9658077955245972
201 249 0.9615384936332703
201 250 0.18126879632472992
201 251 0.12063587456941605
201 252 0.9625779390335083
201 253 0.9475841522216797
201 254 0.9615789651870728
201 255 0.966008722782135
202 203 0.9352063536643982
202 204 0.9398563504219055
202 205 0.9356741905212402
202 206 0.10014910250902176
202 207 0.9360873103141785
202 208 0.4471949636936188
202 209 0.9436216950416565
202 210 0.9490136504173279
202 211 0.062036458402872086
202 212 0.3315938115119934
202 213 0.9457517862319946
202 214 0.928580105304718
202 215 0.9416414499282837
202 216 0.9502925872802734
202 217 0.9427793622016907
202 218 0.9416414499282837
202 219 0.9326464533805847
202 220 0.9377251863479614
202 221 0.9432727694511414
202 222 0.9174259901046753
202 223 0.9519832134246826
202 224 0.12379688769578934
202 225 0.9370762705802917
202 226 0.9481104016304016
202 227 0.9434800148010254
202 228 0.11605957895517349
202 229 0.05685735493898392
202 230 0.945924699306488
202 231 0.9488669037818909
202 232 0.958514392375946
202 233 0.9347855448722839
202 234 0.14697177708148956
202 235 0.9371535181999207
202 236 0.1488874852657318
202 237 0.9432727694511414
202 238 0.9533962607383728
202 239 0.9543610215187073
202 240 0.9397076964378357
202 241 0.9533064961433411
202 242 0.9280391931533813
202 244 0.9371535181999207
202 245 0.05872201919555664
202 246 0.26841074228286743
202 247 0.9451842904090881
202 248 0.9495784044265747
202 249 0.9440681338310242
202 250 0.19481289386749268
202 251 0.11405263841152191
202 252 0.9451265335083008
202 253 0.9203415513038635
202 254 0.9494320154190063
202 255 0.9387907385826111
203 204 0.9417504668235779
203 205 0.9439343810081482
203 206 0.117662712931633
203 207 0.9464866518974304
203 208 0.43322688341140747
203 209 0.946548581123352
203 210 0.9539329409599304
203 211 0.08634082973003387
203 212 0.32647615671157837
203 213 0.9476073384284973
203 214 0.9274287223815918
203 215 0.9477317333221436
203 216 0.9551719427108765
203 217 0.946739912033081
203 218 0.943505585193634
203 219 0.9484328031539917
203 220 0.9438691139221191
203 221 0.9440675377845764
203 222 0.9196007251739502
203 223 0.9568365812301636
203 224 0.13845334947109222
203 225 0.944303572177887
203 226 0.9530133008956909
203 227 0.9421815872192383
203 228 0.13076148927211761
203 229 0.056523337960243225
203 230 0.9518995881080627
203 231 0.9496024250984192
203 232 0.956031858921051
203 233 0.9494961500167847
203 234 0.14610838890075684
203 235 0.9454267621040344
203 236 0.16651445627212524
203 237 0.9451234936714172
203 238 0.9477954506874084
203 239 0.9518995881080627
203 240 0.9405567646026611
203 241 0.9602863788604736
203 242 0.9364688396453857
203 244 0.9401272535324097
203 245 0.05837705358862877
203 246 0.2805177569389343
203 247 0.9417504668235779
203 248 0.9555378556251526
203 249 0.9500958323478699
203 250 0.18857190012931824
203 251 0.12210436910390854
203 252 0.9500958323478699
203 253 0.9267891645431519
203 254 0.9543650150299072
203 255 0.9449284672737122
204 205 0.9494742751121521
204 206 0.11704114079475403
204 207 0.9520296454429626
204 208 0.446731835603714
204 209 0.946814239025116
204 210 0.9582886099815369
204 211 0.061346229165792465
204 212 0.3184456527233124
204 213 0.9510270357131958
204 214 0.9300209283828735
204 215 0.9542859792709351
204 216 0.9605327844619751
204 217 0.9522374272346497
204 218 0.9500820636749268
204 219 0.9434226155281067
204 220 0.9473129510879517
204 221 0.95168536901474
204 222 0.9319413304328918
204 223 0.9611335396766663
204 224 0.1377219557762146
204 225 0.9477584362030029
204 226 0.9594379663467407
204 227 0.9467030167579651
204 228 0.1377219557762146
204 229 0.056224748492240906
204 230 0.9583419561386108
204 231 0.9540004730224609
204 232 0.9562008380889893
204 233 0.9423649907112122
204 234 0.13841576874256134
204 235 0.9478124976158142
204 236 0.17176944017410278
204 237 0.9506349563598633
204 238 0.9574868083000183
204 239 0.9593847990036011
204 240 0.9450918436050415
204 241 0.9583419561386108
204 242 0.9400192499160767
204 244 0.9478124976158142
204 245 0.07258584350347519
204 246 0.29945313930511475
204 247 0.9473129510879517
204 248 0.9577935338020325
204 249 0.9607757329940796
204 250 0.19771498441696167
204 251 0.12145934253931046
204 252 0.9555427432060242
204 253 0.9326130151748657
204 254 0.9597785472869873
204 255 0.9462592005729675
205 206 0.09893062710762024
205 207 0.9520812630653381
205 208 0.44851571321487427
205 209 0.9500264525413513
205 210 0.9572804570198059
205 211 0.0857943668961525
205 212 0.3023625612258911
205 213 0.9500264525413513
205 214 0.9354571104049683
205 215 0.950132429599762
205 216 0.9657595753669739
205 217 0.9522843956947327
205 218 0.9543318748474121
205 219 0.9487693309783936
205 220 0.9505268931388855
205 221 0.9517335295677185
205 222 0.929887056350708
205 223 0.9632362127304077
205 224 0.12993387877941132
205 225 0.9457070231437683
205 226 0.9605098962783813
205 227 0.9488699436187744
205 228 0.13757704198360443
205 229 0.05616559833288193
205 230 0.9594172239303589
205 231 0.9550866484642029
205 232 0.9624943733215332
205 233 0.947712779045105
205 234 0.14518363773822784
205 235 0.9489216804504395
205 236 0.16546055674552917
205 237 0.9517335295677185
205 238 0.9512355923652649
205 239 0.9604588747024536
205 240 0.947262167930603
205 241 0.9583754539489746
205 242 0.9390302896499634
205 244 0.9541876316070557
205 245 0.07250947505235672
205 246 0.2889401912689209
205 247 0.9494742751121521
205 248 0.9599125981330872
205 249 0.9587194323539734
205 250 0.18231412768363953
205 251 0.11266501247882843
205 252 0.9545374512672424
205 253 0.9369860291481018
205 254 0.9587688446044922
205 255 0.9505268931388855
206 207 0.11710286140441895
206 208 0.13494014739990234
206 209 0.08998426049947739
206 210 0.1159467026591301
206 213 0.10798110067844391
206 214 0.10972753912210464
206 215 0.11673403531312943
206 216 0.11558867245912552
206 217 0.11661186069250107
206 218 0.08979541808366776
206 219 0.09036555141210556
206 220 0.11704114079475403
206 221 0.11667290329933167
206 222 0.08265581727027893
206 223 0.11541087925434113
206 225 0.10820915549993515
206 226 0.10680706053972244
206 227 0.11722658574581146
206 230 0.11582698673009872
206 231 0.10724978148937225
206 232 0.1159467026591301
206 233 0.11747521162033081
206 235 0.09007912874221802
206 236 0.052414245903491974
206 237 0.09872322529554367
206 238 0.11661186069250107
206 239 0.11582698673009872
206 240 0.11728858947753906
206 241 0.08909768611192703
206 242 0.09982690215110779
206 244 0.09908703714609146
206 247 0.10803797841072083
206 248 0.10697244107723236
206 249 0.11624763160943985
206 252 0.11624763160943985
206 253 0.1007479876279831
206 254 0.10719414055347443
206 255 0.11704114079475403
207 208 0.44019514322280884
207 209 0.9462597370147705
207 210 0.959838330745697
207 211 0.07365428656339645
207 212 0.31861355900764465
207 213 0.950474739074707
207 214 0.9326529502868652
207 215 0.9537376761436462
207 216 0.9610392451286316
207 217 0.9527395367622375
207 218 0.9516345858573914
207 219 0.950269341468811
207 220 0.9457038640975952
207 221 0.952187180519104
207 222 0.9324327111244202
207 223 0.9637194871902466
207 224 0.11482879519462585
207 225 0.9450902938842773
207 226 0.9599438905715942
207 227 0.9450902938842773
207 228 0.13779455423355103
207 229 0.05625439062714577
207 230 0.9588472843170166
207 231 0.9545035362243652
207 232 0.9567050337791443
207 233 0.950269341468811
207 234 0.13156430423259735
207 235 0.9504218697547913
207 236 0.15958429872989655
207 237 0.9511362314224243
207 238 0.9506386518478394
207 239 0.9578039050102234
207 240 0.9434771537780762
207 241 0.9578039050102234
207 242 0.9426403045654297
207 244 0.947257399559021
207 245 0.07262410968542099
207 246 0.2859923541545868
207 247 0.9478124976158142
207 248 0.9562107920646667
207 249 0.9602352380752563
207 250 0.19274695217609406
207 251 0.11284314095973969
207 252 0.9581408500671387
207 253 0.9406125545501709
207 254 0.9571464657783508
207 255 0.9467582106590271
208 209 0.42620137333869934
208 210 0.45373013615608215
208 211 0.05254069343209267
208 212 0.1552707850933075
208 213 0.4329664409160614
208 214 0.4583010971546173
208 215 0.43205779790878296
208 216 0.44118788838386536
208 217 0.45858100056648254
208 218 0.4568111300468445
208 219 0.4076260030269623
208 220 0.4512442648410797
208 221 0.4543227553367615
208 222 0.4142760932445526
208 223 0.43605974316596985
208 224 0.08191219717264175
208 225 0.44969943165779114
208 226 0.45056405663490295
208 227 0.46099841594696045
208 228 0.13105951249599457
208 229 0.12038584798574448
208 230 0.45996013283729553
208 231 0.44795218110084534
208 232 0.4582003951072693
208 233 0.4257427155971527
208 234 0.059273894876241684
208 235 0.44696739315986633
208 236 0.1707572489976883
208 237 0.4273333251476288
208 238 0.44059741497039795
208 239 0.446563184261322
208 240 0.44541531801223755
208 241 0.45102882385253906
208 242 0.41619083285331726
208 244 0.45148220658302307
208 245 0.062166981399059296
208 246 0.21129639446735382
208 247 0.44898805022239685
208 248 0.44455984234809875
208 249 0.4526667892932892
208 251 0.1486075222492218
208 252 0.43922126293182373
208 253 0.4108498990535736
208 254 0.456674188375473
208 255 0.4422193765640259
209 210 0.9609141945838928
209 211 0.08583950251340866
209 212 0.3182780146598816
209 213 0.9568421244621277
209 214 0.9380886554718018
209 215 0.9495818614959717
209 216 0.9610671997070312
209 217 0.9506867527961731
209 218 0.9516826868057251
209 219 0.9492685794830322
209 220 0.9552397727966309
209 221 0.9501345157623291
209 222 0.9303763508796692
209 223 0.9627045392990112
209 224 0.13764944672584534
209 225 0.9472595453262329
209 226 0.9630976319313049
209 227 0.9546434879302979
209 228 0.09941348433494568
209 229 0.05619514361023903
209 230 0.9640910029411316
209 231 0.9608166813850403
209 232 0.9630008339881897
209 233 0.9492685794830322
209 234 0.1452600359916687
209 235 0.9515284895896912
209 236 0.14715343713760376
209 237 0.9564337730407715
209 238 0.9559334516525269
209 239 0.9609642028808594
209 240 0.9509267210960388
209 241 0.9630486965179443
209 242 0.9416475296020508
209 244 0.950474739074707
209 245 0.058038100600242615
209 246 0.28569117188453674
209 247 0.9478674530982971
209 248 0.961460530757904
209 249 0.956085741519928
209 250 0.18241006135940552
209 251 0.12139539420604706
209 252 0.9550396800041199
209 253 0.9364076256752014
209 254 0.9561384320259094
209 255 0.9605056643486023
210 211 0.07292710244655609
210 212 0.3279617130756378
210 213 0.9598708152770996
210 214 0.9446491599082947
210 215 0.9620209336280823
210 216 0.9711386561393738
210 217 0.9599741101264954
210 218 0.9609798192977905
210 219 0.9534605145454407
210 220 0.9562008380889893
210 221 0.9604765772819519
210 222 0.9381347894668579
210 223 0.9727330803871155
210 224 0.12127477675676346
210 225 0.9566702842712402
210 226 0.9700742959976196
210 227 0.9566702842712402
210 228 0.12127477675676346
210 229 0.055698998272418976
210 230 0.9669426679611206
210 231 0.9668413996696472
210 232 0.9689761996269226
210 233 0.9545083045959473
210 234 0.13712146878242493
210 235 0.9619272351264954
210 236 0.1640859842300415
210 237 0.9594359993934631
210 238 0.9641343355178833
210 239 0.9669426679611206
210 240 0.9550841450691223
210 241 0.96900874376297
210 242 0.9491172432899475
210 244 0.9587938785552979
210 245 0.05752567946910858
210 246 0.2899108827114105
210 247 0.9582886099815369
210 248 0.9674419164657593
210 249 0.967343807220459
210 250 0.2059105783700943
210 251 0.12032359093427658
210 252 0.9652701616287231
210 253 0.9440692663192749
210 254 0.9653041362762451
210 255 0.9593324661254883
211 213 0.08583950251340866
211 214 0.08722783625125885
211 215 0.08565936237573624
211 216 0.08481889218091965
211 217 0.08556970953941345
211 218 0.08565936237573624
211 219 0.07388848066329956
211 220 0.08588472008705139
211 221 0.0733838602900505
211 222 0.06257826834917068
211 223 0.08468843251466751
211 225 0.08602079749107361
211 226 0.0849061980843544
211 227 0.08602079749107361
211 230 0.08499377965927124
211 231 0.07307840883731842
211 232 0.08508162200450897
211 233 0.08620323240756989
211 235 0.0859300047159195
211 237 0.08561450242996216
211 238 0.08556970953941345
211 240 0.08606629818677902
211 241 0.08499377965927124
211 242 0.07420425117015839
211 244 0.0859300047159195
211 246 0.07924288511276245
211 247 0.08588472008705139
211 248 0.08503766357898712
211 249 0.07311637699604034
211 250 0.1180562749505043
211 252 0.07311637699604034
211 253 0.0748889148235321
211 254 0.08521391451358795
211 255 0.08588472008705139
212 213 0.3214292824268341
212 214 0.3138189911842346
212 215 0.3270440101623535
212 216 0.3238351345062256
212 217 0.3235603868961334
212 218 0.3333333432674408
212 219 0.3196266293525696
212 220 0.2806105315685272
212 221 0.33001574873924255
212 222 0.29589492082595825
212 223 0.32955509424209595
212 224 0.0686802789568901
212 225 0.2873709797859192
212 226 0.3117004632949829
212 227 0.3126343786716461
212 228 0.09157370775938034
212 229 0.05607721582055092
212 230 0.3057815432548523
212 231 0.3161223828792572
212 232 0.3279617130756378
212 233 0.28798043727874756
212 234 0.08283153176307678
212 235 0.3091498017311096
212 237 0.3205867409706116
212 238 0.3172776401042938
212 239 0.31826239824295044
212 240 0.3317572772502899
212 241 0.32762306928634644
212 242 0.3209925889968872
212 244 0.30284059047698975
212 246 0.06109105050563812
212 247 0.3121398091316223
212 248 0.3246704339981079
212 249 0.3131551146507263
212 251 0.10383483022451401
212 252 0.30376046895980835
212 253 0.2950870990753174
212 254 0.3315999209880829
212 255 0.30583393573760986
213 214 0.9359493255615234
213 215 0.9569348692893982
213 216 0.9600270390510559
213 217 0.9580320715904236
213 218 0.9506322741508484
213 219 0.9482114315032959
213 220 0.9531333446502686
213 221 0.9501345157623291
213 222 0.9260790348052979
213 223 0.9647815227508545
213 224 0.11470786482095718
213 225 0.9472595453262329
213 226 0.9610152244567871
213 227 0.9504240155220032
213 228 0.09941348433494568
213 229 0.05619514361023903
213 230 0.9630486965179443
213 231 0.9566347002983093
213 232 0.9650875329971313
213 233 0.9577252268791199
213 234 0.1452600359916687
213 235 0.956797182559967
213 236 0.14102205634117126
213 237 0.9564337730407715
213 238 0.9548840522766113
213 239 0.9651332497596741
213 240 0.9467051029205322
213 241 0.9620064496994019
213 242 0.9405859708786011
213 244 0.9483672380447388
213 245 0.07254762947559357
213 246 0.28569117188453674
213 247 0.9531333446502686
213 248 0.9572893381118774
213 249 0.9602699279785156
213 250 0.20267784595489502
213 251 0.11272429674863815
213 252 0.956085741519928
213 253 0.9353362321853638
213 254 0.9571834206581116
213 255 0.9531333446502686
214 215 0.9382548332214355
214 216 0.9459598064422607
214 217 0.9490020871162415
214 218 0.9403896331787109
214 219 0.9302476048469543
214 220 0.9396529197692871
214 221 0.9388302564620972
214 222 0.9115807414054871
214 223 0.9508367776870728
214 224 0.12433397769927979
214 225 0.9347102046012878
214 226 0.9490495920181274
214 227 0.9357821345329285
214 228 0.1165631040930748
214 229 0.05710402503609657
214 230 0.9436737895011902
214 231 0.9402346014976501
214 232 0.9499502182006836
214 233 0.9323959350585938
214 234 0.14058038592338562
214 235 0.9412192702293396
214 236 0.1495334357023239
214 237 0.9420307874679565
214 238 0.9436706304550171
214 239 0.9479103088378906
214 240 0.9373496174812317
214 241 0.9479103088378906
214 242 0.927750289440155
214 244 0.9358652830123901
214 245 0.058976780623197556
214 246 0.2972239851951599
214 247 0.940723180770874
214 248 0.9409821629524231
214 249 0.9385972023010254
214 250 0.16476468741893768
214 251 0.09692476689815521
214 252 0.9385972023010254
214 253 0.919979453086853
214 254 0.9471797943115234
214 255 0.9439338445663452
215 216 0.966315746307373
215 217 0.9602099657058716
215 218 0.9538784027099609
215 219 0.9504409432411194
215 220 0.9500820636749268
215 221 0.9544265866279602
215 222 0.9359284043312073
215 223 0.9658657908439636
215 224 0.1068359911441803
215 225 0.9473767876625061
215 226 0.9631544351577759
215 227 0.9473767876625061
215 228 0.12972941994667053
215 229 0.05607721582055092
215 230 0.9599875807762146
215 231 0.9577570557594299
215 232 0.9588975310325623
215 233 0.9472763538360596
215 234 0.12424730509519577
215 235 0.9516345858573914
215 236 0.12848904728889465
215 237 0.9565218687057495
215 238 0.9570686221122742
215 239 0.9631078243255615
215 240 0.9499843716621399
215 241 0.9620677828788757
215 242 0.948146402835846
215 244 0.952686071395874
215 245 0.057916298508644104
215 246 0.29527342319488525
215 247 0.9542859792709351
215 248 0.9604833126068115
215 249 0.9603423476219177
215 250 0.2073087990283966
215 251 0.09518192708492279
215 252 0.9572108387947083
215 253 0.9344424605369568
215 254 0.9593456387519836
215 255 0.9532350301742554
216 217 0.9632307291030884
216 218 0.9632019400596619
216 219 0.959916889667511
216 220 0.9636547565460205
216 221 0.9637349247932434
216 222 0.9426687955856323
216 223 0.9738338589668274
216 224 0.12845654785633087
216 225 0.9578853249549866
216 226 0.9711939096450806
216 227 0.9578853249549866
216 228 0.13601282238960266
216 229 0.05552699789404869
216 230 0.9701359272003174
216 231 0.969021201133728
216 232 0.9690768122673035
216 233 0.9557387828826904
216 234 0.14353293180465698
216 235 0.9599980115890503
216 236 0.13934533298015594
216 237 0.9626975655555725
216 238 0.9642676711082458
216 239 0.9711657762527466
216 240 0.9583920240402222
216 241 0.9701359272003174
216 242 0.9556273221969604
216 244 0.9589568376541138
216 245 0.07168504595756531
216 246 0.2856549620628357
216 247 0.9594920873641968
216 248 0.9696065187454224
216 249 0.9684910774230957
216 250 0.20527474582195282
216 251 0.0856800228357315
216 252 0.9684910774230957
216 253 0.943271279335022
216 254 0.9695510268211365
216 255 0.9605327844619751
217 218 0.9570686221122742
217 219 0.9483925104141235
217 220 0.9574868083000183
217 221 0.9565674066543579
217 222 0.9306650161743164
217 223 0.9669255018234253
217 224 0.11434733867645264
217 225 0.9505914449691772
217 226 0.9631842970848083
217 227 0.9505914449691772
217 228 0.12197049707174301
217 229 0.05601852759718895
217 230 0.9620998501777649
217 231 0.9588391184806824
217 232 0.9641343355178833
217 233 0.9515538811683655
217 234 0.1172218769788742
217 235 0.9558907747268677
217 236 0.158915176987648
217 237 0.9586605429649353
217 238 0.9560669660568237
217 239 0.9704117178916931
217 240 0.9531984329223633
217 241 0.9620998501777649
217 242 0.9524455070495605
217 244 0.9537899494171143
217 245 0.07231960445642471
217 246 0.3085259795188904
217 247 0.9574868083000183
217 248 0.9605176448822021
217 249 0.9603801369667053
217 250 0.19193877279758453
217 251 0.11236999928951263
217 252 0.9582945704460144
217 253 0.933464527130127
217 254 0.9614666700363159
217 255 0.9511874914169312
218 219 0.9451665878295898
218 220 0.9500820636749268
218 221 0.9617602229118347
218 222 0.9391446709632874
218 223 0.9669021368026733
218 224 0.12972941994667053
218 225 0.9484294056892395
218 226 0.9641934037208557
218 227 0.9494820833206177
218 228 0.12209827452898026
218 229 0.05607721582055092
218 230 0.9610276818275452
218 231 0.9577570557594299
218 232 0.9630621671676636
218 233 0.9451665878295898
218 234 0.14495518803596497
218 235 0.9537376761436462
218 236 0.14684461057186127
218 237 0.9565218687057495
218 238 0.954974353313446
218 239 0.9651879668235779
218 240 0.9499843716621399
218 241 0.9599875807762146
218 242 0.9407308101654053
218 244 0.9579437971115112
218 245 0.07239537686109543
218 246 0.3020613193511963
218 247 0.9511330723762512
218 248 0.9625645875930786
218 249 0.9613862633705139
218 250 0.20225249230861664
218 251 0.12114062905311584
218 252 0.9603423476219177
218 253 0.9451341032981873
218 254 0.958302915096283
218 255 0.9500820636749268
219 220 0.9455379247665405
219 221 0.9478346109390259
219 222 0.9289242029190063
219 223 0.9573975801467896
219 224 0.12287351489067078
219 225 0.9480953812599182
219 226 0.9556769728660583
219 227 0.9417394399642944
219 228 0.10751432180404663
219 229 0.05643326789140701
219 230 0.954569399356842
219 231 0.9564886093139648
219 232 0.9545083045959473
219 233 0.9458598494529724
219 234 0.12503619492053986
219 235 0.9449783563613892
219 236 0.12930485606193542
219 237 0.9478346109390259
219 238 0.9462850093841553
219 239 0.954569399356842
219 240 0.9411776661872864
219 241 0.9577094316482544
219 242 0.940307080745697
219 244 0.9439200758934021
219 245 0.07285503298044205
219 246 0.25957775115966797
219 247 0.9455379247665405
219 248 0.9540151357650757
219 249 0.9506826996803284
219 250 0.19844822585582733
219 251 0.0783705785870552
219 252 0.9601370096206665
219 253 0.9328439235687256
219 254 0.9538935422897339
219 255 0.9465955495834351
220 221 0.9506349563598633
220 222 0.9287165403366089
220 223 0.9611335396766663
220 224 0.1300707310438156
220 225 0.9519801139831543
220 226 0.9583961963653564
220 227 0.9509246349334717
220 228 0.12241950631141663
220 229 0.056224748492240906
220 230 0.9593847990036011
220 231 0.9571385383605957
220 232 0.9582886099815369
220 233 0.9465955495834351
220 234 0.1453365534543991
220 235 0.9467582106590271
220 236 0.13496170938014984
220 237 0.9527358412742615
220 238 0.9511874914169312
220 239 0.9572991728782654
220 240 0.9461477994918823
220 241 0.9572991728782654
220 242 0.9421435594558716
220 244 0.9478124976158142
220 245 0.07258584350347519
220 246 0.28924447298049927
220 247 0.9462592005729675
220 248 0.9588368535041809
220 249 0.9555427432060242
220 250 0.20278461277484894
220 251 0.12145934253931046
220 252 0.9534496068954468
220 253 0.9315410256385803
220 254 0.9566420316696167
220 255 0.9494203925132751
221 222 0.9322237372398376
221 223 0.9643242359161377
221 224 0.11440718173980713
221 225 0.9489848613739014
221 226 0.9636884927749634
221 227 0.9552974104881287
221 228 0.1296614706516266
221 229 0.056047845631837845
221 230 0.9605243802070618
221 231 0.9614264965057373
221 232 0.9625577926635742
221 233 0.9457259774208069
221 234 0.15177829563617706
221 235 0.9490342736244202
221 236 0.1651136875152588
221 237 0.9560209512710571
221 238 0.9576139450073242
221 239 0.9646825194358826
221 240 0.9600133299827576
221 241 0.9636430144309998
221 242 0.9455322623252869
221 244 0.9532381892204285
221 245 0.07235746085643768
221 246 0.2883344292640686
221 247 0.9506349563598633
221 248 0.9631005525588989
221 249 0.9587961435317993
221 250 0.19203925132751465
221 251 0.12107718735933304
221 252 0.9577528834342957
221 253 0.9350217580795288
221 254 0.9598855376243591
221 255 0.95168536901474
222 223 0.9433387517929077
222 224 0.10926833748817444
222 225 0.9248049855232239
222 226 0.9404511451721191
222 227 0.9237284064292908
222 228 0.10926833748817444
222 229 0.05735393241047859
222 230 0.9403574466705322
222 231 0.9411482214927673
222 232 0.9360051155090332
222 233 0.9267663955688477
222 234 0.14825540781021118
222 235 0.9302818179130554
222 236 0.13141436874866486
222 237 0.9343667030334473
222 238 0.9381617903709412
222 239 0.9424849152565002
222 240 0.9252941608428955
222 241 0.9414212107658386
222 242 0.9198920130729675
222 244 0.9345836639404297
222 245 0.07404360920190811
222 246 0.29852473735809326
222 247 0.9330161809921265
222 248 0.9419073462486267
222 249 0.9427047967910767
222 250 0.20685720443725586
222 251 0.11504875123500824
222 252 0.9405696392059326
222 253 0.9305665493011475
222 254 0.934260904788971
222 255 0.9265667796134949
223 224 0.12071432918310165
223 225 0.9595341682434082
223 226 0.9748362898826599
223 227 0.9595341682434082
223 228 0.13580362498760223
223 229 0.05544159188866615
223 230 0.9737851619720459
223 231 0.9685623049736023
223 232 0.9727330803871155
223 233 0.9594833850860596
223 234 0.1501365602016449
223 235 0.9678779244422913
223 236 0.16937686502933502
223 237 0.9663957953453064
223 238 0.9658902287483215
223 239 0.9737851619720459
223 240 0.9600417017936707
223 241 0.9717286229133606
223 242 0.9562521576881409
223 244 0.9637194871902466
223 245 0.057259831577539444
223 246 0.2952820658683777
223 247 0.9632115960121155
223 248 0.9722304344177246
223 249 0.968033492565155
223 250 0.17996402084827423
223 251 0.11976753175258636
223 252 0.968033492565155
223 253 0.9523908495903015
223 254 0.9701216220855713
223 255 0.9642506837844849
224 225 0.12261345982551575
224 226 0.12858876585960388
224 227 0.12261345982551575
224 228 0.2222222238779068
224 230 0.12114956229925156
224 231 0.1291217803955078
224 232 0.12885445356369019
224 233 0.1151939183473587
224 234 0.10050377994775772
224 235 0.11482879519462585
224 236 0.08908707648515701
224 237 0.1067800372838974
224 238 0.12197049707174301
224 239 0.12114956229925156
224 240 0.12267831712961197
224 241 0.13629326224327087
224 242 0.1311110407114029
224 244 0.1301393061876297
224 245 0.10540925711393356
224 246 0.09883323311805725
224 247 0.11476828902959824
224 248 0.13636362552642822
224 249 0.1367882341146469
224 251 0.0629940778017044
224 252 0.1367882341146469
224 253 0.108970046043396
224 254 0.1214633360505104
224 255 0.1300707310438156
225 226 0.9599146842956543
225 227 0.9503171443939209
225 228 0.10728677362203598
225 229 0.05631382763385773
225 230 0.9609048366546631
225 231 0.9555119276046753
225 232 0.9566702842712402
225 233 0.945976734161377
225 234 0.15249857306480408
225 235 0.9493141770362854
225 236 0.17204159498214722
225 237 0.9510890245437622
225 238 0.9516429901123047
225 239 0.9567270278930664
225 240 0.9444739818572998
225 241 0.9609048366546631
225 242 0.9415085911750793
225 244 0.9482582211494446
225 245 0.07270084321498871
225 246 0.2590283453464508
225 247 0.9509246349334717
225 248 0.9572210311889648
225 249 0.9518154263496399
225 250 0.2031058967113495
225 251 0.11296235769987106
225 252 0.9591531753540039
225 253 0.9308696389198303
225 254 0.9581576585769653
225 255 0.9467030167579651
226 227 0.9578279256820679
226 228 0.12858876585960388
226 229 0.055584151297807693
226 230 0.9701035618782043
226 231 0.9658820629119873
226 232 0.9700742959976196
226 233 0.9588137865066528
226 234 0.12999679148197174
226 235 0.9599438905715942
226 236 0.1698123961687088
226 237 0.9626500606536865
226 238 0.9662981033325195
226 239 0.9711344838142395
226 240 0.9593784809112549
226 241 0.9701035618782043
226 242 0.9513605237007141
226 244 0.9589015245437622
226 245 0.057407066226005554
226 246 0.29940545558929443
226 247 0.962563157081604
226 248 0.96854168176651
226 249 0.9674186110496521
226 250 0.19546231627464294
226 251 0.11149867624044418
226 252 0.9663839340209961
226 253 0.9463617205619812
226 254 0.9695153832435608
226 255 0.9646466374397278
227 228 0.11495011299848557
227 229 0.05631382763385773
227 230 0.9577714800834656
227 231 0.9534164667129517
227 232 0.9608524441719055
227 233 0.9449173808097839
227 234 0.15249857306480408
227 235 0.9461462497711182
227 236 0.17204159498214722
227 237 0.9510890245437622
227 238 0.9537460803985596
227 239 0.9567270278930664
227 240 0.9508198499679565
227 241 0.9577714800834656
227 242 0.9415085911750793
227 244 0.9482582211494446
227 245 0.07270084321498871
227 246 0.27947795391082764
227 247 0.9488138556480408
227 248 0.9603559970855713
227 249 0.9539119601249695
227 250 0.19295060634613037
227 251 0.1216517761349678
227 252 0.9528636932373047
227 253 0.9297959804534912
227 254 0.9644407033920288
227 255 0.955146312713623
228 230 0.10600586235523224
228 231 0.1063355877995491
228 232 0.12885445356369019
228 233 0.1151939183473587
228 234 0.05025188997387886
228 235 0.11482879519462585
228 236 0.08908707648515701
228 237 0.11440718173980713
228 238 0.12197049707174301
228 239 0.1135777086019516
228 240 0.12267831712961197
228 241 0.12872140109539032
228 242 0.12339862436056137
228 244 0.12248405069112778
228 246 0.12354154884815216
228 247 0.11476828902959824
228 248 0.12878787517547607
228 249 0.1367882341146469
228 251 0.0629940778017044
228 252 0.1291888803243637
228 253 0.13232077658176422
228 254 0.12905479967594147
228 255 0.11476828902959824
229 230 0.05564148724079132
229 231 0.055814556777477264
229 232 0.055698998272418976
229 233 0.05643326789140701
229 235 0.05625439062714577
229 238 0.05601852759718895
229 239 0.05564148724079132
229 240 0.05634361505508423
229 241 0.05564148724079132
229 242 0.05667443200945854
229 244 0.05625439062714577
229 247 0.056224748492240906
229 248 0.05567022040486336
229 249 0.05584355816245079
229 252 0.05584355816245079
229 254 0.05578560009598732
229 255 0.056224748492240906
230 231 0.9648079872131348
230 232 0.9669426679611206
230 233 0.9608494639396667
230 234 0.1506778746843338
230 235 0.9651074409484863
230 236 0.16998755931854248
230 237 0.9657220244407654
230 238 0.9620998501777649
230 239 0.9690402746200562
230 240 0.9551430344581604
230 241 0.9680082201957703
230 242 0.9523418545722961
230 244 0.9609339833259583
230 245 0.07183285802602768
230 246 0.29971426725387573
230 247 0.9604276418685913
230 248 0.9695407152175903
230 249 0.9663450121879578
230 250 0.20569798350334167
230 251 0.12019935250282288
230 252 0.9653093218803406
230 253 0.9473378658294678
230 254 0.9653420448303223
230 255 0.9635560512542725
231 232 0.965805172920227
231 233 0.950188934803009
231 234 0.1442762315273285
231 235 0.9565966725349426
231 236 0.14615681767463684
231 237 0.9593409299850464
231 238 0.9588391184806824
231 239 0.9679136276245117
231 240 0.9518243074417114
231 241 0.9689487814903259
231 242 0.9458142518997192
231 244 0.9576432704925537
231 245 0.07205627858638763
231 246 0.2837562561035156
231 247 0.9560925364494324
231 248 0.9653061628341675
231 249 0.9620780944824219
231 250 0.19627253711223602
231 251 0.12057321518659592
231 252 0.9672728776931763
231 253 0.9396429657936096
231 254 0.9621174335479736
231 255 0.9560925364494324
232 233 0.9566037654876709
232 234 0.1508336067199707
232 235 0.9608827233314514
232 236 0.17016324400901794
232 237 0.9625577926635742
232 238 0.9651743769645691
232 239 0.9721079468727112
232 240 0.9592685103416443
232 241 0.9710749387741089
232 242 0.9501694440841675
232 244 0.959838330745697
232 246 0.28653982281684875
232 247 0.9614202976226807
232 248 0.966408371925354
232 249 0.9631965160369873
232 250 0.19084396958351135
232 251 0.12032359093427658
232 252 0.9631965160369873
232 253 0.9440692663192749
232 254 0.9673755764961243
232 255 0.9645519256591797
233 234 0.14587555825710297
233 235 0.9576767683029175
233 236 0.1662490963935852
233 237 0.9467803239822388
233 238 0.9494462609291077
233 239 0.9577094316482544
233 240 0.9401177763938904
233 241 0.9566627740859985
233 242 0.9371087551116943
233 244 0.9439200758934021
233 245 0.07285503298044205
233 246 0.2937327027320862
233 247 0.9455379247665405
233 248 0.9540151357650757
233 249 0.9506826996803284
233 250 0.20353665947914124
233 251 0.11320194602012634
233 252 0.9538341760635376
233 253 0.9306920170783997
233 254 0.9549428820610046
233 255 0.9508261680603027
234 235 0.14541317522525787
234 236 0.12087343633174896
234 237 0.13798026740550995
234 238 0.13790808618068695
234 239 0.13013088703155518
234 240 0.131772980093956
234 241 0.1506778746843338
234 242 0.12557053565979004
234 244 0.15233762562274933
234 245 0.09534625709056854
234 246 0.08939803391695023
234 247 0.11765339970588684
234 248 0.15075567364692688
234 249 0.1031080037355423
234 251 0.11396057158708572
234 252 0.1374773383140564
234 253 0.15489117801189423
234 254 0.15106812119483948
234 255 0.1453365534543991
235 236 0.15958429872989655
235 237 0.952187180519104
235 238 0.954840362071991
235 239 0.9588472843170166
235 240 0.9434771537780762
235 241 0.959890604019165
235 242 0.9415776133537292
235 244 0.9504218697547913
235 245 0.05809928849339485
235 246 0.30301567912101746
235 247 0.9509753584861755
235 248 0.960386335849762
235 249 0.9539523124694824
235 250 0.19274695217609406
235 251 0.11284314095973969
235 252 0.9539523124694824
235 253 0.9395400285720825
235 254 0.9581925272941589
235 255 0.955192506313324
236 237 0.13453708589076996
236 238 0.158915176987648
236 239 0.15784558653831482
236 240 0.14139463007450104
236 241 0.16998755931854248
236 242 0.13604113459587097
236 244 0.16572214663028717
236 246 0.09905360639095306
236 247 0.15336556732654572
236 248 0.1640012115240097
236 249 0.1279536783695221
236 251 0.10101525485515594
236 252 0.15841881930828094
236 253 0.1497778296470642
236 254 0.16434112191200256
236 255 0.15950019657611847
237 238 0.9565674066543579
237 239 0.9636430144309998
237 240 0.954750120639801
237 241 0.9626034498214722
237 242 0.949767529964447
237 244 0.9532381892204285
237 245 0.07235746085643768
237 246 0.29172661900520325
237 247 0.9548366665840149
237 248 0.9620605111122131
237 249 0.9587961435317993
237 250 0.20214657485485077
237 251 0.11242882162332535
237 252 0.9587961435317993
237 253 0.9435704946517944
237 254 0.9598855376243591
237 255 0.9558870792388916
238 239 0.9641777873039246
238 240 0.9542505741119385
238 241 0.9641777873039246
238 242 0.9429210424423218
238 244 0.954840362071991
238 245 0.05785568431019783
238 246 0.2983548045158386
238 247 0.9574868083000183
238 248 0.964675784111023
238 249 0.9593372941017151
238 250 0.19193877279758453
238 251 0.12101384997367859
238 252 0.9593372941017151
238 253 0.940940797328949
238 254 0.9635500907897949
238 255 0.9553869962692261
239 240 0.9603680968284607
239 241 0.9700722694396973
239 242 0.954444169998169
239 244 0.959890604019165
239 245 0.07183285802602768
239 246 0.2963466942310333
239 247 0.9645988941192627
239 248 0.9674755930900574
239 249 0.9673807621002197
239 250 0.18061286211013794
239 251 0.10302801430225372
239 252 0.9642735719680786
239 253 0.9441553354263306
239 254 0.9663767218589783
239 255 0.9614704251289368
240 241 0.9561880230903625
240 242 0.9420065879821777
240 244 0.9487597942352295
240 246 0.2864459455013275
240 247 0.9472037553787231
240 248 0.9556362628936768
240 249 0.9533677101135254
240 250 0.1778116375207901
240 251 0.11302211135625839
240 252 0.9533677101135254
240 253 0.9270650744438171
240 254 0.9555214047431946
240 255 0.9535396099090576
241 242 0.9523418545722961
241 244 0.9588472843170166
241 245 0.07183285802602768
241 246 0.2963466942310333
241 247 0.9572991728782654
241 248 0.9674755930900574
241 249 0.9642735719680786
241 250 0.20569798350334167
241 251 0.12019935250282288
241 252 0.9653093218803406
241 253 0.9420336484909058
241 254 0.9674113988876343
241 255 0.9593847990036011
242 244 0.940514862537384
242 245 0.0731663778424263
242 246 0.27440741658210754
242 247 0.9432057738304138
242 248 0.9496785998344421
242 249 0.9526355266571045
242 250 0.2044064700603485
242 251 0.0874505564570427
242 252 0.9484156966209412
242 253 0.9271055459976196
242 254 0.9495390057563782
242 255 0.9410814046859741
244 245 0.07262410968542099
244 246 0.29620635509490967
244 247 0.9520296454429626
244 248 0.9582985639572144
244 249 0.9560465812683105
244 250 0.18260237574577332
244 251 0.10416289418935776
244 252 0.9570937156677246
244 253 0.9331048130989075
244 254 0.9540082812309265
244 255 0.9478124976158142
245 247 0.07258584350347519
245 248 0.07186995446681976
245 249 0.05767497792840004
245 252 0.07209372520446777
245 253 0.07384146749973297
245 254 0.057615119963884354
246 247 0.306258887052536
246 248 0.3066076636314392
246 249 0.3041825294494629
246 250 0.11460021138191223
246 251 0.1680995374917984
246 252 0.26700466871261597
246 253 0.28386276960372925
246 254 0.2971142530441284
246 255 0.29945313930511475
247 248 0.9598802328109741
247 249 0.9586825966835022
247 250 0.19771498441696167
247 251 0.11278367042541504
247 252 0.9534496068954468
247 253 0.9326130151748657
247 254 0.9555965065956116
247 255 0.9494203925132751
248 249 0.9637352228164673
248 250 0.18572574853897095
248 251 0.12026142328977585
248 252 0.9647715091705322
248 253 0.9446429014205933
248 254 0.9679110050201416
248 255 0.9598802328109741
249 250 0.20644500851631165
249 251 0.12063587456941605
249 252 0.9636174440383911
249 253 0.9465194344520569
249 254 0.9615789651870728
249 255 0.9544962048530579
250 252 0.20140977203845978
250 253 0.1805059164762497
250 254 0.2012007236480713
250 255 0.18250614404678345
251 252 0.07755163311958313
251 253 0.097083181142807
251 254 0.11190275847911835
251 255 0.11278367042541504
252 253 0.9454547762870789
252 254 0.9626173377037048
252 255 0.9555427432060242
253 254 0.9402191638946533
253 255 0.9369008541107178
254 255 0.9576875567436218
